p cnf 360 3894
1 0
-2 0
-3 0
-4 0
-5 0
-6 0
-7 0
8 0
-9 0
-10 0
-11 0
-12 0
-13 0
-14 0
15 0
-16 0
-17 0
-18 0
-19 0
-20 0
-21 0
22 0
-23 0
-24 0
-25 0
-26 0
-27 0
-28 0
29 0
-30 0
-31 0
-32 0
-33 0
-34 0
-35 0
36 0
37 38 39 40 41 42 0
-37 -38 0
-37 -39 0
-37 -40 0
-37 -41 0
-37 -42 0
-38 -39 0
-38 -40 0
-38 -41 0
-38 -42 0
-39 -40 0
-39 -41 0
-39 -42 0
-40 -41 0
-40 -42 0
-41 -42 0
43 44 45 46 47 48 0
-43 -44 0
-43 -45 0
-43 -46 0
-43 -47 0
-43 -48 0
-44 -45 0
-44 -46 0
-44 -47 0
-44 -48 0
-45 -46 0
-45 -47 0
-45 -48 0
-46 -47 0
-46 -48 0
-47 -48 0
-37 -43 0
-38 -43 0
-38 -44 0
-39 -43 0
-39 -44 0
-39 -45 0
-40 -43 0
-40 -44 0
-40 -45 0
-40 -46 0
-41 -43 0
-41 -44 0
-41 -45 0
-41 -46 0
-41 -47 0
-42 -43 0
-42 -44 0
-42 -45 0
-42 -46 0
-42 -47 0
-42 -48 0
-37 -44 -1 -7 -49 0
-37 -44 -1 7 49 0
-37 -44 1 -7 49 0
-37 -44 1 7 -49 0
-37 -44 -2 -8 -50 0
-37 -44 -2 8 50 0
-37 -44 2 -8 50 0
-37 -44 2 8 -50 0
-37 -44 -3 -9 -51 0
-37 -44 -3 9 51 0
-37 -44 3 -9 51 0
-37 -44 3 9 -51 0
-37 -44 -4 -10 -52 0
-37 -44 -4 10 52 0
-37 -44 4 -10 52 0
-37 -44 4 10 -52 0
-37 -44 -5 -11 -53 0
-37 -44 -5 11 53 0
-37 -44 5 -11 53 0
-37 -44 5 11 -53 0
-37 -44 -6 -12 -54 0
-37 -44 -6 12 54 0
-37 -44 6 -12 54 0
-37 -44 6 12 -54 0
-37 -45 -1 -13 -49 0
-37 -45 -1 13 49 0
-37 -45 1 -13 49 0
-37 -45 1 13 -49 0
-37 -45 -2 -14 -50 0
-37 -45 -2 14 50 0
-37 -45 2 -14 50 0
-37 -45 2 14 -50 0
-37 -45 -3 -15 -51 0
-37 -45 -3 15 51 0
-37 -45 3 -15 51 0
-37 -45 3 15 -51 0
-37 -45 -4 -16 -52 0
-37 -45 -4 16 52 0
-37 -45 4 -16 52 0
-37 -45 4 16 -52 0
-37 -45 -5 -17 -53 0
-37 -45 -5 17 53 0
-37 -45 5 -17 53 0
-37 -45 5 17 -53 0
-37 -45 -6 -18 -54 0
-37 -45 -6 18 54 0
-37 -45 6 -18 54 0
-37 -45 6 18 -54 0
-37 -46 -1 -19 -49 0
-37 -46 -1 19 49 0
-37 -46 1 -19 49 0
-37 -46 1 19 -49 0
-37 -46 -2 -20 -50 0
-37 -46 -2 20 50 0
-37 -46 2 -20 50 0
-37 -46 2 20 -50 0
-37 -46 -3 -21 -51 0
-37 -46 -3 21 51 0
-37 -46 3 -21 51 0
-37 -46 3 21 -51 0
-37 -46 -4 -22 -52 0
-37 -46 -4 22 52 0
-37 -46 4 -22 52 0
-37 -46 4 22 -52 0
-37 -46 -5 -23 -53 0
-37 -46 -5 23 53 0
-37 -46 5 -23 53 0
-37 -46 5 23 -53 0
-37 -46 -6 -24 -54 0
-37 -46 -6 24 54 0
-37 -46 6 -24 54 0
-37 -46 6 24 -54 0
-37 -47 -1 -25 -49 0
-37 -47 -1 25 49 0
-37 -47 1 -25 49 0
-37 -47 1 25 -49 0
-37 -47 -2 -26 -50 0
-37 -47 -2 26 50 0
-37 -47 2 -26 50 0
-37 -47 2 26 -50 0
-37 -47 -3 -27 -51 0
-37 -47 -3 27 51 0
-37 -47 3 -27 51 0
-37 -47 3 27 -51 0
-37 -47 -4 -28 -52 0
-37 -47 -4 28 52 0
-37 -47 4 -28 52 0
-37 -47 4 28 -52 0
-37 -47 -5 -29 -53 0
-37 -47 -5 29 53 0
-37 -47 5 -29 53 0
-37 -47 5 29 -53 0
-37 -47 -6 -30 -54 0
-37 -47 -6 30 54 0
-37 -47 6 -30 54 0
-37 -47 6 30 -54 0
-37 -48 -1 -31 -49 0
-37 -48 -1 31 49 0
-37 -48 1 -31 49 0
-37 -48 1 31 -49 0
-37 -48 -2 -32 -50 0
-37 -48 -2 32 50 0
-37 -48 2 -32 50 0
-37 -48 2 32 -50 0
-37 -48 -3 -33 -51 0
-37 -48 -3 33 51 0
-37 -48 3 -33 51 0
-37 -48 3 33 -51 0
-37 -48 -4 -34 -52 0
-37 -48 -4 34 52 0
-37 -48 4 -34 52 0
-37 -48 4 34 -52 0
-37 -48 -5 -35 -53 0
-37 -48 -5 35 53 0
-37 -48 5 -35 53 0
-37 -48 5 35 -53 0
-37 -48 -6 -36 -54 0
-37 -48 -6 36 54 0
-37 -48 6 -36 54 0
-37 -48 6 36 -54 0
-38 -45 -7 -13 -49 0
-38 -45 -7 13 49 0
-38 -45 7 -13 49 0
-38 -45 7 13 -49 0
-38 -45 -8 -14 -50 0
-38 -45 -8 14 50 0
-38 -45 8 -14 50 0
-38 -45 8 14 -50 0
-38 -45 -9 -15 -51 0
-38 -45 -9 15 51 0
-38 -45 9 -15 51 0
-38 -45 9 15 -51 0
-38 -45 -10 -16 -52 0
-38 -45 -10 16 52 0
-38 -45 10 -16 52 0
-38 -45 10 16 -52 0
-38 -45 -11 -17 -53 0
-38 -45 -11 17 53 0
-38 -45 11 -17 53 0
-38 -45 11 17 -53 0
-38 -45 -12 -18 -54 0
-38 -45 -12 18 54 0
-38 -45 12 -18 54 0
-38 -45 12 18 -54 0
-38 -46 -7 -19 -49 0
-38 -46 -7 19 49 0
-38 -46 7 -19 49 0
-38 -46 7 19 -49 0
-38 -46 -8 -20 -50 0
-38 -46 -8 20 50 0
-38 -46 8 -20 50 0
-38 -46 8 20 -50 0
-38 -46 -9 -21 -51 0
-38 -46 -9 21 51 0
-38 -46 9 -21 51 0
-38 -46 9 21 -51 0
-38 -46 -10 -22 -52 0
-38 -46 -10 22 52 0
-38 -46 10 -22 52 0
-38 -46 10 22 -52 0
-38 -46 -11 -23 -53 0
-38 -46 -11 23 53 0
-38 -46 11 -23 53 0
-38 -46 11 23 -53 0
-38 -46 -12 -24 -54 0
-38 -46 -12 24 54 0
-38 -46 12 -24 54 0
-38 -46 12 24 -54 0
-38 -47 -7 -25 -49 0
-38 -47 -7 25 49 0
-38 -47 7 -25 49 0
-38 -47 7 25 -49 0
-38 -47 -8 -26 -50 0
-38 -47 -8 26 50 0
-38 -47 8 -26 50 0
-38 -47 8 26 -50 0
-38 -47 -9 -27 -51 0
-38 -47 -9 27 51 0
-38 -47 9 -27 51 0
-38 -47 9 27 -51 0
-38 -47 -10 -28 -52 0
-38 -47 -10 28 52 0
-38 -47 10 -28 52 0
-38 -47 10 28 -52 0
-38 -47 -11 -29 -53 0
-38 -47 -11 29 53 0
-38 -47 11 -29 53 0
-38 -47 11 29 -53 0
-38 -47 -12 -30 -54 0
-38 -47 -12 30 54 0
-38 -47 12 -30 54 0
-38 -47 12 30 -54 0
-38 -48 -7 -31 -49 0
-38 -48 -7 31 49 0
-38 -48 7 -31 49 0
-38 -48 7 31 -49 0
-38 -48 -8 -32 -50 0
-38 -48 -8 32 50 0
-38 -48 8 -32 50 0
-38 -48 8 32 -50 0
-38 -48 -9 -33 -51 0
-38 -48 -9 33 51 0
-38 -48 9 -33 51 0
-38 -48 9 33 -51 0
-38 -48 -10 -34 -52 0
-38 -48 -10 34 52 0
-38 -48 10 -34 52 0
-38 -48 10 34 -52 0
-38 -48 -11 -35 -53 0
-38 -48 -11 35 53 0
-38 -48 11 -35 53 0
-38 -48 11 35 -53 0
-38 -48 -12 -36 -54 0
-38 -48 -12 36 54 0
-38 -48 12 -36 54 0
-38 -48 12 36 -54 0
-39 -46 -13 -19 -49 0
-39 -46 -13 19 49 0
-39 -46 13 -19 49 0
-39 -46 13 19 -49 0
-39 -46 -14 -20 -50 0
-39 -46 -14 20 50 0
-39 -46 14 -20 50 0
-39 -46 14 20 -50 0
-39 -46 -15 -21 -51 0
-39 -46 -15 21 51 0
-39 -46 15 -21 51 0
-39 -46 15 21 -51 0
-39 -46 -16 -22 -52 0
-39 -46 -16 22 52 0
-39 -46 16 -22 52 0
-39 -46 16 22 -52 0
-39 -46 -17 -23 -53 0
-39 -46 -17 23 53 0
-39 -46 17 -23 53 0
-39 -46 17 23 -53 0
-39 -46 -18 -24 -54 0
-39 -46 -18 24 54 0
-39 -46 18 -24 54 0
-39 -46 18 24 -54 0
-39 -47 -13 -25 -49 0
-39 -47 -13 25 49 0
-39 -47 13 -25 49 0
-39 -47 13 25 -49 0
-39 -47 -14 -26 -50 0
-39 -47 -14 26 50 0
-39 -47 14 -26 50 0
-39 -47 14 26 -50 0
-39 -47 -15 -27 -51 0
-39 -47 -15 27 51 0
-39 -47 15 -27 51 0
-39 -47 15 27 -51 0
-39 -47 -16 -28 -52 0
-39 -47 -16 28 52 0
-39 -47 16 -28 52 0
-39 -47 16 28 -52 0
-39 -47 -17 -29 -53 0
-39 -47 -17 29 53 0
-39 -47 17 -29 53 0
-39 -47 17 29 -53 0
-39 -47 -18 -30 -54 0
-39 -47 -18 30 54 0
-39 -47 18 -30 54 0
-39 -47 18 30 -54 0
-39 -48 -13 -31 -49 0
-39 -48 -13 31 49 0
-39 -48 13 -31 49 0
-39 -48 13 31 -49 0
-39 -48 -14 -32 -50 0
-39 -48 -14 32 50 0
-39 -48 14 -32 50 0
-39 -48 14 32 -50 0
-39 -48 -15 -33 -51 0
-39 -48 -15 33 51 0
-39 -48 15 -33 51 0
-39 -48 15 33 -51 0
-39 -48 -16 -34 -52 0
-39 -48 -16 34 52 0
-39 -48 16 -34 52 0
-39 -48 16 34 -52 0
-39 -48 -17 -35 -53 0
-39 -48 -17 35 53 0
-39 -48 17 -35 53 0
-39 -48 17 35 -53 0
-39 -48 -18 -36 -54 0
-39 -48 -18 36 54 0
-39 -48 18 -36 54 0
-39 -48 18 36 -54 0
-40 -47 -19 -25 -49 0
-40 -47 -19 25 49 0
-40 -47 19 -25 49 0
-40 -47 19 25 -49 0
-40 -47 -20 -26 -50 0
-40 -47 -20 26 50 0
-40 -47 20 -26 50 0
-40 -47 20 26 -50 0
-40 -47 -21 -27 -51 0
-40 -47 -21 27 51 0
-40 -47 21 -27 51 0
-40 -47 21 27 -51 0
-40 -47 -22 -28 -52 0
-40 -47 -22 28 52 0
-40 -47 22 -28 52 0
-40 -47 22 28 -52 0
-40 -47 -23 -29 -53 0
-40 -47 -23 29 53 0
-40 -47 23 -29 53 0
-40 -47 23 29 -53 0
-40 -47 -24 -30 -54 0
-40 -47 -24 30 54 0
-40 -47 24 -30 54 0
-40 -47 24 30 -54 0
-40 -48 -19 -31 -49 0
-40 -48 -19 31 49 0
-40 -48 19 -31 49 0
-40 -48 19 31 -49 0
-40 -48 -20 -32 -50 0
-40 -48 -20 32 50 0
-40 -48 20 -32 50 0
-40 -48 20 32 -50 0
-40 -48 -21 -33 -51 0
-40 -48 -21 33 51 0
-40 -48 21 -33 51 0
-40 -48 21 33 -51 0
-40 -48 -22 -34 -52 0
-40 -48 -22 34 52 0
-40 -48 22 -34 52 0
-40 -48 22 34 -52 0
-40 -48 -23 -35 -53 0
-40 -48 -23 35 53 0
-40 -48 23 -35 53 0
-40 -48 23 35 -53 0
-40 -48 -24 -36 -54 0
-40 -48 -24 36 54 0
-40 -48 24 -36 54 0
-40 -48 24 36 -54 0
-41 -48 -25 -31 -49 0
-41 -48 -25 31 49 0
-41 -48 25 -31 49 0
-41 -48 25 31 -49 0
-41 -48 -26 -32 -50 0
-41 -48 -26 32 50 0
-41 -48 26 -32 50 0
-41 -48 26 32 -50 0
-41 -48 -27 -33 -51 0
-41 -48 -27 33 51 0
-41 -48 27 -33 51 0
-41 -48 27 33 -51 0
-41 -48 -28 -34 -52 0
-41 -48 -28 34 52 0
-41 -48 28 -34 52 0
-41 -48 28 34 -52 0
-41 -48 -29 -35 -53 0
-41 -48 -29 35 53 0
-41 -48 29 -35 53 0
-41 -48 29 35 -53 0
-41 -48 -30 -36 -54 0
-41 -48 -30 36 54 0
-41 -48 30 -36 54 0
-41 -48 30 36 -54 0
49 50 51 52 53 54 0
55 56 57 58 59 60 61 0
-55 -56 0
-55 -57 0
-55 -58 0
-55 -59 0
-55 -60 0
-55 -61 0
-56 -57 0
-56 -58 0
-56 -59 0
-56 -60 0
-56 -61 0
-57 -58 0
-57 -59 0
-57 -60 0
-57 -61 0
-58 -59 0
-58 -60 0
-58 -61 0
-59 -60 0
-59 -61 0
-60 -61 0
62 63 64 65 66 67 68 0
-62 -63 0
-62 -64 0
-62 -65 0
-62 -66 0
-62 -67 0
-62 -68 0
-63 -64 0
-63 -65 0
-63 -66 0
-63 -67 0
-63 -68 0
-64 -65 0
-64 -66 0
-64 -67 0
-64 -68 0
-65 -66 0
-65 -67 0
-65 -68 0
-66 -67 0
-66 -68 0
-67 -68 0
-55 -62 0
-56 -62 0
-56 -63 0
-57 -62 0
-57 -63 0
-57 -64 0
-58 -62 0
-58 -63 0
-58 -64 0
-58 -65 0
-59 -62 0
-59 -63 0
-59 -64 0
-59 -65 0
-59 -66 0
-60 -62 0
-60 -63 0
-60 -64 0
-60 -65 0
-60 -66 0
-60 -67 0
-61 -62 0
-61 -63 0
-61 -64 0
-61 -65 0
-61 -66 0
-61 -67 0
-61 -68 0
-55 -63 -1 -7 -69 0
-55 -63 -1 7 69 0
-55 -63 1 -7 69 0
-55 -63 1 7 -69 0
-55 -63 -2 -8 -70 0
-55 -63 -2 8 70 0
-55 -63 2 -8 70 0
-55 -63 2 8 -70 0
-55 -63 -3 -9 -71 0
-55 -63 -3 9 71 0
-55 -63 3 -9 71 0
-55 -63 3 9 -71 0
-55 -63 -4 -10 -72 0
-55 -63 -4 10 72 0
-55 -63 4 -10 72 0
-55 -63 4 10 -72 0
-55 -63 -5 -11 -73 0
-55 -63 -5 11 73 0
-55 -63 5 -11 73 0
-55 -63 5 11 -73 0
-55 -63 -6 -12 -74 0
-55 -63 -6 12 74 0
-55 -63 6 -12 74 0
-55 -63 6 12 -74 0
-55 -64 -1 -13 -69 0
-55 -64 -1 13 69 0
-55 -64 1 -13 69 0
-55 -64 1 13 -69 0
-55 -64 -2 -14 -70 0
-55 -64 -2 14 70 0
-55 -64 2 -14 70 0
-55 -64 2 14 -70 0
-55 -64 -3 -15 -71 0
-55 -64 -3 15 71 0
-55 -64 3 -15 71 0
-55 -64 3 15 -71 0
-55 -64 -4 -16 -72 0
-55 -64 -4 16 72 0
-55 -64 4 -16 72 0
-55 -64 4 16 -72 0
-55 -64 -5 -17 -73 0
-55 -64 -5 17 73 0
-55 -64 5 -17 73 0
-55 -64 5 17 -73 0
-55 -64 -6 -18 -74 0
-55 -64 -6 18 74 0
-55 -64 6 -18 74 0
-55 -64 6 18 -74 0
-55 -65 -1 -19 -69 0
-55 -65 -1 19 69 0
-55 -65 1 -19 69 0
-55 -65 1 19 -69 0
-55 -65 -2 -20 -70 0
-55 -65 -2 20 70 0
-55 -65 2 -20 70 0
-55 -65 2 20 -70 0
-55 -65 -3 -21 -71 0
-55 -65 -3 21 71 0
-55 -65 3 -21 71 0
-55 -65 3 21 -71 0
-55 -65 -4 -22 -72 0
-55 -65 -4 22 72 0
-55 -65 4 -22 72 0
-55 -65 4 22 -72 0
-55 -65 -5 -23 -73 0
-55 -65 -5 23 73 0
-55 -65 5 -23 73 0
-55 -65 5 23 -73 0
-55 -65 -6 -24 -74 0
-55 -65 -6 24 74 0
-55 -65 6 -24 74 0
-55 -65 6 24 -74 0
-55 -66 -1 -25 -69 0
-55 -66 -1 25 69 0
-55 -66 1 -25 69 0
-55 -66 1 25 -69 0
-55 -66 -2 -26 -70 0
-55 -66 -2 26 70 0
-55 -66 2 -26 70 0
-55 -66 2 26 -70 0
-55 -66 -3 -27 -71 0
-55 -66 -3 27 71 0
-55 -66 3 -27 71 0
-55 -66 3 27 -71 0
-55 -66 -4 -28 -72 0
-55 -66 -4 28 72 0
-55 -66 4 -28 72 0
-55 -66 4 28 -72 0
-55 -66 -5 -29 -73 0
-55 -66 -5 29 73 0
-55 -66 5 -29 73 0
-55 -66 5 29 -73 0
-55 -66 -6 -30 -74 0
-55 -66 -6 30 74 0
-55 -66 6 -30 74 0
-55 -66 6 30 -74 0
-55 -67 -1 -31 -69 0
-55 -67 -1 31 69 0
-55 -67 1 -31 69 0
-55 -67 1 31 -69 0
-55 -67 -2 -32 -70 0
-55 -67 -2 32 70 0
-55 -67 2 -32 70 0
-55 -67 2 32 -70 0
-55 -67 -3 -33 -71 0
-55 -67 -3 33 71 0
-55 -67 3 -33 71 0
-55 -67 3 33 -71 0
-55 -67 -4 -34 -72 0
-55 -67 -4 34 72 0
-55 -67 4 -34 72 0
-55 -67 4 34 -72 0
-55 -67 -5 -35 -73 0
-55 -67 -5 35 73 0
-55 -67 5 -35 73 0
-55 -67 5 35 -73 0
-55 -67 -6 -36 -74 0
-55 -67 -6 36 74 0
-55 -67 6 -36 74 0
-55 -67 6 36 -74 0
-55 -68 -1 -49 -69 0
-55 -68 -1 49 69 0
-55 -68 1 -49 69 0
-55 -68 1 49 -69 0
-55 -68 -2 -50 -70 0
-55 -68 -2 50 70 0
-55 -68 2 -50 70 0
-55 -68 2 50 -70 0
-55 -68 -3 -51 -71 0
-55 -68 -3 51 71 0
-55 -68 3 -51 71 0
-55 -68 3 51 -71 0
-55 -68 -4 -52 -72 0
-55 -68 -4 52 72 0
-55 -68 4 -52 72 0
-55 -68 4 52 -72 0
-55 -68 -5 -53 -73 0
-55 -68 -5 53 73 0
-55 -68 5 -53 73 0
-55 -68 5 53 -73 0
-55 -68 -6 -54 -74 0
-55 -68 -6 54 74 0
-55 -68 6 -54 74 0
-55 -68 6 54 -74 0
-56 -64 -7 -13 -69 0
-56 -64 -7 13 69 0
-56 -64 7 -13 69 0
-56 -64 7 13 -69 0
-56 -64 -8 -14 -70 0
-56 -64 -8 14 70 0
-56 -64 8 -14 70 0
-56 -64 8 14 -70 0
-56 -64 -9 -15 -71 0
-56 -64 -9 15 71 0
-56 -64 9 -15 71 0
-56 -64 9 15 -71 0
-56 -64 -10 -16 -72 0
-56 -64 -10 16 72 0
-56 -64 10 -16 72 0
-56 -64 10 16 -72 0
-56 -64 -11 -17 -73 0
-56 -64 -11 17 73 0
-56 -64 11 -17 73 0
-56 -64 11 17 -73 0
-56 -64 -12 -18 -74 0
-56 -64 -12 18 74 0
-56 -64 12 -18 74 0
-56 -64 12 18 -74 0
-56 -65 -7 -19 -69 0
-56 -65 -7 19 69 0
-56 -65 7 -19 69 0
-56 -65 7 19 -69 0
-56 -65 -8 -20 -70 0
-56 -65 -8 20 70 0
-56 -65 8 -20 70 0
-56 -65 8 20 -70 0
-56 -65 -9 -21 -71 0
-56 -65 -9 21 71 0
-56 -65 9 -21 71 0
-56 -65 9 21 -71 0
-56 -65 -10 -22 -72 0
-56 -65 -10 22 72 0
-56 -65 10 -22 72 0
-56 -65 10 22 -72 0
-56 -65 -11 -23 -73 0
-56 -65 -11 23 73 0
-56 -65 11 -23 73 0
-56 -65 11 23 -73 0
-56 -65 -12 -24 -74 0
-56 -65 -12 24 74 0
-56 -65 12 -24 74 0
-56 -65 12 24 -74 0
-56 -66 -7 -25 -69 0
-56 -66 -7 25 69 0
-56 -66 7 -25 69 0
-56 -66 7 25 -69 0
-56 -66 -8 -26 -70 0
-56 -66 -8 26 70 0
-56 -66 8 -26 70 0
-56 -66 8 26 -70 0
-56 -66 -9 -27 -71 0
-56 -66 -9 27 71 0
-56 -66 9 -27 71 0
-56 -66 9 27 -71 0
-56 -66 -10 -28 -72 0
-56 -66 -10 28 72 0
-56 -66 10 -28 72 0
-56 -66 10 28 -72 0
-56 -66 -11 -29 -73 0
-56 -66 -11 29 73 0
-56 -66 11 -29 73 0
-56 -66 11 29 -73 0
-56 -66 -12 -30 -74 0
-56 -66 -12 30 74 0
-56 -66 12 -30 74 0
-56 -66 12 30 -74 0
-56 -67 -7 -31 -69 0
-56 -67 -7 31 69 0
-56 -67 7 -31 69 0
-56 -67 7 31 -69 0
-56 -67 -8 -32 -70 0
-56 -67 -8 32 70 0
-56 -67 8 -32 70 0
-56 -67 8 32 -70 0
-56 -67 -9 -33 -71 0
-56 -67 -9 33 71 0
-56 -67 9 -33 71 0
-56 -67 9 33 -71 0
-56 -67 -10 -34 -72 0
-56 -67 -10 34 72 0
-56 -67 10 -34 72 0
-56 -67 10 34 -72 0
-56 -67 -11 -35 -73 0
-56 -67 -11 35 73 0
-56 -67 11 -35 73 0
-56 -67 11 35 -73 0
-56 -67 -12 -36 -74 0
-56 -67 -12 36 74 0
-56 -67 12 -36 74 0
-56 -67 12 36 -74 0
-56 -68 -7 -49 -69 0
-56 -68 -7 49 69 0
-56 -68 7 -49 69 0
-56 -68 7 49 -69 0
-56 -68 -8 -50 -70 0
-56 -68 -8 50 70 0
-56 -68 8 -50 70 0
-56 -68 8 50 -70 0
-56 -68 -9 -51 -71 0
-56 -68 -9 51 71 0
-56 -68 9 -51 71 0
-56 -68 9 51 -71 0
-56 -68 -10 -52 -72 0
-56 -68 -10 52 72 0
-56 -68 10 -52 72 0
-56 -68 10 52 -72 0
-56 -68 -11 -53 -73 0
-56 -68 -11 53 73 0
-56 -68 11 -53 73 0
-56 -68 11 53 -73 0
-56 -68 -12 -54 -74 0
-56 -68 -12 54 74 0
-56 -68 12 -54 74 0
-56 -68 12 54 -74 0
-57 -65 -13 -19 -69 0
-57 -65 -13 19 69 0
-57 -65 13 -19 69 0
-57 -65 13 19 -69 0
-57 -65 -14 -20 -70 0
-57 -65 -14 20 70 0
-57 -65 14 -20 70 0
-57 -65 14 20 -70 0
-57 -65 -15 -21 -71 0
-57 -65 -15 21 71 0
-57 -65 15 -21 71 0
-57 -65 15 21 -71 0
-57 -65 -16 -22 -72 0
-57 -65 -16 22 72 0
-57 -65 16 -22 72 0
-57 -65 16 22 -72 0
-57 -65 -17 -23 -73 0
-57 -65 -17 23 73 0
-57 -65 17 -23 73 0
-57 -65 17 23 -73 0
-57 -65 -18 -24 -74 0
-57 -65 -18 24 74 0
-57 -65 18 -24 74 0
-57 -65 18 24 -74 0
-57 -66 -13 -25 -69 0
-57 -66 -13 25 69 0
-57 -66 13 -25 69 0
-57 -66 13 25 -69 0
-57 -66 -14 -26 -70 0
-57 -66 -14 26 70 0
-57 -66 14 -26 70 0
-57 -66 14 26 -70 0
-57 -66 -15 -27 -71 0
-57 -66 -15 27 71 0
-57 -66 15 -27 71 0
-57 -66 15 27 -71 0
-57 -66 -16 -28 -72 0
-57 -66 -16 28 72 0
-57 -66 16 -28 72 0
-57 -66 16 28 -72 0
-57 -66 -17 -29 -73 0
-57 -66 -17 29 73 0
-57 -66 17 -29 73 0
-57 -66 17 29 -73 0
-57 -66 -18 -30 -74 0
-57 -66 -18 30 74 0
-57 -66 18 -30 74 0
-57 -66 18 30 -74 0
-57 -67 -13 -31 -69 0
-57 -67 -13 31 69 0
-57 -67 13 -31 69 0
-57 -67 13 31 -69 0
-57 -67 -14 -32 -70 0
-57 -67 -14 32 70 0
-57 -67 14 -32 70 0
-57 -67 14 32 -70 0
-57 -67 -15 -33 -71 0
-57 -67 -15 33 71 0
-57 -67 15 -33 71 0
-57 -67 15 33 -71 0
-57 -67 -16 -34 -72 0
-57 -67 -16 34 72 0
-57 -67 16 -34 72 0
-57 -67 16 34 -72 0
-57 -67 -17 -35 -73 0
-57 -67 -17 35 73 0
-57 -67 17 -35 73 0
-57 -67 17 35 -73 0
-57 -67 -18 -36 -74 0
-57 -67 -18 36 74 0
-57 -67 18 -36 74 0
-57 -67 18 36 -74 0
-57 -68 -13 -49 -69 0
-57 -68 -13 49 69 0
-57 -68 13 -49 69 0
-57 -68 13 49 -69 0
-57 -68 -14 -50 -70 0
-57 -68 -14 50 70 0
-57 -68 14 -50 70 0
-57 -68 14 50 -70 0
-57 -68 -15 -51 -71 0
-57 -68 -15 51 71 0
-57 -68 15 -51 71 0
-57 -68 15 51 -71 0
-57 -68 -16 -52 -72 0
-57 -68 -16 52 72 0
-57 -68 16 -52 72 0
-57 -68 16 52 -72 0
-57 -68 -17 -53 -73 0
-57 -68 -17 53 73 0
-57 -68 17 -53 73 0
-57 -68 17 53 -73 0
-57 -68 -18 -54 -74 0
-57 -68 -18 54 74 0
-57 -68 18 -54 74 0
-57 -68 18 54 -74 0
-58 -66 -19 -25 -69 0
-58 -66 -19 25 69 0
-58 -66 19 -25 69 0
-58 -66 19 25 -69 0
-58 -66 -20 -26 -70 0
-58 -66 -20 26 70 0
-58 -66 20 -26 70 0
-58 -66 20 26 -70 0
-58 -66 -21 -27 -71 0
-58 -66 -21 27 71 0
-58 -66 21 -27 71 0
-58 -66 21 27 -71 0
-58 -66 -22 -28 -72 0
-58 -66 -22 28 72 0
-58 -66 22 -28 72 0
-58 -66 22 28 -72 0
-58 -66 -23 -29 -73 0
-58 -66 -23 29 73 0
-58 -66 23 -29 73 0
-58 -66 23 29 -73 0
-58 -66 -24 -30 -74 0
-58 -66 -24 30 74 0
-58 -66 24 -30 74 0
-58 -66 24 30 -74 0
-58 -67 -19 -31 -69 0
-58 -67 -19 31 69 0
-58 -67 19 -31 69 0
-58 -67 19 31 -69 0
-58 -67 -20 -32 -70 0
-58 -67 -20 32 70 0
-58 -67 20 -32 70 0
-58 -67 20 32 -70 0
-58 -67 -21 -33 -71 0
-58 -67 -21 33 71 0
-58 -67 21 -33 71 0
-58 -67 21 33 -71 0
-58 -67 -22 -34 -72 0
-58 -67 -22 34 72 0
-58 -67 22 -34 72 0
-58 -67 22 34 -72 0
-58 -67 -23 -35 -73 0
-58 -67 -23 35 73 0
-58 -67 23 -35 73 0
-58 -67 23 35 -73 0
-58 -67 -24 -36 -74 0
-58 -67 -24 36 74 0
-58 -67 24 -36 74 0
-58 -67 24 36 -74 0
-58 -68 -19 -49 -69 0
-58 -68 -19 49 69 0
-58 -68 19 -49 69 0
-58 -68 19 49 -69 0
-58 -68 -20 -50 -70 0
-58 -68 -20 50 70 0
-58 -68 20 -50 70 0
-58 -68 20 50 -70 0
-58 -68 -21 -51 -71 0
-58 -68 -21 51 71 0
-58 -68 21 -51 71 0
-58 -68 21 51 -71 0
-58 -68 -22 -52 -72 0
-58 -68 -22 52 72 0
-58 -68 22 -52 72 0
-58 -68 22 52 -72 0
-58 -68 -23 -53 -73 0
-58 -68 -23 53 73 0
-58 -68 23 -53 73 0
-58 -68 23 53 -73 0
-58 -68 -24 -54 -74 0
-58 -68 -24 54 74 0
-58 -68 24 -54 74 0
-58 -68 24 54 -74 0
-59 -67 -25 -31 -69 0
-59 -67 -25 31 69 0
-59 -67 25 -31 69 0
-59 -67 25 31 -69 0
-59 -67 -26 -32 -70 0
-59 -67 -26 32 70 0
-59 -67 26 -32 70 0
-59 -67 26 32 -70 0
-59 -67 -27 -33 -71 0
-59 -67 -27 33 71 0
-59 -67 27 -33 71 0
-59 -67 27 33 -71 0
-59 -67 -28 -34 -72 0
-59 -67 -28 34 72 0
-59 -67 28 -34 72 0
-59 -67 28 34 -72 0
-59 -67 -29 -35 -73 0
-59 -67 -29 35 73 0
-59 -67 29 -35 73 0
-59 -67 29 35 -73 0
-59 -67 -30 -36 -74 0
-59 -67 -30 36 74 0
-59 -67 30 -36 74 0
-59 -67 30 36 -74 0
-59 -68 -25 -49 -69 0
-59 -68 -25 49 69 0
-59 -68 25 -49 69 0
-59 -68 25 49 -69 0
-59 -68 -26 -50 -70 0
-59 -68 -26 50 70 0
-59 -68 26 -50 70 0
-59 -68 26 50 -70 0
-59 -68 -27 -51 -71 0
-59 -68 -27 51 71 0
-59 -68 27 -51 71 0
-59 -68 27 51 -71 0
-59 -68 -28 -52 -72 0
-59 -68 -28 52 72 0
-59 -68 28 -52 72 0
-59 -68 28 52 -72 0
-59 -68 -29 -53 -73 0
-59 -68 -29 53 73 0
-59 -68 29 -53 73 0
-59 -68 29 53 -73 0
-59 -68 -30 -54 -74 0
-59 -68 -30 54 74 0
-59 -68 30 -54 74 0
-59 -68 30 54 -74 0
-60 -68 -31 -49 -69 0
-60 -68 -31 49 69 0
-60 -68 31 -49 69 0
-60 -68 31 49 -69 0
-60 -68 -32 -50 -70 0
-60 -68 -32 50 70 0
-60 -68 32 -50 70 0
-60 -68 32 50 -70 0
-60 -68 -33 -51 -71 0
-60 -68 -33 51 71 0
-60 -68 33 -51 71 0
-60 -68 33 51 -71 0
-60 -68 -34 -52 -72 0
-60 -68 -34 52 72 0
-60 -68 34 -52 72 0
-60 -68 34 52 -72 0
-60 -68 -35 -53 -73 0
-60 -68 -35 53 73 0
-60 -68 35 -53 73 0
-60 -68 35 53 -73 0
-60 -68 -36 -54 -74 0
-60 -68 -36 54 74 0
-60 -68 36 -54 74 0
-60 -68 36 54 -74 0
69 70 71 72 73 74 0
75 76 77 78 79 80 81 82 0
-75 -76 0
-75 -77 0
-75 -78 0
-75 -79 0
-75 -80 0
-75 -81 0
-75 -82 0
-76 -77 0
-76 -78 0
-76 -79 0
-76 -80 0
-76 -81 0
-76 -82 0
-77 -78 0
-77 -79 0
-77 -80 0
-77 -81 0
-77 -82 0
-78 -79 0
-78 -80 0
-78 -81 0
-78 -82 0
-79 -80 0
-79 -81 0
-79 -82 0
-80 -81 0
-80 -82 0
-81 -82 0
83 84 85 86 87 88 89 90 0
-83 -84 0
-83 -85 0
-83 -86 0
-83 -87 0
-83 -88 0
-83 -89 0
-83 -90 0
-84 -85 0
-84 -86 0
-84 -87 0
-84 -88 0
-84 -89 0
-84 -90 0
-85 -86 0
-85 -87 0
-85 -88 0
-85 -89 0
-85 -90 0
-86 -87 0
-86 -88 0
-86 -89 0
-86 -90 0
-87 -88 0
-87 -89 0
-87 -90 0
-88 -89 0
-88 -90 0
-89 -90 0
-75 -83 0
-76 -83 0
-76 -84 0
-77 -83 0
-77 -84 0
-77 -85 0
-78 -83 0
-78 -84 0
-78 -85 0
-78 -86 0
-79 -83 0
-79 -84 0
-79 -85 0
-79 -86 0
-79 -87 0
-80 -83 0
-80 -84 0
-80 -85 0
-80 -86 0
-80 -87 0
-80 -88 0
-81 -83 0
-81 -84 0
-81 -85 0
-81 -86 0
-81 -87 0
-81 -88 0
-81 -89 0
-82 -83 0
-82 -84 0
-82 -85 0
-82 -86 0
-82 -87 0
-82 -88 0
-82 -89 0
-82 -90 0
-75 -84 -1 -7 -91 0
-75 -84 -1 7 91 0
-75 -84 1 -7 91 0
-75 -84 1 7 -91 0
-75 -84 -2 -8 -92 0
-75 -84 -2 8 92 0
-75 -84 2 -8 92 0
-75 -84 2 8 -92 0
-75 -84 -3 -9 -93 0
-75 -84 -3 9 93 0
-75 -84 3 -9 93 0
-75 -84 3 9 -93 0
-75 -84 -4 -10 -94 0
-75 -84 -4 10 94 0
-75 -84 4 -10 94 0
-75 -84 4 10 -94 0
-75 -84 -5 -11 -95 0
-75 -84 -5 11 95 0
-75 -84 5 -11 95 0
-75 -84 5 11 -95 0
-75 -84 -6 -12 -96 0
-75 -84 -6 12 96 0
-75 -84 6 -12 96 0
-75 -84 6 12 -96 0
-75 -85 -1 -13 -91 0
-75 -85 -1 13 91 0
-75 -85 1 -13 91 0
-75 -85 1 13 -91 0
-75 -85 -2 -14 -92 0
-75 -85 -2 14 92 0
-75 -85 2 -14 92 0
-75 -85 2 14 -92 0
-75 -85 -3 -15 -93 0
-75 -85 -3 15 93 0
-75 -85 3 -15 93 0
-75 -85 3 15 -93 0
-75 -85 -4 -16 -94 0
-75 -85 -4 16 94 0
-75 -85 4 -16 94 0
-75 -85 4 16 -94 0
-75 -85 -5 -17 -95 0
-75 -85 -5 17 95 0
-75 -85 5 -17 95 0
-75 -85 5 17 -95 0
-75 -85 -6 -18 -96 0
-75 -85 -6 18 96 0
-75 -85 6 -18 96 0
-75 -85 6 18 -96 0
-75 -86 -1 -19 -91 0
-75 -86 -1 19 91 0
-75 -86 1 -19 91 0
-75 -86 1 19 -91 0
-75 -86 -2 -20 -92 0
-75 -86 -2 20 92 0
-75 -86 2 -20 92 0
-75 -86 2 20 -92 0
-75 -86 -3 -21 -93 0
-75 -86 -3 21 93 0
-75 -86 3 -21 93 0
-75 -86 3 21 -93 0
-75 -86 -4 -22 -94 0
-75 -86 -4 22 94 0
-75 -86 4 -22 94 0
-75 -86 4 22 -94 0
-75 -86 -5 -23 -95 0
-75 -86 -5 23 95 0
-75 -86 5 -23 95 0
-75 -86 5 23 -95 0
-75 -86 -6 -24 -96 0
-75 -86 -6 24 96 0
-75 -86 6 -24 96 0
-75 -86 6 24 -96 0
-75 -87 -1 -25 -91 0
-75 -87 -1 25 91 0
-75 -87 1 -25 91 0
-75 -87 1 25 -91 0
-75 -87 -2 -26 -92 0
-75 -87 -2 26 92 0
-75 -87 2 -26 92 0
-75 -87 2 26 -92 0
-75 -87 -3 -27 -93 0
-75 -87 -3 27 93 0
-75 -87 3 -27 93 0
-75 -87 3 27 -93 0
-75 -87 -4 -28 -94 0
-75 -87 -4 28 94 0
-75 -87 4 -28 94 0
-75 -87 4 28 -94 0
-75 -87 -5 -29 -95 0
-75 -87 -5 29 95 0
-75 -87 5 -29 95 0
-75 -87 5 29 -95 0
-75 -87 -6 -30 -96 0
-75 -87 -6 30 96 0
-75 -87 6 -30 96 0
-75 -87 6 30 -96 0
-75 -88 -1 -31 -91 0
-75 -88 -1 31 91 0
-75 -88 1 -31 91 0
-75 -88 1 31 -91 0
-75 -88 -2 -32 -92 0
-75 -88 -2 32 92 0
-75 -88 2 -32 92 0
-75 -88 2 32 -92 0
-75 -88 -3 -33 -93 0
-75 -88 -3 33 93 0
-75 -88 3 -33 93 0
-75 -88 3 33 -93 0
-75 -88 -4 -34 -94 0
-75 -88 -4 34 94 0
-75 -88 4 -34 94 0
-75 -88 4 34 -94 0
-75 -88 -5 -35 -95 0
-75 -88 -5 35 95 0
-75 -88 5 -35 95 0
-75 -88 5 35 -95 0
-75 -88 -6 -36 -96 0
-75 -88 -6 36 96 0
-75 -88 6 -36 96 0
-75 -88 6 36 -96 0
-75 -89 -1 -49 -91 0
-75 -89 -1 49 91 0
-75 -89 1 -49 91 0
-75 -89 1 49 -91 0
-75 -89 -2 -50 -92 0
-75 -89 -2 50 92 0
-75 -89 2 -50 92 0
-75 -89 2 50 -92 0
-75 -89 -3 -51 -93 0
-75 -89 -3 51 93 0
-75 -89 3 -51 93 0
-75 -89 3 51 -93 0
-75 -89 -4 -52 -94 0
-75 -89 -4 52 94 0
-75 -89 4 -52 94 0
-75 -89 4 52 -94 0
-75 -89 -5 -53 -95 0
-75 -89 -5 53 95 0
-75 -89 5 -53 95 0
-75 -89 5 53 -95 0
-75 -89 -6 -54 -96 0
-75 -89 -6 54 96 0
-75 -89 6 -54 96 0
-75 -89 6 54 -96 0
-75 -90 -1 -69 -91 0
-75 -90 -1 69 91 0
-75 -90 1 -69 91 0
-75 -90 1 69 -91 0
-75 -90 -2 -70 -92 0
-75 -90 -2 70 92 0
-75 -90 2 -70 92 0
-75 -90 2 70 -92 0
-75 -90 -3 -71 -93 0
-75 -90 -3 71 93 0
-75 -90 3 -71 93 0
-75 -90 3 71 -93 0
-75 -90 -4 -72 -94 0
-75 -90 -4 72 94 0
-75 -90 4 -72 94 0
-75 -90 4 72 -94 0
-75 -90 -5 -73 -95 0
-75 -90 -5 73 95 0
-75 -90 5 -73 95 0
-75 -90 5 73 -95 0
-75 -90 -6 -74 -96 0
-75 -90 -6 74 96 0
-75 -90 6 -74 96 0
-75 -90 6 74 -96 0
-76 -85 -7 -13 -91 0
-76 -85 -7 13 91 0
-76 -85 7 -13 91 0
-76 -85 7 13 -91 0
-76 -85 -8 -14 -92 0
-76 -85 -8 14 92 0
-76 -85 8 -14 92 0
-76 -85 8 14 -92 0
-76 -85 -9 -15 -93 0
-76 -85 -9 15 93 0
-76 -85 9 -15 93 0
-76 -85 9 15 -93 0
-76 -85 -10 -16 -94 0
-76 -85 -10 16 94 0
-76 -85 10 -16 94 0
-76 -85 10 16 -94 0
-76 -85 -11 -17 -95 0
-76 -85 -11 17 95 0
-76 -85 11 -17 95 0
-76 -85 11 17 -95 0
-76 -85 -12 -18 -96 0
-76 -85 -12 18 96 0
-76 -85 12 -18 96 0
-76 -85 12 18 -96 0
-76 -86 -7 -19 -91 0
-76 -86 -7 19 91 0
-76 -86 7 -19 91 0
-76 -86 7 19 -91 0
-76 -86 -8 -20 -92 0
-76 -86 -8 20 92 0
-76 -86 8 -20 92 0
-76 -86 8 20 -92 0
-76 -86 -9 -21 -93 0
-76 -86 -9 21 93 0
-76 -86 9 -21 93 0
-76 -86 9 21 -93 0
-76 -86 -10 -22 -94 0
-76 -86 -10 22 94 0
-76 -86 10 -22 94 0
-76 -86 10 22 -94 0
-76 -86 -11 -23 -95 0
-76 -86 -11 23 95 0
-76 -86 11 -23 95 0
-76 -86 11 23 -95 0
-76 -86 -12 -24 -96 0
-76 -86 -12 24 96 0
-76 -86 12 -24 96 0
-76 -86 12 24 -96 0
-76 -87 -7 -25 -91 0
-76 -87 -7 25 91 0
-76 -87 7 -25 91 0
-76 -87 7 25 -91 0
-76 -87 -8 -26 -92 0
-76 -87 -8 26 92 0
-76 -87 8 -26 92 0
-76 -87 8 26 -92 0
-76 -87 -9 -27 -93 0
-76 -87 -9 27 93 0
-76 -87 9 -27 93 0
-76 -87 9 27 -93 0
-76 -87 -10 -28 -94 0
-76 -87 -10 28 94 0
-76 -87 10 -28 94 0
-76 -87 10 28 -94 0
-76 -87 -11 -29 -95 0
-76 -87 -11 29 95 0
-76 -87 11 -29 95 0
-76 -87 11 29 -95 0
-76 -87 -12 -30 -96 0
-76 -87 -12 30 96 0
-76 -87 12 -30 96 0
-76 -87 12 30 -96 0
-76 -88 -7 -31 -91 0
-76 -88 -7 31 91 0
-76 -88 7 -31 91 0
-76 -88 7 31 -91 0
-76 -88 -8 -32 -92 0
-76 -88 -8 32 92 0
-76 -88 8 -32 92 0
-76 -88 8 32 -92 0
-76 -88 -9 -33 -93 0
-76 -88 -9 33 93 0
-76 -88 9 -33 93 0
-76 -88 9 33 -93 0
-76 -88 -10 -34 -94 0
-76 -88 -10 34 94 0
-76 -88 10 -34 94 0
-76 -88 10 34 -94 0
-76 -88 -11 -35 -95 0
-76 -88 -11 35 95 0
-76 -88 11 -35 95 0
-76 -88 11 35 -95 0
-76 -88 -12 -36 -96 0
-76 -88 -12 36 96 0
-76 -88 12 -36 96 0
-76 -88 12 36 -96 0
-76 -89 -7 -49 -91 0
-76 -89 -7 49 91 0
-76 -89 7 -49 91 0
-76 -89 7 49 -91 0
-76 -89 -8 -50 -92 0
-76 -89 -8 50 92 0
-76 -89 8 -50 92 0
-76 -89 8 50 -92 0
-76 -89 -9 -51 -93 0
-76 -89 -9 51 93 0
-76 -89 9 -51 93 0
-76 -89 9 51 -93 0
-76 -89 -10 -52 -94 0
-76 -89 -10 52 94 0
-76 -89 10 -52 94 0
-76 -89 10 52 -94 0
-76 -89 -11 -53 -95 0
-76 -89 -11 53 95 0
-76 -89 11 -53 95 0
-76 -89 11 53 -95 0
-76 -89 -12 -54 -96 0
-76 -89 -12 54 96 0
-76 -89 12 -54 96 0
-76 -89 12 54 -96 0
-76 -90 -7 -69 -91 0
-76 -90 -7 69 91 0
-76 -90 7 -69 91 0
-76 -90 7 69 -91 0
-76 -90 -8 -70 -92 0
-76 -90 -8 70 92 0
-76 -90 8 -70 92 0
-76 -90 8 70 -92 0
-76 -90 -9 -71 -93 0
-76 -90 -9 71 93 0
-76 -90 9 -71 93 0
-76 -90 9 71 -93 0
-76 -90 -10 -72 -94 0
-76 -90 -10 72 94 0
-76 -90 10 -72 94 0
-76 -90 10 72 -94 0
-76 -90 -11 -73 -95 0
-76 -90 -11 73 95 0
-76 -90 11 -73 95 0
-76 -90 11 73 -95 0
-76 -90 -12 -74 -96 0
-76 -90 -12 74 96 0
-76 -90 12 -74 96 0
-76 -90 12 74 -96 0
-77 -86 -13 -19 -91 0
-77 -86 -13 19 91 0
-77 -86 13 -19 91 0
-77 -86 13 19 -91 0
-77 -86 -14 -20 -92 0
-77 -86 -14 20 92 0
-77 -86 14 -20 92 0
-77 -86 14 20 -92 0
-77 -86 -15 -21 -93 0
-77 -86 -15 21 93 0
-77 -86 15 -21 93 0
-77 -86 15 21 -93 0
-77 -86 -16 -22 -94 0
-77 -86 -16 22 94 0
-77 -86 16 -22 94 0
-77 -86 16 22 -94 0
-77 -86 -17 -23 -95 0
-77 -86 -17 23 95 0
-77 -86 17 -23 95 0
-77 -86 17 23 -95 0
-77 -86 -18 -24 -96 0
-77 -86 -18 24 96 0
-77 -86 18 -24 96 0
-77 -86 18 24 -96 0
-77 -87 -13 -25 -91 0
-77 -87 -13 25 91 0
-77 -87 13 -25 91 0
-77 -87 13 25 -91 0
-77 -87 -14 -26 -92 0
-77 -87 -14 26 92 0
-77 -87 14 -26 92 0
-77 -87 14 26 -92 0
-77 -87 -15 -27 -93 0
-77 -87 -15 27 93 0
-77 -87 15 -27 93 0
-77 -87 15 27 -93 0
-77 -87 -16 -28 -94 0
-77 -87 -16 28 94 0
-77 -87 16 -28 94 0
-77 -87 16 28 -94 0
-77 -87 -17 -29 -95 0
-77 -87 -17 29 95 0
-77 -87 17 -29 95 0
-77 -87 17 29 -95 0
-77 -87 -18 -30 -96 0
-77 -87 -18 30 96 0
-77 -87 18 -30 96 0
-77 -87 18 30 -96 0
-77 -88 -13 -31 -91 0
-77 -88 -13 31 91 0
-77 -88 13 -31 91 0
-77 -88 13 31 -91 0
-77 -88 -14 -32 -92 0
-77 -88 -14 32 92 0
-77 -88 14 -32 92 0
-77 -88 14 32 -92 0
-77 -88 -15 -33 -93 0
-77 -88 -15 33 93 0
-77 -88 15 -33 93 0
-77 -88 15 33 -93 0
-77 -88 -16 -34 -94 0
-77 -88 -16 34 94 0
-77 -88 16 -34 94 0
-77 -88 16 34 -94 0
-77 -88 -17 -35 -95 0
-77 -88 -17 35 95 0
-77 -88 17 -35 95 0
-77 -88 17 35 -95 0
-77 -88 -18 -36 -96 0
-77 -88 -18 36 96 0
-77 -88 18 -36 96 0
-77 -88 18 36 -96 0
-77 -89 -13 -49 -91 0
-77 -89 -13 49 91 0
-77 -89 13 -49 91 0
-77 -89 13 49 -91 0
-77 -89 -14 -50 -92 0
-77 -89 -14 50 92 0
-77 -89 14 -50 92 0
-77 -89 14 50 -92 0
-77 -89 -15 -51 -93 0
-77 -89 -15 51 93 0
-77 -89 15 -51 93 0
-77 -89 15 51 -93 0
-77 -89 -16 -52 -94 0
-77 -89 -16 52 94 0
-77 -89 16 -52 94 0
-77 -89 16 52 -94 0
-77 -89 -17 -53 -95 0
-77 -89 -17 53 95 0
-77 -89 17 -53 95 0
-77 -89 17 53 -95 0
-77 -89 -18 -54 -96 0
-77 -89 -18 54 96 0
-77 -89 18 -54 96 0
-77 -89 18 54 -96 0
-77 -90 -13 -69 -91 0
-77 -90 -13 69 91 0
-77 -90 13 -69 91 0
-77 -90 13 69 -91 0
-77 -90 -14 -70 -92 0
-77 -90 -14 70 92 0
-77 -90 14 -70 92 0
-77 -90 14 70 -92 0
-77 -90 -15 -71 -93 0
-77 -90 -15 71 93 0
-77 -90 15 -71 93 0
-77 -90 15 71 -93 0
-77 -90 -16 -72 -94 0
-77 -90 -16 72 94 0
-77 -90 16 -72 94 0
-77 -90 16 72 -94 0
-77 -90 -17 -73 -95 0
-77 -90 -17 73 95 0
-77 -90 17 -73 95 0
-77 -90 17 73 -95 0
-77 -90 -18 -74 -96 0
-77 -90 -18 74 96 0
-77 -90 18 -74 96 0
-77 -90 18 74 -96 0
-78 -87 -19 -25 -91 0
-78 -87 -19 25 91 0
-78 -87 19 -25 91 0
-78 -87 19 25 -91 0
-78 -87 -20 -26 -92 0
-78 -87 -20 26 92 0
-78 -87 20 -26 92 0
-78 -87 20 26 -92 0
-78 -87 -21 -27 -93 0
-78 -87 -21 27 93 0
-78 -87 21 -27 93 0
-78 -87 21 27 -93 0
-78 -87 -22 -28 -94 0
-78 -87 -22 28 94 0
-78 -87 22 -28 94 0
-78 -87 22 28 -94 0
-78 -87 -23 -29 -95 0
-78 -87 -23 29 95 0
-78 -87 23 -29 95 0
-78 -87 23 29 -95 0
-78 -87 -24 -30 -96 0
-78 -87 -24 30 96 0
-78 -87 24 -30 96 0
-78 -87 24 30 -96 0
-78 -88 -19 -31 -91 0
-78 -88 -19 31 91 0
-78 -88 19 -31 91 0
-78 -88 19 31 -91 0
-78 -88 -20 -32 -92 0
-78 -88 -20 32 92 0
-78 -88 20 -32 92 0
-78 -88 20 32 -92 0
-78 -88 -21 -33 -93 0
-78 -88 -21 33 93 0
-78 -88 21 -33 93 0
-78 -88 21 33 -93 0
-78 -88 -22 -34 -94 0
-78 -88 -22 34 94 0
-78 -88 22 -34 94 0
-78 -88 22 34 -94 0
-78 -88 -23 -35 -95 0
-78 -88 -23 35 95 0
-78 -88 23 -35 95 0
-78 -88 23 35 -95 0
-78 -88 -24 -36 -96 0
-78 -88 -24 36 96 0
-78 -88 24 -36 96 0
-78 -88 24 36 -96 0
-78 -89 -19 -49 -91 0
-78 -89 -19 49 91 0
-78 -89 19 -49 91 0
-78 -89 19 49 -91 0
-78 -89 -20 -50 -92 0
-78 -89 -20 50 92 0
-78 -89 20 -50 92 0
-78 -89 20 50 -92 0
-78 -89 -21 -51 -93 0
-78 -89 -21 51 93 0
-78 -89 21 -51 93 0
-78 -89 21 51 -93 0
-78 -89 -22 -52 -94 0
-78 -89 -22 52 94 0
-78 -89 22 -52 94 0
-78 -89 22 52 -94 0
-78 -89 -23 -53 -95 0
-78 -89 -23 53 95 0
-78 -89 23 -53 95 0
-78 -89 23 53 -95 0
-78 -89 -24 -54 -96 0
-78 -89 -24 54 96 0
-78 -89 24 -54 96 0
-78 -89 24 54 -96 0
-78 -90 -19 -69 -91 0
-78 -90 -19 69 91 0
-78 -90 19 -69 91 0
-78 -90 19 69 -91 0
-78 -90 -20 -70 -92 0
-78 -90 -20 70 92 0
-78 -90 20 -70 92 0
-78 -90 20 70 -92 0
-78 -90 -21 -71 -93 0
-78 -90 -21 71 93 0
-78 -90 21 -71 93 0
-78 -90 21 71 -93 0
-78 -90 -22 -72 -94 0
-78 -90 -22 72 94 0
-78 -90 22 -72 94 0
-78 -90 22 72 -94 0
-78 -90 -23 -73 -95 0
-78 -90 -23 73 95 0
-78 -90 23 -73 95 0
-78 -90 23 73 -95 0
-78 -90 -24 -74 -96 0
-78 -90 -24 74 96 0
-78 -90 24 -74 96 0
-78 -90 24 74 -96 0
-79 -88 -25 -31 -91 0
-79 -88 -25 31 91 0
-79 -88 25 -31 91 0
-79 -88 25 31 -91 0
-79 -88 -26 -32 -92 0
-79 -88 -26 32 92 0
-79 -88 26 -32 92 0
-79 -88 26 32 -92 0
-79 -88 -27 -33 -93 0
-79 -88 -27 33 93 0
-79 -88 27 -33 93 0
-79 -88 27 33 -93 0
-79 -88 -28 -34 -94 0
-79 -88 -28 34 94 0
-79 -88 28 -34 94 0
-79 -88 28 34 -94 0
-79 -88 -29 -35 -95 0
-79 -88 -29 35 95 0
-79 -88 29 -35 95 0
-79 -88 29 35 -95 0
-79 -88 -30 -36 -96 0
-79 -88 -30 36 96 0
-79 -88 30 -36 96 0
-79 -88 30 36 -96 0
-79 -89 -25 -49 -91 0
-79 -89 -25 49 91 0
-79 -89 25 -49 91 0
-79 -89 25 49 -91 0
-79 -89 -26 -50 -92 0
-79 -89 -26 50 92 0
-79 -89 26 -50 92 0
-79 -89 26 50 -92 0
-79 -89 -27 -51 -93 0
-79 -89 -27 51 93 0
-79 -89 27 -51 93 0
-79 -89 27 51 -93 0
-79 -89 -28 -52 -94 0
-79 -89 -28 52 94 0
-79 -89 28 -52 94 0
-79 -89 28 52 -94 0
-79 -89 -29 -53 -95 0
-79 -89 -29 53 95 0
-79 -89 29 -53 95 0
-79 -89 29 53 -95 0
-79 -89 -30 -54 -96 0
-79 -89 -30 54 96 0
-79 -89 30 -54 96 0
-79 -89 30 54 -96 0
-79 -90 -25 -69 -91 0
-79 -90 -25 69 91 0
-79 -90 25 -69 91 0
-79 -90 25 69 -91 0
-79 -90 -26 -70 -92 0
-79 -90 -26 70 92 0
-79 -90 26 -70 92 0
-79 -90 26 70 -92 0
-79 -90 -27 -71 -93 0
-79 -90 -27 71 93 0
-79 -90 27 -71 93 0
-79 -90 27 71 -93 0
-79 -90 -28 -72 -94 0
-79 -90 -28 72 94 0
-79 -90 28 -72 94 0
-79 -90 28 72 -94 0
-79 -90 -29 -73 -95 0
-79 -90 -29 73 95 0
-79 -90 29 -73 95 0
-79 -90 29 73 -95 0
-79 -90 -30 -74 -96 0
-79 -90 -30 74 96 0
-79 -90 30 -74 96 0
-79 -90 30 74 -96 0
-80 -89 -31 -49 -91 0
-80 -89 -31 49 91 0
-80 -89 31 -49 91 0
-80 -89 31 49 -91 0
-80 -89 -32 -50 -92 0
-80 -89 -32 50 92 0
-80 -89 32 -50 92 0
-80 -89 32 50 -92 0
-80 -89 -33 -51 -93 0
-80 -89 -33 51 93 0
-80 -89 33 -51 93 0
-80 -89 33 51 -93 0
-80 -89 -34 -52 -94 0
-80 -89 -34 52 94 0
-80 -89 34 -52 94 0
-80 -89 34 52 -94 0
-80 -89 -35 -53 -95 0
-80 -89 -35 53 95 0
-80 -89 35 -53 95 0
-80 -89 35 53 -95 0
-80 -89 -36 -54 -96 0
-80 -89 -36 54 96 0
-80 -89 36 -54 96 0
-80 -89 36 54 -96 0
-80 -90 -31 -69 -91 0
-80 -90 -31 69 91 0
-80 -90 31 -69 91 0
-80 -90 31 69 -91 0
-80 -90 -32 -70 -92 0
-80 -90 -32 70 92 0
-80 -90 32 -70 92 0
-80 -90 32 70 -92 0
-80 -90 -33 -71 -93 0
-80 -90 -33 71 93 0
-80 -90 33 -71 93 0
-80 -90 33 71 -93 0
-80 -90 -34 -72 -94 0
-80 -90 -34 72 94 0
-80 -90 34 -72 94 0
-80 -90 34 72 -94 0
-80 -90 -35 -73 -95 0
-80 -90 -35 73 95 0
-80 -90 35 -73 95 0
-80 -90 35 73 -95 0
-80 -90 -36 -74 -96 0
-80 -90 -36 74 96 0
-80 -90 36 -74 96 0
-80 -90 36 74 -96 0
-81 -90 -49 -69 -91 0
-81 -90 -49 69 91 0
-81 -90 49 -69 91 0
-81 -90 49 69 -91 0
-81 -90 -50 -70 -92 0
-81 -90 -50 70 92 0
-81 -90 50 -70 92 0
-81 -90 50 70 -92 0
-81 -90 -51 -71 -93 0
-81 -90 -51 71 93 0
-81 -90 51 -71 93 0
-81 -90 51 71 -93 0
-81 -90 -52 -72 -94 0
-81 -90 -52 72 94 0
-81 -90 52 -72 94 0
-81 -90 52 72 -94 0
-81 -90 -53 -73 -95 0
-81 -90 -53 73 95 0
-81 -90 53 -73 95 0
-81 -90 53 73 -95 0
-81 -90 -54 -74 -96 0
-81 -90 -54 74 96 0
-81 -90 54 -74 96 0
-81 -90 54 74 -96 0
91 92 93 94 95 96 0
97 98 99 100 101 102 103 104 105 0
-97 -98 0
-97 -99 0
-97 -100 0
-97 -101 0
-97 -102 0
-97 -103 0
-97 -104 0
-97 -105 0
-98 -99 0
-98 -100 0
-98 -101 0
-98 -102 0
-98 -103 0
-98 -104 0
-98 -105 0
-99 -100 0
-99 -101 0
-99 -102 0
-99 -103 0
-99 -104 0
-99 -105 0
-100 -101 0
-100 -102 0
-100 -103 0
-100 -104 0
-100 -105 0
-101 -102 0
-101 -103 0
-101 -104 0
-101 -105 0
-102 -103 0
-102 -104 0
-102 -105 0
-103 -104 0
-103 -105 0
-104 -105 0
106 107 108 109 110 111 112 113 114 0
-106 -107 0
-106 -108 0
-106 -109 0
-106 -110 0
-106 -111 0
-106 -112 0
-106 -113 0
-106 -114 0
-107 -108 0
-107 -109 0
-107 -110 0
-107 -111 0
-107 -112 0
-107 -113 0
-107 -114 0
-108 -109 0
-108 -110 0
-108 -111 0
-108 -112 0
-108 -113 0
-108 -114 0
-109 -110 0
-109 -111 0
-109 -112 0
-109 -113 0
-109 -114 0
-110 -111 0
-110 -112 0
-110 -113 0
-110 -114 0
-111 -112 0
-111 -113 0
-111 -114 0
-112 -113 0
-112 -114 0
-113 -114 0
-97 -106 0
-98 -106 0
-98 -107 0
-99 -106 0
-99 -107 0
-99 -108 0
-100 -106 0
-100 -107 0
-100 -108 0
-100 -109 0
-101 -106 0
-101 -107 0
-101 -108 0
-101 -109 0
-101 -110 0
-102 -106 0
-102 -107 0
-102 -108 0
-102 -109 0
-102 -110 0
-102 -111 0
-103 -106 0
-103 -107 0
-103 -108 0
-103 -109 0
-103 -110 0
-103 -111 0
-103 -112 0
-104 -106 0
-104 -107 0
-104 -108 0
-104 -109 0
-104 -110 0
-104 -111 0
-104 -112 0
-104 -113 0
-105 -106 0
-105 -107 0
-105 -108 0
-105 -109 0
-105 -110 0
-105 -111 0
-105 -112 0
-105 -113 0
-105 -114 0
-97 -107 -1 -7 -115 0
-97 -107 -1 7 115 0
-97 -107 1 -7 115 0
-97 -107 1 7 -115 0
-97 -107 -2 -8 -116 0
-97 -107 -2 8 116 0
-97 -107 2 -8 116 0
-97 -107 2 8 -116 0
-97 -107 -3 -9 -117 0
-97 -107 -3 9 117 0
-97 -107 3 -9 117 0
-97 -107 3 9 -117 0
-97 -107 -4 -10 -118 0
-97 -107 -4 10 118 0
-97 -107 4 -10 118 0
-97 -107 4 10 -118 0
-97 -107 -5 -11 -119 0
-97 -107 -5 11 119 0
-97 -107 5 -11 119 0
-97 -107 5 11 -119 0
-97 -107 -6 -12 -120 0
-97 -107 -6 12 120 0
-97 -107 6 -12 120 0
-97 -107 6 12 -120 0
-97 -108 -1 -13 -115 0
-97 -108 -1 13 115 0
-97 -108 1 -13 115 0
-97 -108 1 13 -115 0
-97 -108 -2 -14 -116 0
-97 -108 -2 14 116 0
-97 -108 2 -14 116 0
-97 -108 2 14 -116 0
-97 -108 -3 -15 -117 0
-97 -108 -3 15 117 0
-97 -108 3 -15 117 0
-97 -108 3 15 -117 0
-97 -108 -4 -16 -118 0
-97 -108 -4 16 118 0
-97 -108 4 -16 118 0
-97 -108 4 16 -118 0
-97 -108 -5 -17 -119 0
-97 -108 -5 17 119 0
-97 -108 5 -17 119 0
-97 -108 5 17 -119 0
-97 -108 -6 -18 -120 0
-97 -108 -6 18 120 0
-97 -108 6 -18 120 0
-97 -108 6 18 -120 0
-97 -109 -1 -19 -115 0
-97 -109 -1 19 115 0
-97 -109 1 -19 115 0
-97 -109 1 19 -115 0
-97 -109 -2 -20 -116 0
-97 -109 -2 20 116 0
-97 -109 2 -20 116 0
-97 -109 2 20 -116 0
-97 -109 -3 -21 -117 0
-97 -109 -3 21 117 0
-97 -109 3 -21 117 0
-97 -109 3 21 -117 0
-97 -109 -4 -22 -118 0
-97 -109 -4 22 118 0
-97 -109 4 -22 118 0
-97 -109 4 22 -118 0
-97 -109 -5 -23 -119 0
-97 -109 -5 23 119 0
-97 -109 5 -23 119 0
-97 -109 5 23 -119 0
-97 -109 -6 -24 -120 0
-97 -109 -6 24 120 0
-97 -109 6 -24 120 0
-97 -109 6 24 -120 0
-97 -110 -1 -25 -115 0
-97 -110 -1 25 115 0
-97 -110 1 -25 115 0
-97 -110 1 25 -115 0
-97 -110 -2 -26 -116 0
-97 -110 -2 26 116 0
-97 -110 2 -26 116 0
-97 -110 2 26 -116 0
-97 -110 -3 -27 -117 0
-97 -110 -3 27 117 0
-97 -110 3 -27 117 0
-97 -110 3 27 -117 0
-97 -110 -4 -28 -118 0
-97 -110 -4 28 118 0
-97 -110 4 -28 118 0
-97 -110 4 28 -118 0
-97 -110 -5 -29 -119 0
-97 -110 -5 29 119 0
-97 -110 5 -29 119 0
-97 -110 5 29 -119 0
-97 -110 -6 -30 -120 0
-97 -110 -6 30 120 0
-97 -110 6 -30 120 0
-97 -110 6 30 -120 0
-97 -111 -1 -31 -115 0
-97 -111 -1 31 115 0
-97 -111 1 -31 115 0
-97 -111 1 31 -115 0
-97 -111 -2 -32 -116 0
-97 -111 -2 32 116 0
-97 -111 2 -32 116 0
-97 -111 2 32 -116 0
-97 -111 -3 -33 -117 0
-97 -111 -3 33 117 0
-97 -111 3 -33 117 0
-97 -111 3 33 -117 0
-97 -111 -4 -34 -118 0
-97 -111 -4 34 118 0
-97 -111 4 -34 118 0
-97 -111 4 34 -118 0
-97 -111 -5 -35 -119 0
-97 -111 -5 35 119 0
-97 -111 5 -35 119 0
-97 -111 5 35 -119 0
-97 -111 -6 -36 -120 0
-97 -111 -6 36 120 0
-97 -111 6 -36 120 0
-97 -111 6 36 -120 0
-97 -112 -1 -49 -115 0
-97 -112 -1 49 115 0
-97 -112 1 -49 115 0
-97 -112 1 49 -115 0
-97 -112 -2 -50 -116 0
-97 -112 -2 50 116 0
-97 -112 2 -50 116 0
-97 -112 2 50 -116 0
-97 -112 -3 -51 -117 0
-97 -112 -3 51 117 0
-97 -112 3 -51 117 0
-97 -112 3 51 -117 0
-97 -112 -4 -52 -118 0
-97 -112 -4 52 118 0
-97 -112 4 -52 118 0
-97 -112 4 52 -118 0
-97 -112 -5 -53 -119 0
-97 -112 -5 53 119 0
-97 -112 5 -53 119 0
-97 -112 5 53 -119 0
-97 -112 -6 -54 -120 0
-97 -112 -6 54 120 0
-97 -112 6 -54 120 0
-97 -112 6 54 -120 0
-97 -113 -1 -69 -115 0
-97 -113 -1 69 115 0
-97 -113 1 -69 115 0
-97 -113 1 69 -115 0
-97 -113 -2 -70 -116 0
-97 -113 -2 70 116 0
-97 -113 2 -70 116 0
-97 -113 2 70 -116 0
-97 -113 -3 -71 -117 0
-97 -113 -3 71 117 0
-97 -113 3 -71 117 0
-97 -113 3 71 -117 0
-97 -113 -4 -72 -118 0
-97 -113 -4 72 118 0
-97 -113 4 -72 118 0
-97 -113 4 72 -118 0
-97 -113 -5 -73 -119 0
-97 -113 -5 73 119 0
-97 -113 5 -73 119 0
-97 -113 5 73 -119 0
-97 -113 -6 -74 -120 0
-97 -113 -6 74 120 0
-97 -113 6 -74 120 0
-97 -113 6 74 -120 0
-97 -114 -1 -91 -115 0
-97 -114 -1 91 115 0
-97 -114 1 -91 115 0
-97 -114 1 91 -115 0
-97 -114 -2 -92 -116 0
-97 -114 -2 92 116 0
-97 -114 2 -92 116 0
-97 -114 2 92 -116 0
-97 -114 -3 -93 -117 0
-97 -114 -3 93 117 0
-97 -114 3 -93 117 0
-97 -114 3 93 -117 0
-97 -114 -4 -94 -118 0
-97 -114 -4 94 118 0
-97 -114 4 -94 118 0
-97 -114 4 94 -118 0
-97 -114 -5 -95 -119 0
-97 -114 -5 95 119 0
-97 -114 5 -95 119 0
-97 -114 5 95 -119 0
-97 -114 -6 -96 -120 0
-97 -114 -6 96 120 0
-97 -114 6 -96 120 0
-97 -114 6 96 -120 0
-98 -108 -7 -13 -115 0
-98 -108 -7 13 115 0
-98 -108 7 -13 115 0
-98 -108 7 13 -115 0
-98 -108 -8 -14 -116 0
-98 -108 -8 14 116 0
-98 -108 8 -14 116 0
-98 -108 8 14 -116 0
-98 -108 -9 -15 -117 0
-98 -108 -9 15 117 0
-98 -108 9 -15 117 0
-98 -108 9 15 -117 0
-98 -108 -10 -16 -118 0
-98 -108 -10 16 118 0
-98 -108 10 -16 118 0
-98 -108 10 16 -118 0
-98 -108 -11 -17 -119 0
-98 -108 -11 17 119 0
-98 -108 11 -17 119 0
-98 -108 11 17 -119 0
-98 -108 -12 -18 -120 0
-98 -108 -12 18 120 0
-98 -108 12 -18 120 0
-98 -108 12 18 -120 0
-98 -109 -7 -19 -115 0
-98 -109 -7 19 115 0
-98 -109 7 -19 115 0
-98 -109 7 19 -115 0
-98 -109 -8 -20 -116 0
-98 -109 -8 20 116 0
-98 -109 8 -20 116 0
-98 -109 8 20 -116 0
-98 -109 -9 -21 -117 0
-98 -109 -9 21 117 0
-98 -109 9 -21 117 0
-98 -109 9 21 -117 0
-98 -109 -10 -22 -118 0
-98 -109 -10 22 118 0
-98 -109 10 -22 118 0
-98 -109 10 22 -118 0
-98 -109 -11 -23 -119 0
-98 -109 -11 23 119 0
-98 -109 11 -23 119 0
-98 -109 11 23 -119 0
-98 -109 -12 -24 -120 0
-98 -109 -12 24 120 0
-98 -109 12 -24 120 0
-98 -109 12 24 -120 0
-98 -110 -7 -25 -115 0
-98 -110 -7 25 115 0
-98 -110 7 -25 115 0
-98 -110 7 25 -115 0
-98 -110 -8 -26 -116 0
-98 -110 -8 26 116 0
-98 -110 8 -26 116 0
-98 -110 8 26 -116 0
-98 -110 -9 -27 -117 0
-98 -110 -9 27 117 0
-98 -110 9 -27 117 0
-98 -110 9 27 -117 0
-98 -110 -10 -28 -118 0
-98 -110 -10 28 118 0
-98 -110 10 -28 118 0
-98 -110 10 28 -118 0
-98 -110 -11 -29 -119 0
-98 -110 -11 29 119 0
-98 -110 11 -29 119 0
-98 -110 11 29 -119 0
-98 -110 -12 -30 -120 0
-98 -110 -12 30 120 0
-98 -110 12 -30 120 0
-98 -110 12 30 -120 0
-98 -111 -7 -31 -115 0
-98 -111 -7 31 115 0
-98 -111 7 -31 115 0
-98 -111 7 31 -115 0
-98 -111 -8 -32 -116 0
-98 -111 -8 32 116 0
-98 -111 8 -32 116 0
-98 -111 8 32 -116 0
-98 -111 -9 -33 -117 0
-98 -111 -9 33 117 0
-98 -111 9 -33 117 0
-98 -111 9 33 -117 0
-98 -111 -10 -34 -118 0
-98 -111 -10 34 118 0
-98 -111 10 -34 118 0
-98 -111 10 34 -118 0
-98 -111 -11 -35 -119 0
-98 -111 -11 35 119 0
-98 -111 11 -35 119 0
-98 -111 11 35 -119 0
-98 -111 -12 -36 -120 0
-98 -111 -12 36 120 0
-98 -111 12 -36 120 0
-98 -111 12 36 -120 0
-98 -112 -7 -49 -115 0
-98 -112 -7 49 115 0
-98 -112 7 -49 115 0
-98 -112 7 49 -115 0
-98 -112 -8 -50 -116 0
-98 -112 -8 50 116 0
-98 -112 8 -50 116 0
-98 -112 8 50 -116 0
-98 -112 -9 -51 -117 0
-98 -112 -9 51 117 0
-98 -112 9 -51 117 0
-98 -112 9 51 -117 0
-98 -112 -10 -52 -118 0
-98 -112 -10 52 118 0
-98 -112 10 -52 118 0
-98 -112 10 52 -118 0
-98 -112 -11 -53 -119 0
-98 -112 -11 53 119 0
-98 -112 11 -53 119 0
-98 -112 11 53 -119 0
-98 -112 -12 -54 -120 0
-98 -112 -12 54 120 0
-98 -112 12 -54 120 0
-98 -112 12 54 -120 0
-98 -113 -7 -69 -115 0
-98 -113 -7 69 115 0
-98 -113 7 -69 115 0
-98 -113 7 69 -115 0
-98 -113 -8 -70 -116 0
-98 -113 -8 70 116 0
-98 -113 8 -70 116 0
-98 -113 8 70 -116 0
-98 -113 -9 -71 -117 0
-98 -113 -9 71 117 0
-98 -113 9 -71 117 0
-98 -113 9 71 -117 0
-98 -113 -10 -72 -118 0
-98 -113 -10 72 118 0
-98 -113 10 -72 118 0
-98 -113 10 72 -118 0
-98 -113 -11 -73 -119 0
-98 -113 -11 73 119 0
-98 -113 11 -73 119 0
-98 -113 11 73 -119 0
-98 -113 -12 -74 -120 0
-98 -113 -12 74 120 0
-98 -113 12 -74 120 0
-98 -113 12 74 -120 0
-98 -114 -7 -91 -115 0
-98 -114 -7 91 115 0
-98 -114 7 -91 115 0
-98 -114 7 91 -115 0
-98 -114 -8 -92 -116 0
-98 -114 -8 92 116 0
-98 -114 8 -92 116 0
-98 -114 8 92 -116 0
-98 -114 -9 -93 -117 0
-98 -114 -9 93 117 0
-98 -114 9 -93 117 0
-98 -114 9 93 -117 0
-98 -114 -10 -94 -118 0
-98 -114 -10 94 118 0
-98 -114 10 -94 118 0
-98 -114 10 94 -118 0
-98 -114 -11 -95 -119 0
-98 -114 -11 95 119 0
-98 -114 11 -95 119 0
-98 -114 11 95 -119 0
-98 -114 -12 -96 -120 0
-98 -114 -12 96 120 0
-98 -114 12 -96 120 0
-98 -114 12 96 -120 0
-99 -109 -13 -19 -115 0
-99 -109 -13 19 115 0
-99 -109 13 -19 115 0
-99 -109 13 19 -115 0
-99 -109 -14 -20 -116 0
-99 -109 -14 20 116 0
-99 -109 14 -20 116 0
-99 -109 14 20 -116 0
-99 -109 -15 -21 -117 0
-99 -109 -15 21 117 0
-99 -109 15 -21 117 0
-99 -109 15 21 -117 0
-99 -109 -16 -22 -118 0
-99 -109 -16 22 118 0
-99 -109 16 -22 118 0
-99 -109 16 22 -118 0
-99 -109 -17 -23 -119 0
-99 -109 -17 23 119 0
-99 -109 17 -23 119 0
-99 -109 17 23 -119 0
-99 -109 -18 -24 -120 0
-99 -109 -18 24 120 0
-99 -109 18 -24 120 0
-99 -109 18 24 -120 0
-99 -110 -13 -25 -115 0
-99 -110 -13 25 115 0
-99 -110 13 -25 115 0
-99 -110 13 25 -115 0
-99 -110 -14 -26 -116 0
-99 -110 -14 26 116 0
-99 -110 14 -26 116 0
-99 -110 14 26 -116 0
-99 -110 -15 -27 -117 0
-99 -110 -15 27 117 0
-99 -110 15 -27 117 0
-99 -110 15 27 -117 0
-99 -110 -16 -28 -118 0
-99 -110 -16 28 118 0
-99 -110 16 -28 118 0
-99 -110 16 28 -118 0
-99 -110 -17 -29 -119 0
-99 -110 -17 29 119 0
-99 -110 17 -29 119 0
-99 -110 17 29 -119 0
-99 -110 -18 -30 -120 0
-99 -110 -18 30 120 0
-99 -110 18 -30 120 0
-99 -110 18 30 -120 0
-99 -111 -13 -31 -115 0
-99 -111 -13 31 115 0
-99 -111 13 -31 115 0
-99 -111 13 31 -115 0
-99 -111 -14 -32 -116 0
-99 -111 -14 32 116 0
-99 -111 14 -32 116 0
-99 -111 14 32 -116 0
-99 -111 -15 -33 -117 0
-99 -111 -15 33 117 0
-99 -111 15 -33 117 0
-99 -111 15 33 -117 0
-99 -111 -16 -34 -118 0
-99 -111 -16 34 118 0
-99 -111 16 -34 118 0
-99 -111 16 34 -118 0
-99 -111 -17 -35 -119 0
-99 -111 -17 35 119 0
-99 -111 17 -35 119 0
-99 -111 17 35 -119 0
-99 -111 -18 -36 -120 0
-99 -111 -18 36 120 0
-99 -111 18 -36 120 0
-99 -111 18 36 -120 0
-99 -112 -13 -49 -115 0
-99 -112 -13 49 115 0
-99 -112 13 -49 115 0
-99 -112 13 49 -115 0
-99 -112 -14 -50 -116 0
-99 -112 -14 50 116 0
-99 -112 14 -50 116 0
-99 -112 14 50 -116 0
-99 -112 -15 -51 -117 0
-99 -112 -15 51 117 0
-99 -112 15 -51 117 0
-99 -112 15 51 -117 0
-99 -112 -16 -52 -118 0
-99 -112 -16 52 118 0
-99 -112 16 -52 118 0
-99 -112 16 52 -118 0
-99 -112 -17 -53 -119 0
-99 -112 -17 53 119 0
-99 -112 17 -53 119 0
-99 -112 17 53 -119 0
-99 -112 -18 -54 -120 0
-99 -112 -18 54 120 0
-99 -112 18 -54 120 0
-99 -112 18 54 -120 0
-99 -113 -13 -69 -115 0
-99 -113 -13 69 115 0
-99 -113 13 -69 115 0
-99 -113 13 69 -115 0
-99 -113 -14 -70 -116 0
-99 -113 -14 70 116 0
-99 -113 14 -70 116 0
-99 -113 14 70 -116 0
-99 -113 -15 -71 -117 0
-99 -113 -15 71 117 0
-99 -113 15 -71 117 0
-99 -113 15 71 -117 0
-99 -113 -16 -72 -118 0
-99 -113 -16 72 118 0
-99 -113 16 -72 118 0
-99 -113 16 72 -118 0
-99 -113 -17 -73 -119 0
-99 -113 -17 73 119 0
-99 -113 17 -73 119 0
-99 -113 17 73 -119 0
-99 -113 -18 -74 -120 0
-99 -113 -18 74 120 0
-99 -113 18 -74 120 0
-99 -113 18 74 -120 0
-99 -114 -13 -91 -115 0
-99 -114 -13 91 115 0
-99 -114 13 -91 115 0
-99 -114 13 91 -115 0
-99 -114 -14 -92 -116 0
-99 -114 -14 92 116 0
-99 -114 14 -92 116 0
-99 -114 14 92 -116 0
-99 -114 -15 -93 -117 0
-99 -114 -15 93 117 0
-99 -114 15 -93 117 0
-99 -114 15 93 -117 0
-99 -114 -16 -94 -118 0
-99 -114 -16 94 118 0
-99 -114 16 -94 118 0
-99 -114 16 94 -118 0
-99 -114 -17 -95 -119 0
-99 -114 -17 95 119 0
-99 -114 17 -95 119 0
-99 -114 17 95 -119 0
-99 -114 -18 -96 -120 0
-99 -114 -18 96 120 0
-99 -114 18 -96 120 0
-99 -114 18 96 -120 0
-100 -110 -19 -25 -115 0
-100 -110 -19 25 115 0
-100 -110 19 -25 115 0
-100 -110 19 25 -115 0
-100 -110 -20 -26 -116 0
-100 -110 -20 26 116 0
-100 -110 20 -26 116 0
-100 -110 20 26 -116 0
-100 -110 -21 -27 -117 0
-100 -110 -21 27 117 0
-100 -110 21 -27 117 0
-100 -110 21 27 -117 0
-100 -110 -22 -28 -118 0
-100 -110 -22 28 118 0
-100 -110 22 -28 118 0
-100 -110 22 28 -118 0
-100 -110 -23 -29 -119 0
-100 -110 -23 29 119 0
-100 -110 23 -29 119 0
-100 -110 23 29 -119 0
-100 -110 -24 -30 -120 0
-100 -110 -24 30 120 0
-100 -110 24 -30 120 0
-100 -110 24 30 -120 0
-100 -111 -19 -31 -115 0
-100 -111 -19 31 115 0
-100 -111 19 -31 115 0
-100 -111 19 31 -115 0
-100 -111 -20 -32 -116 0
-100 -111 -20 32 116 0
-100 -111 20 -32 116 0
-100 -111 20 32 -116 0
-100 -111 -21 -33 -117 0
-100 -111 -21 33 117 0
-100 -111 21 -33 117 0
-100 -111 21 33 -117 0
-100 -111 -22 -34 -118 0
-100 -111 -22 34 118 0
-100 -111 22 -34 118 0
-100 -111 22 34 -118 0
-100 -111 -23 -35 -119 0
-100 -111 -23 35 119 0
-100 -111 23 -35 119 0
-100 -111 23 35 -119 0
-100 -111 -24 -36 -120 0
-100 -111 -24 36 120 0
-100 -111 24 -36 120 0
-100 -111 24 36 -120 0
-100 -112 -19 -49 -115 0
-100 -112 -19 49 115 0
-100 -112 19 -49 115 0
-100 -112 19 49 -115 0
-100 -112 -20 -50 -116 0
-100 -112 -20 50 116 0
-100 -112 20 -50 116 0
-100 -112 20 50 -116 0
-100 -112 -21 -51 -117 0
-100 -112 -21 51 117 0
-100 -112 21 -51 117 0
-100 -112 21 51 -117 0
-100 -112 -22 -52 -118 0
-100 -112 -22 52 118 0
-100 -112 22 -52 118 0
-100 -112 22 52 -118 0
-100 -112 -23 -53 -119 0
-100 -112 -23 53 119 0
-100 -112 23 -53 119 0
-100 -112 23 53 -119 0
-100 -112 -24 -54 -120 0
-100 -112 -24 54 120 0
-100 -112 24 -54 120 0
-100 -112 24 54 -120 0
-100 -113 -19 -69 -115 0
-100 -113 -19 69 115 0
-100 -113 19 -69 115 0
-100 -113 19 69 -115 0
-100 -113 -20 -70 -116 0
-100 -113 -20 70 116 0
-100 -113 20 -70 116 0
-100 -113 20 70 -116 0
-100 -113 -21 -71 -117 0
-100 -113 -21 71 117 0
-100 -113 21 -71 117 0
-100 -113 21 71 -117 0
-100 -113 -22 -72 -118 0
-100 -113 -22 72 118 0
-100 -113 22 -72 118 0
-100 -113 22 72 -118 0
-100 -113 -23 -73 -119 0
-100 -113 -23 73 119 0
-100 -113 23 -73 119 0
-100 -113 23 73 -119 0
-100 -113 -24 -74 -120 0
-100 -113 -24 74 120 0
-100 -113 24 -74 120 0
-100 -113 24 74 -120 0
-100 -114 -19 -91 -115 0
-100 -114 -19 91 115 0
-100 -114 19 -91 115 0
-100 -114 19 91 -115 0
-100 -114 -20 -92 -116 0
-100 -114 -20 92 116 0
-100 -114 20 -92 116 0
-100 -114 20 92 -116 0
-100 -114 -21 -93 -117 0
-100 -114 -21 93 117 0
-100 -114 21 -93 117 0
-100 -114 21 93 -117 0
-100 -114 -22 -94 -118 0
-100 -114 -22 94 118 0
-100 -114 22 -94 118 0
-100 -114 22 94 -118 0
-100 -114 -23 -95 -119 0
-100 -114 -23 95 119 0
-100 -114 23 -95 119 0
-100 -114 23 95 -119 0
-100 -114 -24 -96 -120 0
-100 -114 -24 96 120 0
-100 -114 24 -96 120 0
-100 -114 24 96 -120 0
-101 -111 -25 -31 -115 0
-101 -111 -25 31 115 0
-101 -111 25 -31 115 0
-101 -111 25 31 -115 0
-101 -111 -26 -32 -116 0
-101 -111 -26 32 116 0
-101 -111 26 -32 116 0
-101 -111 26 32 -116 0
-101 -111 -27 -33 -117 0
-101 -111 -27 33 117 0
-101 -111 27 -33 117 0
-101 -111 27 33 -117 0
-101 -111 -28 -34 -118 0
-101 -111 -28 34 118 0
-101 -111 28 -34 118 0
-101 -111 28 34 -118 0
-101 -111 -29 -35 -119 0
-101 -111 -29 35 119 0
-101 -111 29 -35 119 0
-101 -111 29 35 -119 0
-101 -111 -30 -36 -120 0
-101 -111 -30 36 120 0
-101 -111 30 -36 120 0
-101 -111 30 36 -120 0
-101 -112 -25 -49 -115 0
-101 -112 -25 49 115 0
-101 -112 25 -49 115 0
-101 -112 25 49 -115 0
-101 -112 -26 -50 -116 0
-101 -112 -26 50 116 0
-101 -112 26 -50 116 0
-101 -112 26 50 -116 0
-101 -112 -27 -51 -117 0
-101 -112 -27 51 117 0
-101 -112 27 -51 117 0
-101 -112 27 51 -117 0
-101 -112 -28 -52 -118 0
-101 -112 -28 52 118 0
-101 -112 28 -52 118 0
-101 -112 28 52 -118 0
-101 -112 -29 -53 -119 0
-101 -112 -29 53 119 0
-101 -112 29 -53 119 0
-101 -112 29 53 -119 0
-101 -112 -30 -54 -120 0
-101 -112 -30 54 120 0
-101 -112 30 -54 120 0
-101 -112 30 54 -120 0
-101 -113 -25 -69 -115 0
-101 -113 -25 69 115 0
-101 -113 25 -69 115 0
-101 -113 25 69 -115 0
-101 -113 -26 -70 -116 0
-101 -113 -26 70 116 0
-101 -113 26 -70 116 0
-101 -113 26 70 -116 0
-101 -113 -27 -71 -117 0
-101 -113 -27 71 117 0
-101 -113 27 -71 117 0
-101 -113 27 71 -117 0
-101 -113 -28 -72 -118 0
-101 -113 -28 72 118 0
-101 -113 28 -72 118 0
-101 -113 28 72 -118 0
-101 -113 -29 -73 -119 0
-101 -113 -29 73 119 0
-101 -113 29 -73 119 0
-101 -113 29 73 -119 0
-101 -113 -30 -74 -120 0
-101 -113 -30 74 120 0
-101 -113 30 -74 120 0
-101 -113 30 74 -120 0
-101 -114 -25 -91 -115 0
-101 -114 -25 91 115 0
-101 -114 25 -91 115 0
-101 -114 25 91 -115 0
-101 -114 -26 -92 -116 0
-101 -114 -26 92 116 0
-101 -114 26 -92 116 0
-101 -114 26 92 -116 0
-101 -114 -27 -93 -117 0
-101 -114 -27 93 117 0
-101 -114 27 -93 117 0
-101 -114 27 93 -117 0
-101 -114 -28 -94 -118 0
-101 -114 -28 94 118 0
-101 -114 28 -94 118 0
-101 -114 28 94 -118 0
-101 -114 -29 -95 -119 0
-101 -114 -29 95 119 0
-101 -114 29 -95 119 0
-101 -114 29 95 -119 0
-101 -114 -30 -96 -120 0
-101 -114 -30 96 120 0
-101 -114 30 -96 120 0
-101 -114 30 96 -120 0
-102 -112 -31 -49 -115 0
-102 -112 -31 49 115 0
-102 -112 31 -49 115 0
-102 -112 31 49 -115 0
-102 -112 -32 -50 -116 0
-102 -112 -32 50 116 0
-102 -112 32 -50 116 0
-102 -112 32 50 -116 0
-102 -112 -33 -51 -117 0
-102 -112 -33 51 117 0
-102 -112 33 -51 117 0
-102 -112 33 51 -117 0
-102 -112 -34 -52 -118 0
-102 -112 -34 52 118 0
-102 -112 34 -52 118 0
-102 -112 34 52 -118 0
-102 -112 -35 -53 -119 0
-102 -112 -35 53 119 0
-102 -112 35 -53 119 0
-102 -112 35 53 -119 0
-102 -112 -36 -54 -120 0
-102 -112 -36 54 120 0
-102 -112 36 -54 120 0
-102 -112 36 54 -120 0
-102 -113 -31 -69 -115 0
-102 -113 -31 69 115 0
-102 -113 31 -69 115 0
-102 -113 31 69 -115 0
-102 -113 -32 -70 -116 0
-102 -113 -32 70 116 0
-102 -113 32 -70 116 0
-102 -113 32 70 -116 0
-102 -113 -33 -71 -117 0
-102 -113 -33 71 117 0
-102 -113 33 -71 117 0
-102 -113 33 71 -117 0
-102 -113 -34 -72 -118 0
-102 -113 -34 72 118 0
-102 -113 34 -72 118 0
-102 -113 34 72 -118 0
-102 -113 -35 -73 -119 0
-102 -113 -35 73 119 0
-102 -113 35 -73 119 0
-102 -113 35 73 -119 0
-102 -113 -36 -74 -120 0
-102 -113 -36 74 120 0
-102 -113 36 -74 120 0
-102 -113 36 74 -120 0
-102 -114 -31 -91 -115 0
-102 -114 -31 91 115 0
-102 -114 31 -91 115 0
-102 -114 31 91 -115 0
-102 -114 -32 -92 -116 0
-102 -114 -32 92 116 0
-102 -114 32 -92 116 0
-102 -114 32 92 -116 0
-102 -114 -33 -93 -117 0
-102 -114 -33 93 117 0
-102 -114 33 -93 117 0
-102 -114 33 93 -117 0
-102 -114 -34 -94 -118 0
-102 -114 -34 94 118 0
-102 -114 34 -94 118 0
-102 -114 34 94 -118 0
-102 -114 -35 -95 -119 0
-102 -114 -35 95 119 0
-102 -114 35 -95 119 0
-102 -114 35 95 -119 0
-102 -114 -36 -96 -120 0
-102 -114 -36 96 120 0
-102 -114 36 -96 120 0
-102 -114 36 96 -120 0
-103 -113 -49 -69 -115 0
-103 -113 -49 69 115 0
-103 -113 49 -69 115 0
-103 -113 49 69 -115 0
-103 -113 -50 -70 -116 0
-103 -113 -50 70 116 0
-103 -113 50 -70 116 0
-103 -113 50 70 -116 0
-103 -113 -51 -71 -117 0
-103 -113 -51 71 117 0
-103 -113 51 -71 117 0
-103 -113 51 71 -117 0
-103 -113 -52 -72 -118 0
-103 -113 -52 72 118 0
-103 -113 52 -72 118 0
-103 -113 52 72 -118 0
-103 -113 -53 -73 -119 0
-103 -113 -53 73 119 0
-103 -113 53 -73 119 0
-103 -113 53 73 -119 0
-103 -113 -54 -74 -120 0
-103 -113 -54 74 120 0
-103 -113 54 -74 120 0
-103 -113 54 74 -120 0
-103 -114 -49 -91 -115 0
-103 -114 -49 91 115 0
-103 -114 49 -91 115 0
-103 -114 49 91 -115 0
-103 -114 -50 -92 -116 0
-103 -114 -50 92 116 0
-103 -114 50 -92 116 0
-103 -114 50 92 -116 0
-103 -114 -51 -93 -117 0
-103 -114 -51 93 117 0
-103 -114 51 -93 117 0
-103 -114 51 93 -117 0
-103 -114 -52 -94 -118 0
-103 -114 -52 94 118 0
-103 -114 52 -94 118 0
-103 -114 52 94 -118 0
-103 -114 -53 -95 -119 0
-103 -114 -53 95 119 0
-103 -114 53 -95 119 0
-103 -114 53 95 -119 0
-103 -114 -54 -96 -120 0
-103 -114 -54 96 120 0
-103 -114 54 -96 120 0
-103 -114 54 96 -120 0
-104 -114 -69 -91 -115 0
-104 -114 -69 91 115 0
-104 -114 69 -91 115 0
-104 -114 69 91 -115 0
-104 -114 -70 -92 -116 0
-104 -114 -70 92 116 0
-104 -114 70 -92 116 0
-104 -114 70 92 -116 0
-104 -114 -71 -93 -117 0
-104 -114 -71 93 117 0
-104 -114 71 -93 117 0
-104 -114 71 93 -117 0
-104 -114 -72 -94 -118 0
-104 -114 -72 94 118 0
-104 -114 72 -94 118 0
-104 -114 72 94 -118 0
-104 -114 -73 -95 -119 0
-104 -114 -73 95 119 0
-104 -114 73 -95 119 0
-104 -114 73 95 -119 0
-104 -114 -74 -96 -120 0
-104 -114 -74 96 120 0
-104 -114 74 -96 120 0
-104 -114 74 96 -120 0
115 116 117 118 119 120 0
-121 49 1 0
-121 -49 -1 0
121 -49 1 0
121 49 -1 0
-122 50 2 0
-122 -50 -2 0
122 -50 2 0
122 50 -2 0
-123 51 3 0
-123 -51 -3 0
123 -51 3 0
123 51 -3 0
-124 52 4 0
-124 -52 -4 0
124 -52 4 0
124 52 -4 0
-125 53 5 0
-125 -53 -5 0
125 -53 5 0
125 53 -5 0
-126 54 6 0
-126 -54 -6 0
126 -54 6 0
126 54 -6 0
121 122 123 124 125 126 0
-127 49 7 0
-127 -49 -7 0
127 -49 7 0
127 49 -7 0
-128 50 8 0
-128 -50 -8 0
128 -50 8 0
128 50 -8 0
-129 51 9 0
-129 -51 -9 0
129 -51 9 0
129 51 -9 0
-130 52 10 0
-130 -52 -10 0
130 -52 10 0
130 52 -10 0
-131 53 11 0
-131 -53 -11 0
131 -53 11 0
131 53 -11 0
-132 54 12 0
-132 -54 -12 0
132 -54 12 0
132 54 -12 0
127 128 129 130 131 132 0
-133 49 13 0
-133 -49 -13 0
133 -49 13 0
133 49 -13 0
-134 50 14 0
-134 -50 -14 0
134 -50 14 0
134 50 -14 0
-135 51 15 0
-135 -51 -15 0
135 -51 15 0
135 51 -15 0
-136 52 16 0
-136 -52 -16 0
136 -52 16 0
136 52 -16 0
-137 53 17 0
-137 -53 -17 0
137 -53 17 0
137 53 -17 0
-138 54 18 0
-138 -54 -18 0
138 -54 18 0
138 54 -18 0
133 134 135 136 137 138 0
-139 49 19 0
-139 -49 -19 0
139 -49 19 0
139 49 -19 0
-140 50 20 0
-140 -50 -20 0
140 -50 20 0
140 50 -20 0
-141 51 21 0
-141 -51 -21 0
141 -51 21 0
141 51 -21 0
-142 52 22 0
-142 -52 -22 0
142 -52 22 0
142 52 -22 0
-143 53 23 0
-143 -53 -23 0
143 -53 23 0
143 53 -23 0
-144 54 24 0
-144 -54 -24 0
144 -54 24 0
144 54 -24 0
139 140 141 142 143 144 0
-145 49 25 0
-145 -49 -25 0
145 -49 25 0
145 49 -25 0
-146 50 26 0
-146 -50 -26 0
146 -50 26 0
146 50 -26 0
-147 51 27 0
-147 -51 -27 0
147 -51 27 0
147 51 -27 0
-148 52 28 0
-148 -52 -28 0
148 -52 28 0
148 52 -28 0
-149 53 29 0
-149 -53 -29 0
149 -53 29 0
149 53 -29 0
-150 54 30 0
-150 -54 -30 0
150 -54 30 0
150 54 -30 0
145 146 147 148 149 150 0
-151 49 31 0
-151 -49 -31 0
151 -49 31 0
151 49 -31 0
-152 50 32 0
-152 -50 -32 0
152 -50 32 0
152 50 -32 0
-153 51 33 0
-153 -51 -33 0
153 -51 33 0
153 51 -33 0
-154 52 34 0
-154 -52 -34 0
154 -52 34 0
154 52 -34 0
-155 53 35 0
-155 -53 -35 0
155 -53 35 0
155 53 -35 0
-156 54 36 0
-156 -54 -36 0
156 -54 36 0
156 54 -36 0
151 152 153 154 155 156 0
-157 69 1 0
-157 -69 -1 0
157 -69 1 0
157 69 -1 0
-158 70 2 0
-158 -70 -2 0
158 -70 2 0
158 70 -2 0
-159 71 3 0
-159 -71 -3 0
159 -71 3 0
159 71 -3 0
-160 72 4 0
-160 -72 -4 0
160 -72 4 0
160 72 -4 0
-161 73 5 0
-161 -73 -5 0
161 -73 5 0
161 73 -5 0
-162 74 6 0
-162 -74 -6 0
162 -74 6 0
162 74 -6 0
157 158 159 160 161 162 0
-163 69 7 0
-163 -69 -7 0
163 -69 7 0
163 69 -7 0
-164 70 8 0
-164 -70 -8 0
164 -70 8 0
164 70 -8 0
-165 71 9 0
-165 -71 -9 0
165 -71 9 0
165 71 -9 0
-166 72 10 0
-166 -72 -10 0
166 -72 10 0
166 72 -10 0
-167 73 11 0
-167 -73 -11 0
167 -73 11 0
167 73 -11 0
-168 74 12 0
-168 -74 -12 0
168 -74 12 0
168 74 -12 0
163 164 165 166 167 168 0
-169 69 13 0
-169 -69 -13 0
169 -69 13 0
169 69 -13 0
-170 70 14 0
-170 -70 -14 0
170 -70 14 0
170 70 -14 0
-171 71 15 0
-171 -71 -15 0
171 -71 15 0
171 71 -15 0
-172 72 16 0
-172 -72 -16 0
172 -72 16 0
172 72 -16 0
-173 73 17 0
-173 -73 -17 0
173 -73 17 0
173 73 -17 0
-174 74 18 0
-174 -74 -18 0
174 -74 18 0
174 74 -18 0
169 170 171 172 173 174 0
-175 69 19 0
-175 -69 -19 0
175 -69 19 0
175 69 -19 0
-176 70 20 0
-176 -70 -20 0
176 -70 20 0
176 70 -20 0
-177 71 21 0
-177 -71 -21 0
177 -71 21 0
177 71 -21 0
-178 72 22 0
-178 -72 -22 0
178 -72 22 0
178 72 -22 0
-179 73 23 0
-179 -73 -23 0
179 -73 23 0
179 73 -23 0
-180 74 24 0
-180 -74 -24 0
180 -74 24 0
180 74 -24 0
175 176 177 178 179 180 0
-181 69 25 0
-181 -69 -25 0
181 -69 25 0
181 69 -25 0
-182 70 26 0
-182 -70 -26 0
182 -70 26 0
182 70 -26 0
-183 71 27 0
-183 -71 -27 0
183 -71 27 0
183 71 -27 0
-184 72 28 0
-184 -72 -28 0
184 -72 28 0
184 72 -28 0
-185 73 29 0
-185 -73 -29 0
185 -73 29 0
185 73 -29 0
-186 74 30 0
-186 -74 -30 0
186 -74 30 0
186 74 -30 0
181 182 183 184 185 186 0
-187 69 31 0
-187 -69 -31 0
187 -69 31 0
187 69 -31 0
-188 70 32 0
-188 -70 -32 0
188 -70 32 0
188 70 -32 0
-189 71 33 0
-189 -71 -33 0
189 -71 33 0
189 71 -33 0
-190 72 34 0
-190 -72 -34 0
190 -72 34 0
190 72 -34 0
-191 73 35 0
-191 -73 -35 0
191 -73 35 0
191 73 -35 0
-192 74 36 0
-192 -74 -36 0
192 -74 36 0
192 74 -36 0
187 188 189 190 191 192 0
-193 69 49 0
-193 -69 -49 0
193 -69 49 0
193 69 -49 0
-194 70 50 0
-194 -70 -50 0
194 -70 50 0
194 70 -50 0
-195 71 51 0
-195 -71 -51 0
195 -71 51 0
195 71 -51 0
-196 72 52 0
-196 -72 -52 0
196 -72 52 0
196 72 -52 0
-197 73 53 0
-197 -73 -53 0
197 -73 53 0
197 73 -53 0
-198 74 54 0
-198 -74 -54 0
198 -74 54 0
198 74 -54 0
193 194 195 196 197 198 0
-199 91 1 0
-199 -91 -1 0
199 -91 1 0
199 91 -1 0
-200 92 2 0
-200 -92 -2 0
200 -92 2 0
200 92 -2 0
-201 93 3 0
-201 -93 -3 0
201 -93 3 0
201 93 -3 0
-202 94 4 0
-202 -94 -4 0
202 -94 4 0
202 94 -4 0
-203 95 5 0
-203 -95 -5 0
203 -95 5 0
203 95 -5 0
-204 96 6 0
-204 -96 -6 0
204 -96 6 0
204 96 -6 0
199 200 201 202 203 204 0
-205 91 7 0
-205 -91 -7 0
205 -91 7 0
205 91 -7 0
-206 92 8 0
-206 -92 -8 0
206 -92 8 0
206 92 -8 0
-207 93 9 0
-207 -93 -9 0
207 -93 9 0
207 93 -9 0
-208 94 10 0
-208 -94 -10 0
208 -94 10 0
208 94 -10 0
-209 95 11 0
-209 -95 -11 0
209 -95 11 0
209 95 -11 0
-210 96 12 0
-210 -96 -12 0
210 -96 12 0
210 96 -12 0
205 206 207 208 209 210 0
-211 91 13 0
-211 -91 -13 0
211 -91 13 0
211 91 -13 0
-212 92 14 0
-212 -92 -14 0
212 -92 14 0
212 92 -14 0
-213 93 15 0
-213 -93 -15 0
213 -93 15 0
213 93 -15 0
-214 94 16 0
-214 -94 -16 0
214 -94 16 0
214 94 -16 0
-215 95 17 0
-215 -95 -17 0
215 -95 17 0
215 95 -17 0
-216 96 18 0
-216 -96 -18 0
216 -96 18 0
216 96 -18 0
211 212 213 214 215 216 0
-217 91 19 0
-217 -91 -19 0
217 -91 19 0
217 91 -19 0
-218 92 20 0
-218 -92 -20 0
218 -92 20 0
218 92 -20 0
-219 93 21 0
-219 -93 -21 0
219 -93 21 0
219 93 -21 0
-220 94 22 0
-220 -94 -22 0
220 -94 22 0
220 94 -22 0
-221 95 23 0
-221 -95 -23 0
221 -95 23 0
221 95 -23 0
-222 96 24 0
-222 -96 -24 0
222 -96 24 0
222 96 -24 0
217 218 219 220 221 222 0
-223 91 25 0
-223 -91 -25 0
223 -91 25 0
223 91 -25 0
-224 92 26 0
-224 -92 -26 0
224 -92 26 0
224 92 -26 0
-225 93 27 0
-225 -93 -27 0
225 -93 27 0
225 93 -27 0
-226 94 28 0
-226 -94 -28 0
226 -94 28 0
226 94 -28 0
-227 95 29 0
-227 -95 -29 0
227 -95 29 0
227 95 -29 0
-228 96 30 0
-228 -96 -30 0
228 -96 30 0
228 96 -30 0
223 224 225 226 227 228 0
-229 91 31 0
-229 -91 -31 0
229 -91 31 0
229 91 -31 0
-230 92 32 0
-230 -92 -32 0
230 -92 32 0
230 92 -32 0
-231 93 33 0
-231 -93 -33 0
231 -93 33 0
231 93 -33 0
-232 94 34 0
-232 -94 -34 0
232 -94 34 0
232 94 -34 0
-233 95 35 0
-233 -95 -35 0
233 -95 35 0
233 95 -35 0
-234 96 36 0
-234 -96 -36 0
234 -96 36 0
234 96 -36 0
229 230 231 232 233 234 0
-235 91 49 0
-235 -91 -49 0
235 -91 49 0
235 91 -49 0
-236 92 50 0
-236 -92 -50 0
236 -92 50 0
236 92 -50 0
-237 93 51 0
-237 -93 -51 0
237 -93 51 0
237 93 -51 0
-238 94 52 0
-238 -94 -52 0
238 -94 52 0
238 94 -52 0
-239 95 53 0
-239 -95 -53 0
239 -95 53 0
239 95 -53 0
-240 96 54 0
-240 -96 -54 0
240 -96 54 0
240 96 -54 0
235 236 237 238 239 240 0
-241 91 69 0
-241 -91 -69 0
241 -91 69 0
241 91 -69 0
-242 92 70 0
-242 -92 -70 0
242 -92 70 0
242 92 -70 0
-243 93 71 0
-243 -93 -71 0
243 -93 71 0
243 93 -71 0
-244 94 72 0
-244 -94 -72 0
244 -94 72 0
244 94 -72 0
-245 95 73 0
-245 -95 -73 0
245 -95 73 0
245 95 -73 0
-246 96 74 0
-246 -96 -74 0
246 -96 74 0
246 96 -74 0
241 242 243 244 245 246 0
-247 115 1 0
-247 -115 -1 0
247 -115 1 0
247 115 -1 0
-248 116 2 0
-248 -116 -2 0
248 -116 2 0
248 116 -2 0
-249 117 3 0
-249 -117 -3 0
249 -117 3 0
249 117 -3 0
-250 118 4 0
-250 -118 -4 0
250 -118 4 0
250 118 -4 0
-251 119 5 0
-251 -119 -5 0
251 -119 5 0
251 119 -5 0
-252 120 6 0
-252 -120 -6 0
252 -120 6 0
252 120 -6 0
247 248 249 250 251 252 0
-253 115 7 0
-253 -115 -7 0
253 -115 7 0
253 115 -7 0
-254 116 8 0
-254 -116 -8 0
254 -116 8 0
254 116 -8 0
-255 117 9 0
-255 -117 -9 0
255 -117 9 0
255 117 -9 0
-256 118 10 0
-256 -118 -10 0
256 -118 10 0
256 118 -10 0
-257 119 11 0
-257 -119 -11 0
257 -119 11 0
257 119 -11 0
-258 120 12 0
-258 -120 -12 0
258 -120 12 0
258 120 -12 0
253 254 255 256 257 258 0
-259 115 13 0
-259 -115 -13 0
259 -115 13 0
259 115 -13 0
-260 116 14 0
-260 -116 -14 0
260 -116 14 0
260 116 -14 0
-261 117 15 0
-261 -117 -15 0
261 -117 15 0
261 117 -15 0
-262 118 16 0
-262 -118 -16 0
262 -118 16 0
262 118 -16 0
-263 119 17 0
-263 -119 -17 0
263 -119 17 0
263 119 -17 0
-264 120 18 0
-264 -120 -18 0
264 -120 18 0
264 120 -18 0
259 260 261 262 263 264 0
-265 115 19 0
-265 -115 -19 0
265 -115 19 0
265 115 -19 0
-266 116 20 0
-266 -116 -20 0
266 -116 20 0
266 116 -20 0
-267 117 21 0
-267 -117 -21 0
267 -117 21 0
267 117 -21 0
-268 118 22 0
-268 -118 -22 0
268 -118 22 0
268 118 -22 0
-269 119 23 0
-269 -119 -23 0
269 -119 23 0
269 119 -23 0
-270 120 24 0
-270 -120 -24 0
270 -120 24 0
270 120 -24 0
265 266 267 268 269 270 0
-271 115 25 0
-271 -115 -25 0
271 -115 25 0
271 115 -25 0
-272 116 26 0
-272 -116 -26 0
272 -116 26 0
272 116 -26 0
-273 117 27 0
-273 -117 -27 0
273 -117 27 0
273 117 -27 0
-274 118 28 0
-274 -118 -28 0
274 -118 28 0
274 118 -28 0
-275 119 29 0
-275 -119 -29 0
275 -119 29 0
275 119 -29 0
-276 120 30 0
-276 -120 -30 0
276 -120 30 0
276 120 -30 0
271 272 273 274 275 276 0
-277 115 31 0
-277 -115 -31 0
277 -115 31 0
277 115 -31 0
-278 116 32 0
-278 -116 -32 0
278 -116 32 0
278 116 -32 0
-279 117 33 0
-279 -117 -33 0
279 -117 33 0
279 117 -33 0
-280 118 34 0
-280 -118 -34 0
280 -118 34 0
280 118 -34 0
-281 119 35 0
-281 -119 -35 0
281 -119 35 0
281 119 -35 0
-282 120 36 0
-282 -120 -36 0
282 -120 36 0
282 120 -36 0
277 278 279 280 281 282 0
-283 115 49 0
-283 -115 -49 0
283 -115 49 0
283 115 -49 0
-284 116 50 0
-284 -116 -50 0
284 -116 50 0
284 116 -50 0
-285 117 51 0
-285 -117 -51 0
285 -117 51 0
285 117 -51 0
-286 118 52 0
-286 -118 -52 0
286 -118 52 0
286 118 -52 0
-287 119 53 0
-287 -119 -53 0
287 -119 53 0
287 119 -53 0
-288 120 54 0
-288 -120 -54 0
288 -120 54 0
288 120 -54 0
283 284 285 286 287 288 0
-289 115 69 0
-289 -115 -69 0
289 -115 69 0
289 115 -69 0
-290 116 70 0
-290 -116 -70 0
290 -116 70 0
290 116 -70 0
-291 117 71 0
-291 -117 -71 0
291 -117 71 0
291 117 -71 0
-292 118 72 0
-292 -118 -72 0
292 -118 72 0
292 118 -72 0
-293 119 73 0
-293 -119 -73 0
293 -119 73 0
293 119 -73 0
-294 120 74 0
-294 -120 -74 0
294 -120 74 0
294 120 -74 0
289 290 291 292 293 294 0
-295 115 91 0
-295 -115 -91 0
295 -115 91 0
295 115 -91 0
-296 116 92 0
-296 -116 -92 0
296 -116 92 0
296 116 -92 0
-297 117 93 0
-297 -117 -93 0
297 -117 93 0
297 117 -93 0
-298 118 94 0
-298 -118 -94 0
298 -118 94 0
298 118 -94 0
-299 119 95 0
-299 -119 -95 0
299 -119 95 0
299 119 -95 0
-300 120 96 0
-300 -120 -96 0
300 -120 96 0
300 120 -96 0
295 296 297 298 299 300 0
301 302 303 304 305 306 307 308 309 310 0
-301 -1 0
-301 2 0
-301 -3 0
-301 -4 0
-301 -5 0
-301 -6 0
-302 -7 0
-302 8 0
-302 -9 0
-302 -10 0
-302 -11 0
-302 -12 0
-303 -13 0
-303 14 0
-303 -15 0
-303 -16 0
-303 -17 0
-303 -18 0
-304 -19 0
-304 20 0
-304 -21 0
-304 -22 0
-304 -23 0
-304 -24 0
-305 -25 0
-305 26 0
-305 -27 0
-305 -28 0
-305 -29 0
-305 -30 0
-306 -31 0
-306 32 0
-306 -33 0
-306 -34 0
-306 -35 0
-306 -36 0
-307 -49 0
-307 50 0
-307 -51 0
-307 -52 0
-307 -53 0
-307 -54 0
-308 -69 0
-308 70 0
-308 -71 0
-308 -72 0
-308 -73 0
-308 -74 0
-309 -91 0
-309 92 0
-309 -93 0
-309 -94 0
-309 -95 0
-309 -96 0
-310 -115 0
-310 116 0
-310 -117 0
-310 -118 0
-310 -119 0
-310 -120 0
311 312 313 314 315 316 317 318 319 320 0
-311 1 0
-311 -2 0
-311 -3 0
-311 -4 0
-311 -5 0
-311 -6 0
-312 7 0
-312 -8 0
-312 -9 0
-312 -10 0
-312 -11 0
-312 -12 0
-313 13 0
-313 -14 0
-313 -15 0
-313 -16 0
-313 -17 0
-313 -18 0
-314 19 0
-314 -20 0
-314 -21 0
-314 -22 0
-314 -23 0
-314 -24 0
-315 25 0
-315 -26 0
-315 -27 0
-315 -28 0
-315 -29 0
-315 -30 0
-316 31 0
-316 -32 0
-316 -33 0
-316 -34 0
-316 -35 0
-316 -36 0
-317 49 0
-317 -50 0
-317 -51 0
-317 -52 0
-317 -53 0
-317 -54 0
-318 69 0
-318 -70 0
-318 -71 0
-318 -72 0
-318 -73 0
-318 -74 0
-319 91 0
-319 -92 0
-319 -93 0
-319 -94 0
-319 -95 0
-319 -96 0
-320 115 0
-320 -116 0
-320 -117 0
-320 -118 0
-320 -119 0
-320 -120 0
321 322 323 324 325 326 327 328 329 330 0
-321 1 0
-321 2 0
-321 -3 0
-321 4 0
-321 -5 0
-321 -6 0
-322 7 0
-322 8 0
-322 -9 0
-322 10 0
-322 -11 0
-322 -12 0
-323 13 0
-323 14 0
-323 -15 0
-323 16 0
-323 -17 0
-323 -18 0
-324 19 0
-324 20 0
-324 -21 0
-324 22 0
-324 -23 0
-324 -24 0
-325 25 0
-325 26 0
-325 -27 0
-325 28 0
-325 -29 0
-325 -30 0
-326 31 0
-326 32 0
-326 -33 0
-326 34 0
-326 -35 0
-326 -36 0
-327 49 0
-327 50 0
-327 -51 0
-327 52 0
-327 -53 0
-327 -54 0
-328 69 0
-328 70 0
-328 -71 0
-328 72 0
-328 -73 0
-328 -74 0
-329 91 0
-329 92 0
-329 -93 0
-329 94 0
-329 -95 0
-329 -96 0
-330 115 0
-330 116 0
-330 -117 0
-330 118 0
-330 -119 0
-330 -120 0
331 332 333 334 335 336 337 338 339 340 0
-331 -1 0
-331 -2 0
-331 -3 0
-331 4 0
-331 -5 0
-331 6 0
-332 -7 0
-332 -8 0
-332 -9 0
-332 10 0
-332 -11 0
-332 12 0
-333 -13 0
-333 -14 0
-333 -15 0
-333 16 0
-333 -17 0
-333 18 0
-334 -19 0
-334 -20 0
-334 -21 0
-334 22 0
-334 -23 0
-334 24 0
-335 -25 0
-335 -26 0
-335 -27 0
-335 28 0
-335 -29 0
-335 30 0
-336 -31 0
-336 -32 0
-336 -33 0
-336 34 0
-336 -35 0
-336 36 0
-337 -49 0
-337 -50 0
-337 -51 0
-337 52 0
-337 -53 0
-337 54 0
-338 -69 0
-338 -70 0
-338 -71 0
-338 72 0
-338 -73 0
-338 74 0
-339 -91 0
-339 -92 0
-339 -93 0
-339 94 0
-339 -95 0
-339 96 0
-340 -115 0
-340 -116 0
-340 -117 0
-340 118 0
-340 -119 0
-340 120 0
341 342 343 344 345 346 347 348 349 350 0
-341 1 0
-341 -2 0
-341 3 0
-341 4 0
-341 -5 0
-341 -6 0
-342 7 0
-342 -8 0
-342 9 0
-342 10 0
-342 -11 0
-342 -12 0
-343 13 0
-343 -14 0
-343 15 0
-343 16 0
-343 -17 0
-343 -18 0
-344 19 0
-344 -20 0
-344 21 0
-344 22 0
-344 -23 0
-344 -24 0
-345 25 0
-345 -26 0
-345 27 0
-345 28 0
-345 -29 0
-345 -30 0
-346 31 0
-346 -32 0
-346 33 0
-346 34 0
-346 -35 0
-346 -36 0
-347 49 0
-347 -50 0
-347 51 0
-347 52 0
-347 -53 0
-347 -54 0
-348 69 0
-348 -70 0
-348 71 0
-348 72 0
-348 -73 0
-348 -74 0
-349 91 0
-349 -92 0
-349 93 0
-349 94 0
-349 -95 0
-349 -96 0
-350 115 0
-350 -116 0
-350 117 0
-350 118 0
-350 -119 0
-350 -120 0
351 352 353 354 355 356 357 358 359 360 0
-351 -1 0
-351 2 0
-351 3 0
-351 -4 0
-351 -5 0
-351 -6 0
-352 -7 0
-352 8 0
-352 9 0
-352 -10 0
-352 -11 0
-352 -12 0
-353 -13 0
-353 14 0
-353 15 0
-353 -16 0
-353 -17 0
-353 -18 0
-354 -19 0
-354 20 0
-354 21 0
-354 -22 0
-354 -23 0
-354 -24 0
-355 -25 0
-355 26 0
-355 27 0
-355 -28 0
-355 -29 0
-355 -30 0
-356 -31 0
-356 32 0
-356 33 0
-356 -34 0
-356 -35 0
-356 -36 0
-357 -49 0
-357 50 0
-357 51 0
-357 -52 0
-357 -53 0
-357 -54 0
-358 -69 0
-358 70 0
-358 71 0
-358 -72 0
-358 -73 0
-358 -74 0
-359 -91 0
-359 92 0
-359 93 0
-359 -94 0
-359 -95 0
-359 -96 0
-360 -115 0
-360 116 0
-360 117 0
-360 -118 0
-360 -119 0
-360 -120 0
