p cnf 1827 41304
1 0
-2 0
-3 0
-4 0
-5 0
-6 0
-7 0
-8 0
-9 0
-10 0
11 0
-12 0
-13 0
-14 0
-15 0
-16 0
-17 0
-18 0
-19 0
-20 0
21 0
-22 0
-23 0
-24 0
-25 0
-26 0
-27 0
-28 0
-29 0
-30 0
31 0
-32 0
-33 0
-34 0
-35 0
-36 0
-37 0
-38 0
-39 0
-40 0
41 0
-42 0
-43 0
-44 0
-45 0
-46 0
-47 0
-48 0
-49 0
-50 0
51 0
-52 0
-53 0
-54 0
-55 0
-56 0
-57 0
-58 0
-59 0
-60 0
61 0
-62 0
-63 0
-64 0
-65 0
-66 0
-67 0
-68 0
-69 0
-70 0
71 0
-72 0
-73 0
-74 0
-75 0
-76 0
-77 0
-78 0
-79 0
-80 0
81 0
82 83 84 85 86 87 88 89 90 0
-82 -83 0
-82 -84 0
-82 -85 0
-82 -86 0
-82 -87 0
-82 -88 0
-82 -89 0
-82 -90 0
-83 -84 0
-83 -85 0
-83 -86 0
-83 -87 0
-83 -88 0
-83 -89 0
-83 -90 0
-84 -85 0
-84 -86 0
-84 -87 0
-84 -88 0
-84 -89 0
-84 -90 0
-85 -86 0
-85 -87 0
-85 -88 0
-85 -89 0
-85 -90 0
-86 -87 0
-86 -88 0
-86 -89 0
-86 -90 0
-87 -88 0
-87 -89 0
-87 -90 0
-88 -89 0
-88 -90 0
-89 -90 0
91 92 93 94 95 96 97 98 99 0
-91 -92 0
-91 -93 0
-91 -94 0
-91 -95 0
-91 -96 0
-91 -97 0
-91 -98 0
-91 -99 0
-92 -93 0
-92 -94 0
-92 -95 0
-92 -96 0
-92 -97 0
-92 -98 0
-92 -99 0
-93 -94 0
-93 -95 0
-93 -96 0
-93 -97 0
-93 -98 0
-93 -99 0
-94 -95 0
-94 -96 0
-94 -97 0
-94 -98 0
-94 -99 0
-95 -96 0
-95 -97 0
-95 -98 0
-95 -99 0
-96 -97 0
-96 -98 0
-96 -99 0
-97 -98 0
-97 -99 0
-98 -99 0
-82 -91 0
-83 -91 0
-83 -92 0
-84 -91 0
-84 -92 0
-84 -93 0
-85 -91 0
-85 -92 0
-85 -93 0
-85 -94 0
-86 -91 0
-86 -92 0
-86 -93 0
-86 -94 0
-86 -95 0
-87 -91 0
-87 -92 0
-87 -93 0
-87 -94 0
-87 -95 0
-87 -96 0
-88 -91 0
-88 -92 0
-88 -93 0
-88 -94 0
-88 -95 0
-88 -96 0
-88 -97 0
-89 -91 0
-89 -92 0
-89 -93 0
-89 -94 0
-89 -95 0
-89 -96 0
-89 -97 0
-89 -98 0
-90 -91 0
-90 -92 0
-90 -93 0
-90 -94 0
-90 -95 0
-90 -96 0
-90 -97 0
-90 -98 0
-90 -99 0
-82 -92 -1 -10 -100 0
-82 -92 -1 10 100 0
-82 -92 1 -10 100 0
-82 -92 1 10 -100 0
-82 -92 -2 -11 -101 0
-82 -92 -2 11 101 0
-82 -92 2 -11 101 0
-82 -92 2 11 -101 0
-82 -92 -3 -12 -102 0
-82 -92 -3 12 102 0
-82 -92 3 -12 102 0
-82 -92 3 12 -102 0
-82 -92 -4 -13 -103 0
-82 -92 -4 13 103 0
-82 -92 4 -13 103 0
-82 -92 4 13 -103 0
-82 -92 -5 -14 -104 0
-82 -92 -5 14 104 0
-82 -92 5 -14 104 0
-82 -92 5 14 -104 0
-82 -92 -6 -15 -105 0
-82 -92 -6 15 105 0
-82 -92 6 -15 105 0
-82 -92 6 15 -105 0
-82 -92 -7 -16 -106 0
-82 -92 -7 16 106 0
-82 -92 7 -16 106 0
-82 -92 7 16 -106 0
-82 -92 -8 -17 -107 0
-82 -92 -8 17 107 0
-82 -92 8 -17 107 0
-82 -92 8 17 -107 0
-82 -92 -9 -18 -108 0
-82 -92 -9 18 108 0
-82 -92 9 -18 108 0
-82 -92 9 18 -108 0
-82 -93 -1 -19 -100 0
-82 -93 -1 19 100 0
-82 -93 1 -19 100 0
-82 -93 1 19 -100 0
-82 -93 -2 -20 -101 0
-82 -93 -2 20 101 0
-82 -93 2 -20 101 0
-82 -93 2 20 -101 0
-82 -93 -3 -21 -102 0
-82 -93 -3 21 102 0
-82 -93 3 -21 102 0
-82 -93 3 21 -102 0
-82 -93 -4 -22 -103 0
-82 -93 -4 22 103 0
-82 -93 4 -22 103 0
-82 -93 4 22 -103 0
-82 -93 -5 -23 -104 0
-82 -93 -5 23 104 0
-82 -93 5 -23 104 0
-82 -93 5 23 -104 0
-82 -93 -6 -24 -105 0
-82 -93 -6 24 105 0
-82 -93 6 -24 105 0
-82 -93 6 24 -105 0
-82 -93 -7 -25 -106 0
-82 -93 -7 25 106 0
-82 -93 7 -25 106 0
-82 -93 7 25 -106 0
-82 -93 -8 -26 -107 0
-82 -93 -8 26 107 0
-82 -93 8 -26 107 0
-82 -93 8 26 -107 0
-82 -93 -9 -27 -108 0
-82 -93 -9 27 108 0
-82 -93 9 -27 108 0
-82 -93 9 27 -108 0
-82 -94 -1 -28 -100 0
-82 -94 -1 28 100 0
-82 -94 1 -28 100 0
-82 -94 1 28 -100 0
-82 -94 -2 -29 -101 0
-82 -94 -2 29 101 0
-82 -94 2 -29 101 0
-82 -94 2 29 -101 0
-82 -94 -3 -30 -102 0
-82 -94 -3 30 102 0
-82 -94 3 -30 102 0
-82 -94 3 30 -102 0
-82 -94 -4 -31 -103 0
-82 -94 -4 31 103 0
-82 -94 4 -31 103 0
-82 -94 4 31 -103 0
-82 -94 -5 -32 -104 0
-82 -94 -5 32 104 0
-82 -94 5 -32 104 0
-82 -94 5 32 -104 0
-82 -94 -6 -33 -105 0
-82 -94 -6 33 105 0
-82 -94 6 -33 105 0
-82 -94 6 33 -105 0
-82 -94 -7 -34 -106 0
-82 -94 -7 34 106 0
-82 -94 7 -34 106 0
-82 -94 7 34 -106 0
-82 -94 -8 -35 -107 0
-82 -94 -8 35 107 0
-82 -94 8 -35 107 0
-82 -94 8 35 -107 0
-82 -94 -9 -36 -108 0
-82 -94 -9 36 108 0
-82 -94 9 -36 108 0
-82 -94 9 36 -108 0
-82 -95 -1 -37 -100 0
-82 -95 -1 37 100 0
-82 -95 1 -37 100 0
-82 -95 1 37 -100 0
-82 -95 -2 -38 -101 0
-82 -95 -2 38 101 0
-82 -95 2 -38 101 0
-82 -95 2 38 -101 0
-82 -95 -3 -39 -102 0
-82 -95 -3 39 102 0
-82 -95 3 -39 102 0
-82 -95 3 39 -102 0
-82 -95 -4 -40 -103 0
-82 -95 -4 40 103 0
-82 -95 4 -40 103 0
-82 -95 4 40 -103 0
-82 -95 -5 -41 -104 0
-82 -95 -5 41 104 0
-82 -95 5 -41 104 0
-82 -95 5 41 -104 0
-82 -95 -6 -42 -105 0
-82 -95 -6 42 105 0
-82 -95 6 -42 105 0
-82 -95 6 42 -105 0
-82 -95 -7 -43 -106 0
-82 -95 -7 43 106 0
-82 -95 7 -43 106 0
-82 -95 7 43 -106 0
-82 -95 -8 -44 -107 0
-82 -95 -8 44 107 0
-82 -95 8 -44 107 0
-82 -95 8 44 -107 0
-82 -95 -9 -45 -108 0
-82 -95 -9 45 108 0
-82 -95 9 -45 108 0
-82 -95 9 45 -108 0
-82 -96 -1 -46 -100 0
-82 -96 -1 46 100 0
-82 -96 1 -46 100 0
-82 -96 1 46 -100 0
-82 -96 -2 -47 -101 0
-82 -96 -2 47 101 0
-82 -96 2 -47 101 0
-82 -96 2 47 -101 0
-82 -96 -3 -48 -102 0
-82 -96 -3 48 102 0
-82 -96 3 -48 102 0
-82 -96 3 48 -102 0
-82 -96 -4 -49 -103 0
-82 -96 -4 49 103 0
-82 -96 4 -49 103 0
-82 -96 4 49 -103 0
-82 -96 -5 -50 -104 0
-82 -96 -5 50 104 0
-82 -96 5 -50 104 0
-82 -96 5 50 -104 0
-82 -96 -6 -51 -105 0
-82 -96 -6 51 105 0
-82 -96 6 -51 105 0
-82 -96 6 51 -105 0
-82 -96 -7 -52 -106 0
-82 -96 -7 52 106 0
-82 -96 7 -52 106 0
-82 -96 7 52 -106 0
-82 -96 -8 -53 -107 0
-82 -96 -8 53 107 0
-82 -96 8 -53 107 0
-82 -96 8 53 -107 0
-82 -96 -9 -54 -108 0
-82 -96 -9 54 108 0
-82 -96 9 -54 108 0
-82 -96 9 54 -108 0
-82 -97 -1 -55 -100 0
-82 -97 -1 55 100 0
-82 -97 1 -55 100 0
-82 -97 1 55 -100 0
-82 -97 -2 -56 -101 0
-82 -97 -2 56 101 0
-82 -97 2 -56 101 0
-82 -97 2 56 -101 0
-82 -97 -3 -57 -102 0
-82 -97 -3 57 102 0
-82 -97 3 -57 102 0
-82 -97 3 57 -102 0
-82 -97 -4 -58 -103 0
-82 -97 -4 58 103 0
-82 -97 4 -58 103 0
-82 -97 4 58 -103 0
-82 -97 -5 -59 -104 0
-82 -97 -5 59 104 0
-82 -97 5 -59 104 0
-82 -97 5 59 -104 0
-82 -97 -6 -60 -105 0
-82 -97 -6 60 105 0
-82 -97 6 -60 105 0
-82 -97 6 60 -105 0
-82 -97 -7 -61 -106 0
-82 -97 -7 61 106 0
-82 -97 7 -61 106 0
-82 -97 7 61 -106 0
-82 -97 -8 -62 -107 0
-82 -97 -8 62 107 0
-82 -97 8 -62 107 0
-82 -97 8 62 -107 0
-82 -97 -9 -63 -108 0
-82 -97 -9 63 108 0
-82 -97 9 -63 108 0
-82 -97 9 63 -108 0
-82 -98 -1 -64 -100 0
-82 -98 -1 64 100 0
-82 -98 1 -64 100 0
-82 -98 1 64 -100 0
-82 -98 -2 -65 -101 0
-82 -98 -2 65 101 0
-82 -98 2 -65 101 0
-82 -98 2 65 -101 0
-82 -98 -3 -66 -102 0
-82 -98 -3 66 102 0
-82 -98 3 -66 102 0
-82 -98 3 66 -102 0
-82 -98 -4 -67 -103 0
-82 -98 -4 67 103 0
-82 -98 4 -67 103 0
-82 -98 4 67 -103 0
-82 -98 -5 -68 -104 0
-82 -98 -5 68 104 0
-82 -98 5 -68 104 0
-82 -98 5 68 -104 0
-82 -98 -6 -69 -105 0
-82 -98 -6 69 105 0
-82 -98 6 -69 105 0
-82 -98 6 69 -105 0
-82 -98 -7 -70 -106 0
-82 -98 -7 70 106 0
-82 -98 7 -70 106 0
-82 -98 7 70 -106 0
-82 -98 -8 -71 -107 0
-82 -98 -8 71 107 0
-82 -98 8 -71 107 0
-82 -98 8 71 -107 0
-82 -98 -9 -72 -108 0
-82 -98 -9 72 108 0
-82 -98 9 -72 108 0
-82 -98 9 72 -108 0
-82 -99 -1 -73 -100 0
-82 -99 -1 73 100 0
-82 -99 1 -73 100 0
-82 -99 1 73 -100 0
-82 -99 -2 -74 -101 0
-82 -99 -2 74 101 0
-82 -99 2 -74 101 0
-82 -99 2 74 -101 0
-82 -99 -3 -75 -102 0
-82 -99 -3 75 102 0
-82 -99 3 -75 102 0
-82 -99 3 75 -102 0
-82 -99 -4 -76 -103 0
-82 -99 -4 76 103 0
-82 -99 4 -76 103 0
-82 -99 4 76 -103 0
-82 -99 -5 -77 -104 0
-82 -99 -5 77 104 0
-82 -99 5 -77 104 0
-82 -99 5 77 -104 0
-82 -99 -6 -78 -105 0
-82 -99 -6 78 105 0
-82 -99 6 -78 105 0
-82 -99 6 78 -105 0
-82 -99 -7 -79 -106 0
-82 -99 -7 79 106 0
-82 -99 7 -79 106 0
-82 -99 7 79 -106 0
-82 -99 -8 -80 -107 0
-82 -99 -8 80 107 0
-82 -99 8 -80 107 0
-82 -99 8 80 -107 0
-82 -99 -9 -81 -108 0
-82 -99 -9 81 108 0
-82 -99 9 -81 108 0
-82 -99 9 81 -108 0
-83 -93 -10 -19 -100 0
-83 -93 -10 19 100 0
-83 -93 10 -19 100 0
-83 -93 10 19 -100 0
-83 -93 -11 -20 -101 0
-83 -93 -11 20 101 0
-83 -93 11 -20 101 0
-83 -93 11 20 -101 0
-83 -93 -12 -21 -102 0
-83 -93 -12 21 102 0
-83 -93 12 -21 102 0
-83 -93 12 21 -102 0
-83 -93 -13 -22 -103 0
-83 -93 -13 22 103 0
-83 -93 13 -22 103 0
-83 -93 13 22 -103 0
-83 -93 -14 -23 -104 0
-83 -93 -14 23 104 0
-83 -93 14 -23 104 0
-83 -93 14 23 -104 0
-83 -93 -15 -24 -105 0
-83 -93 -15 24 105 0
-83 -93 15 -24 105 0
-83 -93 15 24 -105 0
-83 -93 -16 -25 -106 0
-83 -93 -16 25 106 0
-83 -93 16 -25 106 0
-83 -93 16 25 -106 0
-83 -93 -17 -26 -107 0
-83 -93 -17 26 107 0
-83 -93 17 -26 107 0
-83 -93 17 26 -107 0
-83 -93 -18 -27 -108 0
-83 -93 -18 27 108 0
-83 -93 18 -27 108 0
-83 -93 18 27 -108 0
-83 -94 -10 -28 -100 0
-83 -94 -10 28 100 0
-83 -94 10 -28 100 0
-83 -94 10 28 -100 0
-83 -94 -11 -29 -101 0
-83 -94 -11 29 101 0
-83 -94 11 -29 101 0
-83 -94 11 29 -101 0
-83 -94 -12 -30 -102 0
-83 -94 -12 30 102 0
-83 -94 12 -30 102 0
-83 -94 12 30 -102 0
-83 -94 -13 -31 -103 0
-83 -94 -13 31 103 0
-83 -94 13 -31 103 0
-83 -94 13 31 -103 0
-83 -94 -14 -32 -104 0
-83 -94 -14 32 104 0
-83 -94 14 -32 104 0
-83 -94 14 32 -104 0
-83 -94 -15 -33 -105 0
-83 -94 -15 33 105 0
-83 -94 15 -33 105 0
-83 -94 15 33 -105 0
-83 -94 -16 -34 -106 0
-83 -94 -16 34 106 0
-83 -94 16 -34 106 0
-83 -94 16 34 -106 0
-83 -94 -17 -35 -107 0
-83 -94 -17 35 107 0
-83 -94 17 -35 107 0
-83 -94 17 35 -107 0
-83 -94 -18 -36 -108 0
-83 -94 -18 36 108 0
-83 -94 18 -36 108 0
-83 -94 18 36 -108 0
-83 -95 -10 -37 -100 0
-83 -95 -10 37 100 0
-83 -95 10 -37 100 0
-83 -95 10 37 -100 0
-83 -95 -11 -38 -101 0
-83 -95 -11 38 101 0
-83 -95 11 -38 101 0
-83 -95 11 38 -101 0
-83 -95 -12 -39 -102 0
-83 -95 -12 39 102 0
-83 -95 12 -39 102 0
-83 -95 12 39 -102 0
-83 -95 -13 -40 -103 0
-83 -95 -13 40 103 0
-83 -95 13 -40 103 0
-83 -95 13 40 -103 0
-83 -95 -14 -41 -104 0
-83 -95 -14 41 104 0
-83 -95 14 -41 104 0
-83 -95 14 41 -104 0
-83 -95 -15 -42 -105 0
-83 -95 -15 42 105 0
-83 -95 15 -42 105 0
-83 -95 15 42 -105 0
-83 -95 -16 -43 -106 0
-83 -95 -16 43 106 0
-83 -95 16 -43 106 0
-83 -95 16 43 -106 0
-83 -95 -17 -44 -107 0
-83 -95 -17 44 107 0
-83 -95 17 -44 107 0
-83 -95 17 44 -107 0
-83 -95 -18 -45 -108 0
-83 -95 -18 45 108 0
-83 -95 18 -45 108 0
-83 -95 18 45 -108 0
-83 -96 -10 -46 -100 0
-83 -96 -10 46 100 0
-83 -96 10 -46 100 0
-83 -96 10 46 -100 0
-83 -96 -11 -47 -101 0
-83 -96 -11 47 101 0
-83 -96 11 -47 101 0
-83 -96 11 47 -101 0
-83 -96 -12 -48 -102 0
-83 -96 -12 48 102 0
-83 -96 12 -48 102 0
-83 -96 12 48 -102 0
-83 -96 -13 -49 -103 0
-83 -96 -13 49 103 0
-83 -96 13 -49 103 0
-83 -96 13 49 -103 0
-83 -96 -14 -50 -104 0
-83 -96 -14 50 104 0
-83 -96 14 -50 104 0
-83 -96 14 50 -104 0
-83 -96 -15 -51 -105 0
-83 -96 -15 51 105 0
-83 -96 15 -51 105 0
-83 -96 15 51 -105 0
-83 -96 -16 -52 -106 0
-83 -96 -16 52 106 0
-83 -96 16 -52 106 0
-83 -96 16 52 -106 0
-83 -96 -17 -53 -107 0
-83 -96 -17 53 107 0
-83 -96 17 -53 107 0
-83 -96 17 53 -107 0
-83 -96 -18 -54 -108 0
-83 -96 -18 54 108 0
-83 -96 18 -54 108 0
-83 -96 18 54 -108 0
-83 -97 -10 -55 -100 0
-83 -97 -10 55 100 0
-83 -97 10 -55 100 0
-83 -97 10 55 -100 0
-83 -97 -11 -56 -101 0
-83 -97 -11 56 101 0
-83 -97 11 -56 101 0
-83 -97 11 56 -101 0
-83 -97 -12 -57 -102 0
-83 -97 -12 57 102 0
-83 -97 12 -57 102 0
-83 -97 12 57 -102 0
-83 -97 -13 -58 -103 0
-83 -97 -13 58 103 0
-83 -97 13 -58 103 0
-83 -97 13 58 -103 0
-83 -97 -14 -59 -104 0
-83 -97 -14 59 104 0
-83 -97 14 -59 104 0
-83 -97 14 59 -104 0
-83 -97 -15 -60 -105 0
-83 -97 -15 60 105 0
-83 -97 15 -60 105 0
-83 -97 15 60 -105 0
-83 -97 -16 -61 -106 0
-83 -97 -16 61 106 0
-83 -97 16 -61 106 0
-83 -97 16 61 -106 0
-83 -97 -17 -62 -107 0
-83 -97 -17 62 107 0
-83 -97 17 -62 107 0
-83 -97 17 62 -107 0
-83 -97 -18 -63 -108 0
-83 -97 -18 63 108 0
-83 -97 18 -63 108 0
-83 -97 18 63 -108 0
-83 -98 -10 -64 -100 0
-83 -98 -10 64 100 0
-83 -98 10 -64 100 0
-83 -98 10 64 -100 0
-83 -98 -11 -65 -101 0
-83 -98 -11 65 101 0
-83 -98 11 -65 101 0
-83 -98 11 65 -101 0
-83 -98 -12 -66 -102 0
-83 -98 -12 66 102 0
-83 -98 12 -66 102 0
-83 -98 12 66 -102 0
-83 -98 -13 -67 -103 0
-83 -98 -13 67 103 0
-83 -98 13 -67 103 0
-83 -98 13 67 -103 0
-83 -98 -14 -68 -104 0
-83 -98 -14 68 104 0
-83 -98 14 -68 104 0
-83 -98 14 68 -104 0
-83 -98 -15 -69 -105 0
-83 -98 -15 69 105 0
-83 -98 15 -69 105 0
-83 -98 15 69 -105 0
-83 -98 -16 -70 -106 0
-83 -98 -16 70 106 0
-83 -98 16 -70 106 0
-83 -98 16 70 -106 0
-83 -98 -17 -71 -107 0
-83 -98 -17 71 107 0
-83 -98 17 -71 107 0
-83 -98 17 71 -107 0
-83 -98 -18 -72 -108 0
-83 -98 -18 72 108 0
-83 -98 18 -72 108 0
-83 -98 18 72 -108 0
-83 -99 -10 -73 -100 0
-83 -99 -10 73 100 0
-83 -99 10 -73 100 0
-83 -99 10 73 -100 0
-83 -99 -11 -74 -101 0
-83 -99 -11 74 101 0
-83 -99 11 -74 101 0
-83 -99 11 74 -101 0
-83 -99 -12 -75 -102 0
-83 -99 -12 75 102 0
-83 -99 12 -75 102 0
-83 -99 12 75 -102 0
-83 -99 -13 -76 -103 0
-83 -99 -13 76 103 0
-83 -99 13 -76 103 0
-83 -99 13 76 -103 0
-83 -99 -14 -77 -104 0
-83 -99 -14 77 104 0
-83 -99 14 -77 104 0
-83 -99 14 77 -104 0
-83 -99 -15 -78 -105 0
-83 -99 -15 78 105 0
-83 -99 15 -78 105 0
-83 -99 15 78 -105 0
-83 -99 -16 -79 -106 0
-83 -99 -16 79 106 0
-83 -99 16 -79 106 0
-83 -99 16 79 -106 0
-83 -99 -17 -80 -107 0
-83 -99 -17 80 107 0
-83 -99 17 -80 107 0
-83 -99 17 80 -107 0
-83 -99 -18 -81 -108 0
-83 -99 -18 81 108 0
-83 -99 18 -81 108 0
-83 -99 18 81 -108 0
-84 -94 -19 -28 -100 0
-84 -94 -19 28 100 0
-84 -94 19 -28 100 0
-84 -94 19 28 -100 0
-84 -94 -20 -29 -101 0
-84 -94 -20 29 101 0
-84 -94 20 -29 101 0
-84 -94 20 29 -101 0
-84 -94 -21 -30 -102 0
-84 -94 -21 30 102 0
-84 -94 21 -30 102 0
-84 -94 21 30 -102 0
-84 -94 -22 -31 -103 0
-84 -94 -22 31 103 0
-84 -94 22 -31 103 0
-84 -94 22 31 -103 0
-84 -94 -23 -32 -104 0
-84 -94 -23 32 104 0
-84 -94 23 -32 104 0
-84 -94 23 32 -104 0
-84 -94 -24 -33 -105 0
-84 -94 -24 33 105 0
-84 -94 24 -33 105 0
-84 -94 24 33 -105 0
-84 -94 -25 -34 -106 0
-84 -94 -25 34 106 0
-84 -94 25 -34 106 0
-84 -94 25 34 -106 0
-84 -94 -26 -35 -107 0
-84 -94 -26 35 107 0
-84 -94 26 -35 107 0
-84 -94 26 35 -107 0
-84 -94 -27 -36 -108 0
-84 -94 -27 36 108 0
-84 -94 27 -36 108 0
-84 -94 27 36 -108 0
-84 -95 -19 -37 -100 0
-84 -95 -19 37 100 0
-84 -95 19 -37 100 0
-84 -95 19 37 -100 0
-84 -95 -20 -38 -101 0
-84 -95 -20 38 101 0
-84 -95 20 -38 101 0
-84 -95 20 38 -101 0
-84 -95 -21 -39 -102 0
-84 -95 -21 39 102 0
-84 -95 21 -39 102 0
-84 -95 21 39 -102 0
-84 -95 -22 -40 -103 0
-84 -95 -22 40 103 0
-84 -95 22 -40 103 0
-84 -95 22 40 -103 0
-84 -95 -23 -41 -104 0
-84 -95 -23 41 104 0
-84 -95 23 -41 104 0
-84 -95 23 41 -104 0
-84 -95 -24 -42 -105 0
-84 -95 -24 42 105 0
-84 -95 24 -42 105 0
-84 -95 24 42 -105 0
-84 -95 -25 -43 -106 0
-84 -95 -25 43 106 0
-84 -95 25 -43 106 0
-84 -95 25 43 -106 0
-84 -95 -26 -44 -107 0
-84 -95 -26 44 107 0
-84 -95 26 -44 107 0
-84 -95 26 44 -107 0
-84 -95 -27 -45 -108 0
-84 -95 -27 45 108 0
-84 -95 27 -45 108 0
-84 -95 27 45 -108 0
-84 -96 -19 -46 -100 0
-84 -96 -19 46 100 0
-84 -96 19 -46 100 0
-84 -96 19 46 -100 0
-84 -96 -20 -47 -101 0
-84 -96 -20 47 101 0
-84 -96 20 -47 101 0
-84 -96 20 47 -101 0
-84 -96 -21 -48 -102 0
-84 -96 -21 48 102 0
-84 -96 21 -48 102 0
-84 -96 21 48 -102 0
-84 -96 -22 -49 -103 0
-84 -96 -22 49 103 0
-84 -96 22 -49 103 0
-84 -96 22 49 -103 0
-84 -96 -23 -50 -104 0
-84 -96 -23 50 104 0
-84 -96 23 -50 104 0
-84 -96 23 50 -104 0
-84 -96 -24 -51 -105 0
-84 -96 -24 51 105 0
-84 -96 24 -51 105 0
-84 -96 24 51 -105 0
-84 -96 -25 -52 -106 0
-84 -96 -25 52 106 0
-84 -96 25 -52 106 0
-84 -96 25 52 -106 0
-84 -96 -26 -53 -107 0
-84 -96 -26 53 107 0
-84 -96 26 -53 107 0
-84 -96 26 53 -107 0
-84 -96 -27 -54 -108 0
-84 -96 -27 54 108 0
-84 -96 27 -54 108 0
-84 -96 27 54 -108 0
-84 -97 -19 -55 -100 0
-84 -97 -19 55 100 0
-84 -97 19 -55 100 0
-84 -97 19 55 -100 0
-84 -97 -20 -56 -101 0
-84 -97 -20 56 101 0
-84 -97 20 -56 101 0
-84 -97 20 56 -101 0
-84 -97 -21 -57 -102 0
-84 -97 -21 57 102 0
-84 -97 21 -57 102 0
-84 -97 21 57 -102 0
-84 -97 -22 -58 -103 0
-84 -97 -22 58 103 0
-84 -97 22 -58 103 0
-84 -97 22 58 -103 0
-84 -97 -23 -59 -104 0
-84 -97 -23 59 104 0
-84 -97 23 -59 104 0
-84 -97 23 59 -104 0
-84 -97 -24 -60 -105 0
-84 -97 -24 60 105 0
-84 -97 24 -60 105 0
-84 -97 24 60 -105 0
-84 -97 -25 -61 -106 0
-84 -97 -25 61 106 0
-84 -97 25 -61 106 0
-84 -97 25 61 -106 0
-84 -97 -26 -62 -107 0
-84 -97 -26 62 107 0
-84 -97 26 -62 107 0
-84 -97 26 62 -107 0
-84 -97 -27 -63 -108 0
-84 -97 -27 63 108 0
-84 -97 27 -63 108 0
-84 -97 27 63 -108 0
-84 -98 -19 -64 -100 0
-84 -98 -19 64 100 0
-84 -98 19 -64 100 0
-84 -98 19 64 -100 0
-84 -98 -20 -65 -101 0
-84 -98 -20 65 101 0
-84 -98 20 -65 101 0
-84 -98 20 65 -101 0
-84 -98 -21 -66 -102 0
-84 -98 -21 66 102 0
-84 -98 21 -66 102 0
-84 -98 21 66 -102 0
-84 -98 -22 -67 -103 0
-84 -98 -22 67 103 0
-84 -98 22 -67 103 0
-84 -98 22 67 -103 0
-84 -98 -23 -68 -104 0
-84 -98 -23 68 104 0
-84 -98 23 -68 104 0
-84 -98 23 68 -104 0
-84 -98 -24 -69 -105 0
-84 -98 -24 69 105 0
-84 -98 24 -69 105 0
-84 -98 24 69 -105 0
-84 -98 -25 -70 -106 0
-84 -98 -25 70 106 0
-84 -98 25 -70 106 0
-84 -98 25 70 -106 0
-84 -98 -26 -71 -107 0
-84 -98 -26 71 107 0
-84 -98 26 -71 107 0
-84 -98 26 71 -107 0
-84 -98 -27 -72 -108 0
-84 -98 -27 72 108 0
-84 -98 27 -72 108 0
-84 -98 27 72 -108 0
-84 -99 -19 -73 -100 0
-84 -99 -19 73 100 0
-84 -99 19 -73 100 0
-84 -99 19 73 -100 0
-84 -99 -20 -74 -101 0
-84 -99 -20 74 101 0
-84 -99 20 -74 101 0
-84 -99 20 74 -101 0
-84 -99 -21 -75 -102 0
-84 -99 -21 75 102 0
-84 -99 21 -75 102 0
-84 -99 21 75 -102 0
-84 -99 -22 -76 -103 0
-84 -99 -22 76 103 0
-84 -99 22 -76 103 0
-84 -99 22 76 -103 0
-84 -99 -23 -77 -104 0
-84 -99 -23 77 104 0
-84 -99 23 -77 104 0
-84 -99 23 77 -104 0
-84 -99 -24 -78 -105 0
-84 -99 -24 78 105 0
-84 -99 24 -78 105 0
-84 -99 24 78 -105 0
-84 -99 -25 -79 -106 0
-84 -99 -25 79 106 0
-84 -99 25 -79 106 0
-84 -99 25 79 -106 0
-84 -99 -26 -80 -107 0
-84 -99 -26 80 107 0
-84 -99 26 -80 107 0
-84 -99 26 80 -107 0
-84 -99 -27 -81 -108 0
-84 -99 -27 81 108 0
-84 -99 27 -81 108 0
-84 -99 27 81 -108 0
-85 -95 -28 -37 -100 0
-85 -95 -28 37 100 0
-85 -95 28 -37 100 0
-85 -95 28 37 -100 0
-85 -95 -29 -38 -101 0
-85 -95 -29 38 101 0
-85 -95 29 -38 101 0
-85 -95 29 38 -101 0
-85 -95 -30 -39 -102 0
-85 -95 -30 39 102 0
-85 -95 30 -39 102 0
-85 -95 30 39 -102 0
-85 -95 -31 -40 -103 0
-85 -95 -31 40 103 0
-85 -95 31 -40 103 0
-85 -95 31 40 -103 0
-85 -95 -32 -41 -104 0
-85 -95 -32 41 104 0
-85 -95 32 -41 104 0
-85 -95 32 41 -104 0
-85 -95 -33 -42 -105 0
-85 -95 -33 42 105 0
-85 -95 33 -42 105 0
-85 -95 33 42 -105 0
-85 -95 -34 -43 -106 0
-85 -95 -34 43 106 0
-85 -95 34 -43 106 0
-85 -95 34 43 -106 0
-85 -95 -35 -44 -107 0
-85 -95 -35 44 107 0
-85 -95 35 -44 107 0
-85 -95 35 44 -107 0
-85 -95 -36 -45 -108 0
-85 -95 -36 45 108 0
-85 -95 36 -45 108 0
-85 -95 36 45 -108 0
-85 -96 -28 -46 -100 0
-85 -96 -28 46 100 0
-85 -96 28 -46 100 0
-85 -96 28 46 -100 0
-85 -96 -29 -47 -101 0
-85 -96 -29 47 101 0
-85 -96 29 -47 101 0
-85 -96 29 47 -101 0
-85 -96 -30 -48 -102 0
-85 -96 -30 48 102 0
-85 -96 30 -48 102 0
-85 -96 30 48 -102 0
-85 -96 -31 -49 -103 0
-85 -96 -31 49 103 0
-85 -96 31 -49 103 0
-85 -96 31 49 -103 0
-85 -96 -32 -50 -104 0
-85 -96 -32 50 104 0
-85 -96 32 -50 104 0
-85 -96 32 50 -104 0
-85 -96 -33 -51 -105 0
-85 -96 -33 51 105 0
-85 -96 33 -51 105 0
-85 -96 33 51 -105 0
-85 -96 -34 -52 -106 0
-85 -96 -34 52 106 0
-85 -96 34 -52 106 0
-85 -96 34 52 -106 0
-85 -96 -35 -53 -107 0
-85 -96 -35 53 107 0
-85 -96 35 -53 107 0
-85 -96 35 53 -107 0
-85 -96 -36 -54 -108 0
-85 -96 -36 54 108 0
-85 -96 36 -54 108 0
-85 -96 36 54 -108 0
-85 -97 -28 -55 -100 0
-85 -97 -28 55 100 0
-85 -97 28 -55 100 0
-85 -97 28 55 -100 0
-85 -97 -29 -56 -101 0
-85 -97 -29 56 101 0
-85 -97 29 -56 101 0
-85 -97 29 56 -101 0
-85 -97 -30 -57 -102 0
-85 -97 -30 57 102 0
-85 -97 30 -57 102 0
-85 -97 30 57 -102 0
-85 -97 -31 -58 -103 0
-85 -97 -31 58 103 0
-85 -97 31 -58 103 0
-85 -97 31 58 -103 0
-85 -97 -32 -59 -104 0
-85 -97 -32 59 104 0
-85 -97 32 -59 104 0
-85 -97 32 59 -104 0
-85 -97 -33 -60 -105 0
-85 -97 -33 60 105 0
-85 -97 33 -60 105 0
-85 -97 33 60 -105 0
-85 -97 -34 -61 -106 0
-85 -97 -34 61 106 0
-85 -97 34 -61 106 0
-85 -97 34 61 -106 0
-85 -97 -35 -62 -107 0
-85 -97 -35 62 107 0
-85 -97 35 -62 107 0
-85 -97 35 62 -107 0
-85 -97 -36 -63 -108 0
-85 -97 -36 63 108 0
-85 -97 36 -63 108 0
-85 -97 36 63 -108 0
-85 -98 -28 -64 -100 0
-85 -98 -28 64 100 0
-85 -98 28 -64 100 0
-85 -98 28 64 -100 0
-85 -98 -29 -65 -101 0
-85 -98 -29 65 101 0
-85 -98 29 -65 101 0
-85 -98 29 65 -101 0
-85 -98 -30 -66 -102 0
-85 -98 -30 66 102 0
-85 -98 30 -66 102 0
-85 -98 30 66 -102 0
-85 -98 -31 -67 -103 0
-85 -98 -31 67 103 0
-85 -98 31 -67 103 0
-85 -98 31 67 -103 0
-85 -98 -32 -68 -104 0
-85 -98 -32 68 104 0
-85 -98 32 -68 104 0
-85 -98 32 68 -104 0
-85 -98 -33 -69 -105 0
-85 -98 -33 69 105 0
-85 -98 33 -69 105 0
-85 -98 33 69 -105 0
-85 -98 -34 -70 -106 0
-85 -98 -34 70 106 0
-85 -98 34 -70 106 0
-85 -98 34 70 -106 0
-85 -98 -35 -71 -107 0
-85 -98 -35 71 107 0
-85 -98 35 -71 107 0
-85 -98 35 71 -107 0
-85 -98 -36 -72 -108 0
-85 -98 -36 72 108 0
-85 -98 36 -72 108 0
-85 -98 36 72 -108 0
-85 -99 -28 -73 -100 0
-85 -99 -28 73 100 0
-85 -99 28 -73 100 0
-85 -99 28 73 -100 0
-85 -99 -29 -74 -101 0
-85 -99 -29 74 101 0
-85 -99 29 -74 101 0
-85 -99 29 74 -101 0
-85 -99 -30 -75 -102 0
-85 -99 -30 75 102 0
-85 -99 30 -75 102 0
-85 -99 30 75 -102 0
-85 -99 -31 -76 -103 0
-85 -99 -31 76 103 0
-85 -99 31 -76 103 0
-85 -99 31 76 -103 0
-85 -99 -32 -77 -104 0
-85 -99 -32 77 104 0
-85 -99 32 -77 104 0
-85 -99 32 77 -104 0
-85 -99 -33 -78 -105 0
-85 -99 -33 78 105 0
-85 -99 33 -78 105 0
-85 -99 33 78 -105 0
-85 -99 -34 -79 -106 0
-85 -99 -34 79 106 0
-85 -99 34 -79 106 0
-85 -99 34 79 -106 0
-85 -99 -35 -80 -107 0
-85 -99 -35 80 107 0
-85 -99 35 -80 107 0
-85 -99 35 80 -107 0
-85 -99 -36 -81 -108 0
-85 -99 -36 81 108 0
-85 -99 36 -81 108 0
-85 -99 36 81 -108 0
-86 -96 -37 -46 -100 0
-86 -96 -37 46 100 0
-86 -96 37 -46 100 0
-86 -96 37 46 -100 0
-86 -96 -38 -47 -101 0
-86 -96 -38 47 101 0
-86 -96 38 -47 101 0
-86 -96 38 47 -101 0
-86 -96 -39 -48 -102 0
-86 -96 -39 48 102 0
-86 -96 39 -48 102 0
-86 -96 39 48 -102 0
-86 -96 -40 -49 -103 0
-86 -96 -40 49 103 0
-86 -96 40 -49 103 0
-86 -96 40 49 -103 0
-86 -96 -41 -50 -104 0
-86 -96 -41 50 104 0
-86 -96 41 -50 104 0
-86 -96 41 50 -104 0
-86 -96 -42 -51 -105 0
-86 -96 -42 51 105 0
-86 -96 42 -51 105 0
-86 -96 42 51 -105 0
-86 -96 -43 -52 -106 0
-86 -96 -43 52 106 0
-86 -96 43 -52 106 0
-86 -96 43 52 -106 0
-86 -96 -44 -53 -107 0
-86 -96 -44 53 107 0
-86 -96 44 -53 107 0
-86 -96 44 53 -107 0
-86 -96 -45 -54 -108 0
-86 -96 -45 54 108 0
-86 -96 45 -54 108 0
-86 -96 45 54 -108 0
-86 -97 -37 -55 -100 0
-86 -97 -37 55 100 0
-86 -97 37 -55 100 0
-86 -97 37 55 -100 0
-86 -97 -38 -56 -101 0
-86 -97 -38 56 101 0
-86 -97 38 -56 101 0
-86 -97 38 56 -101 0
-86 -97 -39 -57 -102 0
-86 -97 -39 57 102 0
-86 -97 39 -57 102 0
-86 -97 39 57 -102 0
-86 -97 -40 -58 -103 0
-86 -97 -40 58 103 0
-86 -97 40 -58 103 0
-86 -97 40 58 -103 0
-86 -97 -41 -59 -104 0
-86 -97 -41 59 104 0
-86 -97 41 -59 104 0
-86 -97 41 59 -104 0
-86 -97 -42 -60 -105 0
-86 -97 -42 60 105 0
-86 -97 42 -60 105 0
-86 -97 42 60 -105 0
-86 -97 -43 -61 -106 0
-86 -97 -43 61 106 0
-86 -97 43 -61 106 0
-86 -97 43 61 -106 0
-86 -97 -44 -62 -107 0
-86 -97 -44 62 107 0
-86 -97 44 -62 107 0
-86 -97 44 62 -107 0
-86 -97 -45 -63 -108 0
-86 -97 -45 63 108 0
-86 -97 45 -63 108 0
-86 -97 45 63 -108 0
-86 -98 -37 -64 -100 0
-86 -98 -37 64 100 0
-86 -98 37 -64 100 0
-86 -98 37 64 -100 0
-86 -98 -38 -65 -101 0
-86 -98 -38 65 101 0
-86 -98 38 -65 101 0
-86 -98 38 65 -101 0
-86 -98 -39 -66 -102 0
-86 -98 -39 66 102 0
-86 -98 39 -66 102 0
-86 -98 39 66 -102 0
-86 -98 -40 -67 -103 0
-86 -98 -40 67 103 0
-86 -98 40 -67 103 0
-86 -98 40 67 -103 0
-86 -98 -41 -68 -104 0
-86 -98 -41 68 104 0
-86 -98 41 -68 104 0
-86 -98 41 68 -104 0
-86 -98 -42 -69 -105 0
-86 -98 -42 69 105 0
-86 -98 42 -69 105 0
-86 -98 42 69 -105 0
-86 -98 -43 -70 -106 0
-86 -98 -43 70 106 0
-86 -98 43 -70 106 0
-86 -98 43 70 -106 0
-86 -98 -44 -71 -107 0
-86 -98 -44 71 107 0
-86 -98 44 -71 107 0
-86 -98 44 71 -107 0
-86 -98 -45 -72 -108 0
-86 -98 -45 72 108 0
-86 -98 45 -72 108 0
-86 -98 45 72 -108 0
-86 -99 -37 -73 -100 0
-86 -99 -37 73 100 0
-86 -99 37 -73 100 0
-86 -99 37 73 -100 0
-86 -99 -38 -74 -101 0
-86 -99 -38 74 101 0
-86 -99 38 -74 101 0
-86 -99 38 74 -101 0
-86 -99 -39 -75 -102 0
-86 -99 -39 75 102 0
-86 -99 39 -75 102 0
-86 -99 39 75 -102 0
-86 -99 -40 -76 -103 0
-86 -99 -40 76 103 0
-86 -99 40 -76 103 0
-86 -99 40 76 -103 0
-86 -99 -41 -77 -104 0
-86 -99 -41 77 104 0
-86 -99 41 -77 104 0
-86 -99 41 77 -104 0
-86 -99 -42 -78 -105 0
-86 -99 -42 78 105 0
-86 -99 42 -78 105 0
-86 -99 42 78 -105 0
-86 -99 -43 -79 -106 0
-86 -99 -43 79 106 0
-86 -99 43 -79 106 0
-86 -99 43 79 -106 0
-86 -99 -44 -80 -107 0
-86 -99 -44 80 107 0
-86 -99 44 -80 107 0
-86 -99 44 80 -107 0
-86 -99 -45 -81 -108 0
-86 -99 -45 81 108 0
-86 -99 45 -81 108 0
-86 -99 45 81 -108 0
-87 -97 -46 -55 -100 0
-87 -97 -46 55 100 0
-87 -97 46 -55 100 0
-87 -97 46 55 -100 0
-87 -97 -47 -56 -101 0
-87 -97 -47 56 101 0
-87 -97 47 -56 101 0
-87 -97 47 56 -101 0
-87 -97 -48 -57 -102 0
-87 -97 -48 57 102 0
-87 -97 48 -57 102 0
-87 -97 48 57 -102 0
-87 -97 -49 -58 -103 0
-87 -97 -49 58 103 0
-87 -97 49 -58 103 0
-87 -97 49 58 -103 0
-87 -97 -50 -59 -104 0
-87 -97 -50 59 104 0
-87 -97 50 -59 104 0
-87 -97 50 59 -104 0
-87 -97 -51 -60 -105 0
-87 -97 -51 60 105 0
-87 -97 51 -60 105 0
-87 -97 51 60 -105 0
-87 -97 -52 -61 -106 0
-87 -97 -52 61 106 0
-87 -97 52 -61 106 0
-87 -97 52 61 -106 0
-87 -97 -53 -62 -107 0
-87 -97 -53 62 107 0
-87 -97 53 -62 107 0
-87 -97 53 62 -107 0
-87 -97 -54 -63 -108 0
-87 -97 -54 63 108 0
-87 -97 54 -63 108 0
-87 -97 54 63 -108 0
-87 -98 -46 -64 -100 0
-87 -98 -46 64 100 0
-87 -98 46 -64 100 0
-87 -98 46 64 -100 0
-87 -98 -47 -65 -101 0
-87 -98 -47 65 101 0
-87 -98 47 -65 101 0
-87 -98 47 65 -101 0
-87 -98 -48 -66 -102 0
-87 -98 -48 66 102 0
-87 -98 48 -66 102 0
-87 -98 48 66 -102 0
-87 -98 -49 -67 -103 0
-87 -98 -49 67 103 0
-87 -98 49 -67 103 0
-87 -98 49 67 -103 0
-87 -98 -50 -68 -104 0
-87 -98 -50 68 104 0
-87 -98 50 -68 104 0
-87 -98 50 68 -104 0
-87 -98 -51 -69 -105 0
-87 -98 -51 69 105 0
-87 -98 51 -69 105 0
-87 -98 51 69 -105 0
-87 -98 -52 -70 -106 0
-87 -98 -52 70 106 0
-87 -98 52 -70 106 0
-87 -98 52 70 -106 0
-87 -98 -53 -71 -107 0
-87 -98 -53 71 107 0
-87 -98 53 -71 107 0
-87 -98 53 71 -107 0
-87 -98 -54 -72 -108 0
-87 -98 -54 72 108 0
-87 -98 54 -72 108 0
-87 -98 54 72 -108 0
-87 -99 -46 -73 -100 0
-87 -99 -46 73 100 0
-87 -99 46 -73 100 0
-87 -99 46 73 -100 0
-87 -99 -47 -74 -101 0
-87 -99 -47 74 101 0
-87 -99 47 -74 101 0
-87 -99 47 74 -101 0
-87 -99 -48 -75 -102 0
-87 -99 -48 75 102 0
-87 -99 48 -75 102 0
-87 -99 48 75 -102 0
-87 -99 -49 -76 -103 0
-87 -99 -49 76 103 0
-87 -99 49 -76 103 0
-87 -99 49 76 -103 0
-87 -99 -50 -77 -104 0
-87 -99 -50 77 104 0
-87 -99 50 -77 104 0
-87 -99 50 77 -104 0
-87 -99 -51 -78 -105 0
-87 -99 -51 78 105 0
-87 -99 51 -78 105 0
-87 -99 51 78 -105 0
-87 -99 -52 -79 -106 0
-87 -99 -52 79 106 0
-87 -99 52 -79 106 0
-87 -99 52 79 -106 0
-87 -99 -53 -80 -107 0
-87 -99 -53 80 107 0
-87 -99 53 -80 107 0
-87 -99 53 80 -107 0
-87 -99 -54 -81 -108 0
-87 -99 -54 81 108 0
-87 -99 54 -81 108 0
-87 -99 54 81 -108 0
-88 -98 -55 -64 -100 0
-88 -98 -55 64 100 0
-88 -98 55 -64 100 0
-88 -98 55 64 -100 0
-88 -98 -56 -65 -101 0
-88 -98 -56 65 101 0
-88 -98 56 -65 101 0
-88 -98 56 65 -101 0
-88 -98 -57 -66 -102 0
-88 -98 -57 66 102 0
-88 -98 57 -66 102 0
-88 -98 57 66 -102 0
-88 -98 -58 -67 -103 0
-88 -98 -58 67 103 0
-88 -98 58 -67 103 0
-88 -98 58 67 -103 0
-88 -98 -59 -68 -104 0
-88 -98 -59 68 104 0
-88 -98 59 -68 104 0
-88 -98 59 68 -104 0
-88 -98 -60 -69 -105 0
-88 -98 -60 69 105 0
-88 -98 60 -69 105 0
-88 -98 60 69 -105 0
-88 -98 -61 -70 -106 0
-88 -98 -61 70 106 0
-88 -98 61 -70 106 0
-88 -98 61 70 -106 0
-88 -98 -62 -71 -107 0
-88 -98 -62 71 107 0
-88 -98 62 -71 107 0
-88 -98 62 71 -107 0
-88 -98 -63 -72 -108 0
-88 -98 -63 72 108 0
-88 -98 63 -72 108 0
-88 -98 63 72 -108 0
-88 -99 -55 -73 -100 0
-88 -99 -55 73 100 0
-88 -99 55 -73 100 0
-88 -99 55 73 -100 0
-88 -99 -56 -74 -101 0
-88 -99 -56 74 101 0
-88 -99 56 -74 101 0
-88 -99 56 74 -101 0
-88 -99 -57 -75 -102 0
-88 -99 -57 75 102 0
-88 -99 57 -75 102 0
-88 -99 57 75 -102 0
-88 -99 -58 -76 -103 0
-88 -99 -58 76 103 0
-88 -99 58 -76 103 0
-88 -99 58 76 -103 0
-88 -99 -59 -77 -104 0
-88 -99 -59 77 104 0
-88 -99 59 -77 104 0
-88 -99 59 77 -104 0
-88 -99 -60 -78 -105 0
-88 -99 -60 78 105 0
-88 -99 60 -78 105 0
-88 -99 60 78 -105 0
-88 -99 -61 -79 -106 0
-88 -99 -61 79 106 0
-88 -99 61 -79 106 0
-88 -99 61 79 -106 0
-88 -99 -62 -80 -107 0
-88 -99 -62 80 107 0
-88 -99 62 -80 107 0
-88 -99 62 80 -107 0
-88 -99 -63 -81 -108 0
-88 -99 -63 81 108 0
-88 -99 63 -81 108 0
-88 -99 63 81 -108 0
-89 -99 -64 -73 -100 0
-89 -99 -64 73 100 0
-89 -99 64 -73 100 0
-89 -99 64 73 -100 0
-89 -99 -65 -74 -101 0
-89 -99 -65 74 101 0
-89 -99 65 -74 101 0
-89 -99 65 74 -101 0
-89 -99 -66 -75 -102 0
-89 -99 -66 75 102 0
-89 -99 66 -75 102 0
-89 -99 66 75 -102 0
-89 -99 -67 -76 -103 0
-89 -99 -67 76 103 0
-89 -99 67 -76 103 0
-89 -99 67 76 -103 0
-89 -99 -68 -77 -104 0
-89 -99 -68 77 104 0
-89 -99 68 -77 104 0
-89 -99 68 77 -104 0
-89 -99 -69 -78 -105 0
-89 -99 -69 78 105 0
-89 -99 69 -78 105 0
-89 -99 69 78 -105 0
-89 -99 -70 -79 -106 0
-89 -99 -70 79 106 0
-89 -99 70 -79 106 0
-89 -99 70 79 -106 0
-89 -99 -71 -80 -107 0
-89 -99 -71 80 107 0
-89 -99 71 -80 107 0
-89 -99 71 80 -107 0
-89 -99 -72 -81 -108 0
-89 -99 -72 81 108 0
-89 -99 72 -81 108 0
-89 -99 72 81 -108 0
100 101 102 103 104 105 106 107 108 0
109 110 111 112 113 114 115 116 117 118 0
-109 -110 0
-109 -111 0
-109 -112 0
-109 -113 0
-109 -114 0
-109 -115 0
-109 -116 0
-109 -117 0
-109 -118 0
-110 -111 0
-110 -112 0
-110 -113 0
-110 -114 0
-110 -115 0
-110 -116 0
-110 -117 0
-110 -118 0
-111 -112 0
-111 -113 0
-111 -114 0
-111 -115 0
-111 -116 0
-111 -117 0
-111 -118 0
-112 -113 0
-112 -114 0
-112 -115 0
-112 -116 0
-112 -117 0
-112 -118 0
-113 -114 0
-113 -115 0
-113 -116 0
-113 -117 0
-113 -118 0
-114 -115 0
-114 -116 0
-114 -117 0
-114 -118 0
-115 -116 0
-115 -117 0
-115 -118 0
-116 -117 0
-116 -118 0
-117 -118 0
119 120 121 122 123 124 125 126 127 128 0
-119 -120 0
-119 -121 0
-119 -122 0
-119 -123 0
-119 -124 0
-119 -125 0
-119 -126 0
-119 -127 0
-119 -128 0
-120 -121 0
-120 -122 0
-120 -123 0
-120 -124 0
-120 -125 0
-120 -126 0
-120 -127 0
-120 -128 0
-121 -122 0
-121 -123 0
-121 -124 0
-121 -125 0
-121 -126 0
-121 -127 0
-121 -128 0
-122 -123 0
-122 -124 0
-122 -125 0
-122 -126 0
-122 -127 0
-122 -128 0
-123 -124 0
-123 -125 0
-123 -126 0
-123 -127 0
-123 -128 0
-124 -125 0
-124 -126 0
-124 -127 0
-124 -128 0
-125 -126 0
-125 -127 0
-125 -128 0
-126 -127 0
-126 -128 0
-127 -128 0
-109 -119 0
-110 -119 0
-110 -120 0
-111 -119 0
-111 -120 0
-111 -121 0
-112 -119 0
-112 -120 0
-112 -121 0
-112 -122 0
-113 -119 0
-113 -120 0
-113 -121 0
-113 -122 0
-113 -123 0
-114 -119 0
-114 -120 0
-114 -121 0
-114 -122 0
-114 -123 0
-114 -124 0
-115 -119 0
-115 -120 0
-115 -121 0
-115 -122 0
-115 -123 0
-115 -124 0
-115 -125 0
-116 -119 0
-116 -120 0
-116 -121 0
-116 -122 0
-116 -123 0
-116 -124 0
-116 -125 0
-116 -126 0
-117 -119 0
-117 -120 0
-117 -121 0
-117 -122 0
-117 -123 0
-117 -124 0
-117 -125 0
-117 -126 0
-117 -127 0
-118 -119 0
-118 -120 0
-118 -121 0
-118 -122 0
-118 -123 0
-118 -124 0
-118 -125 0
-118 -126 0
-118 -127 0
-118 -128 0
-109 -120 -1 -10 -129 0
-109 -120 -1 10 129 0
-109 -120 1 -10 129 0
-109 -120 1 10 -129 0
-109 -120 -2 -11 -130 0
-109 -120 -2 11 130 0
-109 -120 2 -11 130 0
-109 -120 2 11 -130 0
-109 -120 -3 -12 -131 0
-109 -120 -3 12 131 0
-109 -120 3 -12 131 0
-109 -120 3 12 -131 0
-109 -120 -4 -13 -132 0
-109 -120 -4 13 132 0
-109 -120 4 -13 132 0
-109 -120 4 13 -132 0
-109 -120 -5 -14 -133 0
-109 -120 -5 14 133 0
-109 -120 5 -14 133 0
-109 -120 5 14 -133 0
-109 -120 -6 -15 -134 0
-109 -120 -6 15 134 0
-109 -120 6 -15 134 0
-109 -120 6 15 -134 0
-109 -120 -7 -16 -135 0
-109 -120 -7 16 135 0
-109 -120 7 -16 135 0
-109 -120 7 16 -135 0
-109 -120 -8 -17 -136 0
-109 -120 -8 17 136 0
-109 -120 8 -17 136 0
-109 -120 8 17 -136 0
-109 -120 -9 -18 -137 0
-109 -120 -9 18 137 0
-109 -120 9 -18 137 0
-109 -120 9 18 -137 0
-109 -121 -1 -19 -129 0
-109 -121 -1 19 129 0
-109 -121 1 -19 129 0
-109 -121 1 19 -129 0
-109 -121 -2 -20 -130 0
-109 -121 -2 20 130 0
-109 -121 2 -20 130 0
-109 -121 2 20 -130 0
-109 -121 -3 -21 -131 0
-109 -121 -3 21 131 0
-109 -121 3 -21 131 0
-109 -121 3 21 -131 0
-109 -121 -4 -22 -132 0
-109 -121 -4 22 132 0
-109 -121 4 -22 132 0
-109 -121 4 22 -132 0
-109 -121 -5 -23 -133 0
-109 -121 -5 23 133 0
-109 -121 5 -23 133 0
-109 -121 5 23 -133 0
-109 -121 -6 -24 -134 0
-109 -121 -6 24 134 0
-109 -121 6 -24 134 0
-109 -121 6 24 -134 0
-109 -121 -7 -25 -135 0
-109 -121 -7 25 135 0
-109 -121 7 -25 135 0
-109 -121 7 25 -135 0
-109 -121 -8 -26 -136 0
-109 -121 -8 26 136 0
-109 -121 8 -26 136 0
-109 -121 8 26 -136 0
-109 -121 -9 -27 -137 0
-109 -121 -9 27 137 0
-109 -121 9 -27 137 0
-109 -121 9 27 -137 0
-109 -122 -1 -28 -129 0
-109 -122 -1 28 129 0
-109 -122 1 -28 129 0
-109 -122 1 28 -129 0
-109 -122 -2 -29 -130 0
-109 -122 -2 29 130 0
-109 -122 2 -29 130 0
-109 -122 2 29 -130 0
-109 -122 -3 -30 -131 0
-109 -122 -3 30 131 0
-109 -122 3 -30 131 0
-109 -122 3 30 -131 0
-109 -122 -4 -31 -132 0
-109 -122 -4 31 132 0
-109 -122 4 -31 132 0
-109 -122 4 31 -132 0
-109 -122 -5 -32 -133 0
-109 -122 -5 32 133 0
-109 -122 5 -32 133 0
-109 -122 5 32 -133 0
-109 -122 -6 -33 -134 0
-109 -122 -6 33 134 0
-109 -122 6 -33 134 0
-109 -122 6 33 -134 0
-109 -122 -7 -34 -135 0
-109 -122 -7 34 135 0
-109 -122 7 -34 135 0
-109 -122 7 34 -135 0
-109 -122 -8 -35 -136 0
-109 -122 -8 35 136 0
-109 -122 8 -35 136 0
-109 -122 8 35 -136 0
-109 -122 -9 -36 -137 0
-109 -122 -9 36 137 0
-109 -122 9 -36 137 0
-109 -122 9 36 -137 0
-109 -123 -1 -37 -129 0
-109 -123 -1 37 129 0
-109 -123 1 -37 129 0
-109 -123 1 37 -129 0
-109 -123 -2 -38 -130 0
-109 -123 -2 38 130 0
-109 -123 2 -38 130 0
-109 -123 2 38 -130 0
-109 -123 -3 -39 -131 0
-109 -123 -3 39 131 0
-109 -123 3 -39 131 0
-109 -123 3 39 -131 0
-109 -123 -4 -40 -132 0
-109 -123 -4 40 132 0
-109 -123 4 -40 132 0
-109 -123 4 40 -132 0
-109 -123 -5 -41 -133 0
-109 -123 -5 41 133 0
-109 -123 5 -41 133 0
-109 -123 5 41 -133 0
-109 -123 -6 -42 -134 0
-109 -123 -6 42 134 0
-109 -123 6 -42 134 0
-109 -123 6 42 -134 0
-109 -123 -7 -43 -135 0
-109 -123 -7 43 135 0
-109 -123 7 -43 135 0
-109 -123 7 43 -135 0
-109 -123 -8 -44 -136 0
-109 -123 -8 44 136 0
-109 -123 8 -44 136 0
-109 -123 8 44 -136 0
-109 -123 -9 -45 -137 0
-109 -123 -9 45 137 0
-109 -123 9 -45 137 0
-109 -123 9 45 -137 0
-109 -124 -1 -46 -129 0
-109 -124 -1 46 129 0
-109 -124 1 -46 129 0
-109 -124 1 46 -129 0
-109 -124 -2 -47 -130 0
-109 -124 -2 47 130 0
-109 -124 2 -47 130 0
-109 -124 2 47 -130 0
-109 -124 -3 -48 -131 0
-109 -124 -3 48 131 0
-109 -124 3 -48 131 0
-109 -124 3 48 -131 0
-109 -124 -4 -49 -132 0
-109 -124 -4 49 132 0
-109 -124 4 -49 132 0
-109 -124 4 49 -132 0
-109 -124 -5 -50 -133 0
-109 -124 -5 50 133 0
-109 -124 5 -50 133 0
-109 -124 5 50 -133 0
-109 -124 -6 -51 -134 0
-109 -124 -6 51 134 0
-109 -124 6 -51 134 0
-109 -124 6 51 -134 0
-109 -124 -7 -52 -135 0
-109 -124 -7 52 135 0
-109 -124 7 -52 135 0
-109 -124 7 52 -135 0
-109 -124 -8 -53 -136 0
-109 -124 -8 53 136 0
-109 -124 8 -53 136 0
-109 -124 8 53 -136 0
-109 -124 -9 -54 -137 0
-109 -124 -9 54 137 0
-109 -124 9 -54 137 0
-109 -124 9 54 -137 0
-109 -125 -1 -55 -129 0
-109 -125 -1 55 129 0
-109 -125 1 -55 129 0
-109 -125 1 55 -129 0
-109 -125 -2 -56 -130 0
-109 -125 -2 56 130 0
-109 -125 2 -56 130 0
-109 -125 2 56 -130 0
-109 -125 -3 -57 -131 0
-109 -125 -3 57 131 0
-109 -125 3 -57 131 0
-109 -125 3 57 -131 0
-109 -125 -4 -58 -132 0
-109 -125 -4 58 132 0
-109 -125 4 -58 132 0
-109 -125 4 58 -132 0
-109 -125 -5 -59 -133 0
-109 -125 -5 59 133 0
-109 -125 5 -59 133 0
-109 -125 5 59 -133 0
-109 -125 -6 -60 -134 0
-109 -125 -6 60 134 0
-109 -125 6 -60 134 0
-109 -125 6 60 -134 0
-109 -125 -7 -61 -135 0
-109 -125 -7 61 135 0
-109 -125 7 -61 135 0
-109 -125 7 61 -135 0
-109 -125 -8 -62 -136 0
-109 -125 -8 62 136 0
-109 -125 8 -62 136 0
-109 -125 8 62 -136 0
-109 -125 -9 -63 -137 0
-109 -125 -9 63 137 0
-109 -125 9 -63 137 0
-109 -125 9 63 -137 0
-109 -126 -1 -64 -129 0
-109 -126 -1 64 129 0
-109 -126 1 -64 129 0
-109 -126 1 64 -129 0
-109 -126 -2 -65 -130 0
-109 -126 -2 65 130 0
-109 -126 2 -65 130 0
-109 -126 2 65 -130 0
-109 -126 -3 -66 -131 0
-109 -126 -3 66 131 0
-109 -126 3 -66 131 0
-109 -126 3 66 -131 0
-109 -126 -4 -67 -132 0
-109 -126 -4 67 132 0
-109 -126 4 -67 132 0
-109 -126 4 67 -132 0
-109 -126 -5 -68 -133 0
-109 -126 -5 68 133 0
-109 -126 5 -68 133 0
-109 -126 5 68 -133 0
-109 -126 -6 -69 -134 0
-109 -126 -6 69 134 0
-109 -126 6 -69 134 0
-109 -126 6 69 -134 0
-109 -126 -7 -70 -135 0
-109 -126 -7 70 135 0
-109 -126 7 -70 135 0
-109 -126 7 70 -135 0
-109 -126 -8 -71 -136 0
-109 -126 -8 71 136 0
-109 -126 8 -71 136 0
-109 -126 8 71 -136 0
-109 -126 -9 -72 -137 0
-109 -126 -9 72 137 0
-109 -126 9 -72 137 0
-109 -126 9 72 -137 0
-109 -127 -1 -73 -129 0
-109 -127 -1 73 129 0
-109 -127 1 -73 129 0
-109 -127 1 73 -129 0
-109 -127 -2 -74 -130 0
-109 -127 -2 74 130 0
-109 -127 2 -74 130 0
-109 -127 2 74 -130 0
-109 -127 -3 -75 -131 0
-109 -127 -3 75 131 0
-109 -127 3 -75 131 0
-109 -127 3 75 -131 0
-109 -127 -4 -76 -132 0
-109 -127 -4 76 132 0
-109 -127 4 -76 132 0
-109 -127 4 76 -132 0
-109 -127 -5 -77 -133 0
-109 -127 -5 77 133 0
-109 -127 5 -77 133 0
-109 -127 5 77 -133 0
-109 -127 -6 -78 -134 0
-109 -127 -6 78 134 0
-109 -127 6 -78 134 0
-109 -127 6 78 -134 0
-109 -127 -7 -79 -135 0
-109 -127 -7 79 135 0
-109 -127 7 -79 135 0
-109 -127 7 79 -135 0
-109 -127 -8 -80 -136 0
-109 -127 -8 80 136 0
-109 -127 8 -80 136 0
-109 -127 8 80 -136 0
-109 -127 -9 -81 -137 0
-109 -127 -9 81 137 0
-109 -127 9 -81 137 0
-109 -127 9 81 -137 0
-109 -128 -1 -100 -129 0
-109 -128 -1 100 129 0
-109 -128 1 -100 129 0
-109 -128 1 100 -129 0
-109 -128 -2 -101 -130 0
-109 -128 -2 101 130 0
-109 -128 2 -101 130 0
-109 -128 2 101 -130 0
-109 -128 -3 -102 -131 0
-109 -128 -3 102 131 0
-109 -128 3 -102 131 0
-109 -128 3 102 -131 0
-109 -128 -4 -103 -132 0
-109 -128 -4 103 132 0
-109 -128 4 -103 132 0
-109 -128 4 103 -132 0
-109 -128 -5 -104 -133 0
-109 -128 -5 104 133 0
-109 -128 5 -104 133 0
-109 -128 5 104 -133 0
-109 -128 -6 -105 -134 0
-109 -128 -6 105 134 0
-109 -128 6 -105 134 0
-109 -128 6 105 -134 0
-109 -128 -7 -106 -135 0
-109 -128 -7 106 135 0
-109 -128 7 -106 135 0
-109 -128 7 106 -135 0
-109 -128 -8 -107 -136 0
-109 -128 -8 107 136 0
-109 -128 8 -107 136 0
-109 -128 8 107 -136 0
-109 -128 -9 -108 -137 0
-109 -128 -9 108 137 0
-109 -128 9 -108 137 0
-109 -128 9 108 -137 0
-110 -121 -10 -19 -129 0
-110 -121 -10 19 129 0
-110 -121 10 -19 129 0
-110 -121 10 19 -129 0
-110 -121 -11 -20 -130 0
-110 -121 -11 20 130 0
-110 -121 11 -20 130 0
-110 -121 11 20 -130 0
-110 -121 -12 -21 -131 0
-110 -121 -12 21 131 0
-110 -121 12 -21 131 0
-110 -121 12 21 -131 0
-110 -121 -13 -22 -132 0
-110 -121 -13 22 132 0
-110 -121 13 -22 132 0
-110 -121 13 22 -132 0
-110 -121 -14 -23 -133 0
-110 -121 -14 23 133 0
-110 -121 14 -23 133 0
-110 -121 14 23 -133 0
-110 -121 -15 -24 -134 0
-110 -121 -15 24 134 0
-110 -121 15 -24 134 0
-110 -121 15 24 -134 0
-110 -121 -16 -25 -135 0
-110 -121 -16 25 135 0
-110 -121 16 -25 135 0
-110 -121 16 25 -135 0
-110 -121 -17 -26 -136 0
-110 -121 -17 26 136 0
-110 -121 17 -26 136 0
-110 -121 17 26 -136 0
-110 -121 -18 -27 -137 0
-110 -121 -18 27 137 0
-110 -121 18 -27 137 0
-110 -121 18 27 -137 0
-110 -122 -10 -28 -129 0
-110 -122 -10 28 129 0
-110 -122 10 -28 129 0
-110 -122 10 28 -129 0
-110 -122 -11 -29 -130 0
-110 -122 -11 29 130 0
-110 -122 11 -29 130 0
-110 -122 11 29 -130 0
-110 -122 -12 -30 -131 0
-110 -122 -12 30 131 0
-110 -122 12 -30 131 0
-110 -122 12 30 -131 0
-110 -122 -13 -31 -132 0
-110 -122 -13 31 132 0
-110 -122 13 -31 132 0
-110 -122 13 31 -132 0
-110 -122 -14 -32 -133 0
-110 -122 -14 32 133 0
-110 -122 14 -32 133 0
-110 -122 14 32 -133 0
-110 -122 -15 -33 -134 0
-110 -122 -15 33 134 0
-110 -122 15 -33 134 0
-110 -122 15 33 -134 0
-110 -122 -16 -34 -135 0
-110 -122 -16 34 135 0
-110 -122 16 -34 135 0
-110 -122 16 34 -135 0
-110 -122 -17 -35 -136 0
-110 -122 -17 35 136 0
-110 -122 17 -35 136 0
-110 -122 17 35 -136 0
-110 -122 -18 -36 -137 0
-110 -122 -18 36 137 0
-110 -122 18 -36 137 0
-110 -122 18 36 -137 0
-110 -123 -10 -37 -129 0
-110 -123 -10 37 129 0
-110 -123 10 -37 129 0
-110 -123 10 37 -129 0
-110 -123 -11 -38 -130 0
-110 -123 -11 38 130 0
-110 -123 11 -38 130 0
-110 -123 11 38 -130 0
-110 -123 -12 -39 -131 0
-110 -123 -12 39 131 0
-110 -123 12 -39 131 0
-110 -123 12 39 -131 0
-110 -123 -13 -40 -132 0
-110 -123 -13 40 132 0
-110 -123 13 -40 132 0
-110 -123 13 40 -132 0
-110 -123 -14 -41 -133 0
-110 -123 -14 41 133 0
-110 -123 14 -41 133 0
-110 -123 14 41 -133 0
-110 -123 -15 -42 -134 0
-110 -123 -15 42 134 0
-110 -123 15 -42 134 0
-110 -123 15 42 -134 0
-110 -123 -16 -43 -135 0
-110 -123 -16 43 135 0
-110 -123 16 -43 135 0
-110 -123 16 43 -135 0
-110 -123 -17 -44 -136 0
-110 -123 -17 44 136 0
-110 -123 17 -44 136 0
-110 -123 17 44 -136 0
-110 -123 -18 -45 -137 0
-110 -123 -18 45 137 0
-110 -123 18 -45 137 0
-110 -123 18 45 -137 0
-110 -124 -10 -46 -129 0
-110 -124 -10 46 129 0
-110 -124 10 -46 129 0
-110 -124 10 46 -129 0
-110 -124 -11 -47 -130 0
-110 -124 -11 47 130 0
-110 -124 11 -47 130 0
-110 -124 11 47 -130 0
-110 -124 -12 -48 -131 0
-110 -124 -12 48 131 0
-110 -124 12 -48 131 0
-110 -124 12 48 -131 0
-110 -124 -13 -49 -132 0
-110 -124 -13 49 132 0
-110 -124 13 -49 132 0
-110 -124 13 49 -132 0
-110 -124 -14 -50 -133 0
-110 -124 -14 50 133 0
-110 -124 14 -50 133 0
-110 -124 14 50 -133 0
-110 -124 -15 -51 -134 0
-110 -124 -15 51 134 0
-110 -124 15 -51 134 0
-110 -124 15 51 -134 0
-110 -124 -16 -52 -135 0
-110 -124 -16 52 135 0
-110 -124 16 -52 135 0
-110 -124 16 52 -135 0
-110 -124 -17 -53 -136 0
-110 -124 -17 53 136 0
-110 -124 17 -53 136 0
-110 -124 17 53 -136 0
-110 -124 -18 -54 -137 0
-110 -124 -18 54 137 0
-110 -124 18 -54 137 0
-110 -124 18 54 -137 0
-110 -125 -10 -55 -129 0
-110 -125 -10 55 129 0
-110 -125 10 -55 129 0
-110 -125 10 55 -129 0
-110 -125 -11 -56 -130 0
-110 -125 -11 56 130 0
-110 -125 11 -56 130 0
-110 -125 11 56 -130 0
-110 -125 -12 -57 -131 0
-110 -125 -12 57 131 0
-110 -125 12 -57 131 0
-110 -125 12 57 -131 0
-110 -125 -13 -58 -132 0
-110 -125 -13 58 132 0
-110 -125 13 -58 132 0
-110 -125 13 58 -132 0
-110 -125 -14 -59 -133 0
-110 -125 -14 59 133 0
-110 -125 14 -59 133 0
-110 -125 14 59 -133 0
-110 -125 -15 -60 -134 0
-110 -125 -15 60 134 0
-110 -125 15 -60 134 0
-110 -125 15 60 -134 0
-110 -125 -16 -61 -135 0
-110 -125 -16 61 135 0
-110 -125 16 -61 135 0
-110 -125 16 61 -135 0
-110 -125 -17 -62 -136 0
-110 -125 -17 62 136 0
-110 -125 17 -62 136 0
-110 -125 17 62 -136 0
-110 -125 -18 -63 -137 0
-110 -125 -18 63 137 0
-110 -125 18 -63 137 0
-110 -125 18 63 -137 0
-110 -126 -10 -64 -129 0
-110 -126 -10 64 129 0
-110 -126 10 -64 129 0
-110 -126 10 64 -129 0
-110 -126 -11 -65 -130 0
-110 -126 -11 65 130 0
-110 -126 11 -65 130 0
-110 -126 11 65 -130 0
-110 -126 -12 -66 -131 0
-110 -126 -12 66 131 0
-110 -126 12 -66 131 0
-110 -126 12 66 -131 0
-110 -126 -13 -67 -132 0
-110 -126 -13 67 132 0
-110 -126 13 -67 132 0
-110 -126 13 67 -132 0
-110 -126 -14 -68 -133 0
-110 -126 -14 68 133 0
-110 -126 14 -68 133 0
-110 -126 14 68 -133 0
-110 -126 -15 -69 -134 0
-110 -126 -15 69 134 0
-110 -126 15 -69 134 0
-110 -126 15 69 -134 0
-110 -126 -16 -70 -135 0
-110 -126 -16 70 135 0
-110 -126 16 -70 135 0
-110 -126 16 70 -135 0
-110 -126 -17 -71 -136 0
-110 -126 -17 71 136 0
-110 -126 17 -71 136 0
-110 -126 17 71 -136 0
-110 -126 -18 -72 -137 0
-110 -126 -18 72 137 0
-110 -126 18 -72 137 0
-110 -126 18 72 -137 0
-110 -127 -10 -73 -129 0
-110 -127 -10 73 129 0
-110 -127 10 -73 129 0
-110 -127 10 73 -129 0
-110 -127 -11 -74 -130 0
-110 -127 -11 74 130 0
-110 -127 11 -74 130 0
-110 -127 11 74 -130 0
-110 -127 -12 -75 -131 0
-110 -127 -12 75 131 0
-110 -127 12 -75 131 0
-110 -127 12 75 -131 0
-110 -127 -13 -76 -132 0
-110 -127 -13 76 132 0
-110 -127 13 -76 132 0
-110 -127 13 76 -132 0
-110 -127 -14 -77 -133 0
-110 -127 -14 77 133 0
-110 -127 14 -77 133 0
-110 -127 14 77 -133 0
-110 -127 -15 -78 -134 0
-110 -127 -15 78 134 0
-110 -127 15 -78 134 0
-110 -127 15 78 -134 0
-110 -127 -16 -79 -135 0
-110 -127 -16 79 135 0
-110 -127 16 -79 135 0
-110 -127 16 79 -135 0
-110 -127 -17 -80 -136 0
-110 -127 -17 80 136 0
-110 -127 17 -80 136 0
-110 -127 17 80 -136 0
-110 -127 -18 -81 -137 0
-110 -127 -18 81 137 0
-110 -127 18 -81 137 0
-110 -127 18 81 -137 0
-110 -128 -10 -100 -129 0
-110 -128 -10 100 129 0
-110 -128 10 -100 129 0
-110 -128 10 100 -129 0
-110 -128 -11 -101 -130 0
-110 -128 -11 101 130 0
-110 -128 11 -101 130 0
-110 -128 11 101 -130 0
-110 -128 -12 -102 -131 0
-110 -128 -12 102 131 0
-110 -128 12 -102 131 0
-110 -128 12 102 -131 0
-110 -128 -13 -103 -132 0
-110 -128 -13 103 132 0
-110 -128 13 -103 132 0
-110 -128 13 103 -132 0
-110 -128 -14 -104 -133 0
-110 -128 -14 104 133 0
-110 -128 14 -104 133 0
-110 -128 14 104 -133 0
-110 -128 -15 -105 -134 0
-110 -128 -15 105 134 0
-110 -128 15 -105 134 0
-110 -128 15 105 -134 0
-110 -128 -16 -106 -135 0
-110 -128 -16 106 135 0
-110 -128 16 -106 135 0
-110 -128 16 106 -135 0
-110 -128 -17 -107 -136 0
-110 -128 -17 107 136 0
-110 -128 17 -107 136 0
-110 -128 17 107 -136 0
-110 -128 -18 -108 -137 0
-110 -128 -18 108 137 0
-110 -128 18 -108 137 0
-110 -128 18 108 -137 0
-111 -122 -19 -28 -129 0
-111 -122 -19 28 129 0
-111 -122 19 -28 129 0
-111 -122 19 28 -129 0
-111 -122 -20 -29 -130 0
-111 -122 -20 29 130 0
-111 -122 20 -29 130 0
-111 -122 20 29 -130 0
-111 -122 -21 -30 -131 0
-111 -122 -21 30 131 0
-111 -122 21 -30 131 0
-111 -122 21 30 -131 0
-111 -122 -22 -31 -132 0
-111 -122 -22 31 132 0
-111 -122 22 -31 132 0
-111 -122 22 31 -132 0
-111 -122 -23 -32 -133 0
-111 -122 -23 32 133 0
-111 -122 23 -32 133 0
-111 -122 23 32 -133 0
-111 -122 -24 -33 -134 0
-111 -122 -24 33 134 0
-111 -122 24 -33 134 0
-111 -122 24 33 -134 0
-111 -122 -25 -34 -135 0
-111 -122 -25 34 135 0
-111 -122 25 -34 135 0
-111 -122 25 34 -135 0
-111 -122 -26 -35 -136 0
-111 -122 -26 35 136 0
-111 -122 26 -35 136 0
-111 -122 26 35 -136 0
-111 -122 -27 -36 -137 0
-111 -122 -27 36 137 0
-111 -122 27 -36 137 0
-111 -122 27 36 -137 0
-111 -123 -19 -37 -129 0
-111 -123 -19 37 129 0
-111 -123 19 -37 129 0
-111 -123 19 37 -129 0
-111 -123 -20 -38 -130 0
-111 -123 -20 38 130 0
-111 -123 20 -38 130 0
-111 -123 20 38 -130 0
-111 -123 -21 -39 -131 0
-111 -123 -21 39 131 0
-111 -123 21 -39 131 0
-111 -123 21 39 -131 0
-111 -123 -22 -40 -132 0
-111 -123 -22 40 132 0
-111 -123 22 -40 132 0
-111 -123 22 40 -132 0
-111 -123 -23 -41 -133 0
-111 -123 -23 41 133 0
-111 -123 23 -41 133 0
-111 -123 23 41 -133 0
-111 -123 -24 -42 -134 0
-111 -123 -24 42 134 0
-111 -123 24 -42 134 0
-111 -123 24 42 -134 0
-111 -123 -25 -43 -135 0
-111 -123 -25 43 135 0
-111 -123 25 -43 135 0
-111 -123 25 43 -135 0
-111 -123 -26 -44 -136 0
-111 -123 -26 44 136 0
-111 -123 26 -44 136 0
-111 -123 26 44 -136 0
-111 -123 -27 -45 -137 0
-111 -123 -27 45 137 0
-111 -123 27 -45 137 0
-111 -123 27 45 -137 0
-111 -124 -19 -46 -129 0
-111 -124 -19 46 129 0
-111 -124 19 -46 129 0
-111 -124 19 46 -129 0
-111 -124 -20 -47 -130 0
-111 -124 -20 47 130 0
-111 -124 20 -47 130 0
-111 -124 20 47 -130 0
-111 -124 -21 -48 -131 0
-111 -124 -21 48 131 0
-111 -124 21 -48 131 0
-111 -124 21 48 -131 0
-111 -124 -22 -49 -132 0
-111 -124 -22 49 132 0
-111 -124 22 -49 132 0
-111 -124 22 49 -132 0
-111 -124 -23 -50 -133 0
-111 -124 -23 50 133 0
-111 -124 23 -50 133 0
-111 -124 23 50 -133 0
-111 -124 -24 -51 -134 0
-111 -124 -24 51 134 0
-111 -124 24 -51 134 0
-111 -124 24 51 -134 0
-111 -124 -25 -52 -135 0
-111 -124 -25 52 135 0
-111 -124 25 -52 135 0
-111 -124 25 52 -135 0
-111 -124 -26 -53 -136 0
-111 -124 -26 53 136 0
-111 -124 26 -53 136 0
-111 -124 26 53 -136 0
-111 -124 -27 -54 -137 0
-111 -124 -27 54 137 0
-111 -124 27 -54 137 0
-111 -124 27 54 -137 0
-111 -125 -19 -55 -129 0
-111 -125 -19 55 129 0
-111 -125 19 -55 129 0
-111 -125 19 55 -129 0
-111 -125 -20 -56 -130 0
-111 -125 -20 56 130 0
-111 -125 20 -56 130 0
-111 -125 20 56 -130 0
-111 -125 -21 -57 -131 0
-111 -125 -21 57 131 0
-111 -125 21 -57 131 0
-111 -125 21 57 -131 0
-111 -125 -22 -58 -132 0
-111 -125 -22 58 132 0
-111 -125 22 -58 132 0
-111 -125 22 58 -132 0
-111 -125 -23 -59 -133 0
-111 -125 -23 59 133 0
-111 -125 23 -59 133 0
-111 -125 23 59 -133 0
-111 -125 -24 -60 -134 0
-111 -125 -24 60 134 0
-111 -125 24 -60 134 0
-111 -125 24 60 -134 0
-111 -125 -25 -61 -135 0
-111 -125 -25 61 135 0
-111 -125 25 -61 135 0
-111 -125 25 61 -135 0
-111 -125 -26 -62 -136 0
-111 -125 -26 62 136 0
-111 -125 26 -62 136 0
-111 -125 26 62 -136 0
-111 -125 -27 -63 -137 0
-111 -125 -27 63 137 0
-111 -125 27 -63 137 0
-111 -125 27 63 -137 0
-111 -126 -19 -64 -129 0
-111 -126 -19 64 129 0
-111 -126 19 -64 129 0
-111 -126 19 64 -129 0
-111 -126 -20 -65 -130 0
-111 -126 -20 65 130 0
-111 -126 20 -65 130 0
-111 -126 20 65 -130 0
-111 -126 -21 -66 -131 0
-111 -126 -21 66 131 0
-111 -126 21 -66 131 0
-111 -126 21 66 -131 0
-111 -126 -22 -67 -132 0
-111 -126 -22 67 132 0
-111 -126 22 -67 132 0
-111 -126 22 67 -132 0
-111 -126 -23 -68 -133 0
-111 -126 -23 68 133 0
-111 -126 23 -68 133 0
-111 -126 23 68 -133 0
-111 -126 -24 -69 -134 0
-111 -126 -24 69 134 0
-111 -126 24 -69 134 0
-111 -126 24 69 -134 0
-111 -126 -25 -70 -135 0
-111 -126 -25 70 135 0
-111 -126 25 -70 135 0
-111 -126 25 70 -135 0
-111 -126 -26 -71 -136 0
-111 -126 -26 71 136 0
-111 -126 26 -71 136 0
-111 -126 26 71 -136 0
-111 -126 -27 -72 -137 0
-111 -126 -27 72 137 0
-111 -126 27 -72 137 0
-111 -126 27 72 -137 0
-111 -127 -19 -73 -129 0
-111 -127 -19 73 129 0
-111 -127 19 -73 129 0
-111 -127 19 73 -129 0
-111 -127 -20 -74 -130 0
-111 -127 -20 74 130 0
-111 -127 20 -74 130 0
-111 -127 20 74 -130 0
-111 -127 -21 -75 -131 0
-111 -127 -21 75 131 0
-111 -127 21 -75 131 0
-111 -127 21 75 -131 0
-111 -127 -22 -76 -132 0
-111 -127 -22 76 132 0
-111 -127 22 -76 132 0
-111 -127 22 76 -132 0
-111 -127 -23 -77 -133 0
-111 -127 -23 77 133 0
-111 -127 23 -77 133 0
-111 -127 23 77 -133 0
-111 -127 -24 -78 -134 0
-111 -127 -24 78 134 0
-111 -127 24 -78 134 0
-111 -127 24 78 -134 0
-111 -127 -25 -79 -135 0
-111 -127 -25 79 135 0
-111 -127 25 -79 135 0
-111 -127 25 79 -135 0
-111 -127 -26 -80 -136 0
-111 -127 -26 80 136 0
-111 -127 26 -80 136 0
-111 -127 26 80 -136 0
-111 -127 -27 -81 -137 0
-111 -127 -27 81 137 0
-111 -127 27 -81 137 0
-111 -127 27 81 -137 0
-111 -128 -19 -100 -129 0
-111 -128 -19 100 129 0
-111 -128 19 -100 129 0
-111 -128 19 100 -129 0
-111 -128 -20 -101 -130 0
-111 -128 -20 101 130 0
-111 -128 20 -101 130 0
-111 -128 20 101 -130 0
-111 -128 -21 -102 -131 0
-111 -128 -21 102 131 0
-111 -128 21 -102 131 0
-111 -128 21 102 -131 0
-111 -128 -22 -103 -132 0
-111 -128 -22 103 132 0
-111 -128 22 -103 132 0
-111 -128 22 103 -132 0
-111 -128 -23 -104 -133 0
-111 -128 -23 104 133 0
-111 -128 23 -104 133 0
-111 -128 23 104 -133 0
-111 -128 -24 -105 -134 0
-111 -128 -24 105 134 0
-111 -128 24 -105 134 0
-111 -128 24 105 -134 0
-111 -128 -25 -106 -135 0
-111 -128 -25 106 135 0
-111 -128 25 -106 135 0
-111 -128 25 106 -135 0
-111 -128 -26 -107 -136 0
-111 -128 -26 107 136 0
-111 -128 26 -107 136 0
-111 -128 26 107 -136 0
-111 -128 -27 -108 -137 0
-111 -128 -27 108 137 0
-111 -128 27 -108 137 0
-111 -128 27 108 -137 0
-112 -123 -28 -37 -129 0
-112 -123 -28 37 129 0
-112 -123 28 -37 129 0
-112 -123 28 37 -129 0
-112 -123 -29 -38 -130 0
-112 -123 -29 38 130 0
-112 -123 29 -38 130 0
-112 -123 29 38 -130 0
-112 -123 -30 -39 -131 0
-112 -123 -30 39 131 0
-112 -123 30 -39 131 0
-112 -123 30 39 -131 0
-112 -123 -31 -40 -132 0
-112 -123 -31 40 132 0
-112 -123 31 -40 132 0
-112 -123 31 40 -132 0
-112 -123 -32 -41 -133 0
-112 -123 -32 41 133 0
-112 -123 32 -41 133 0
-112 -123 32 41 -133 0
-112 -123 -33 -42 -134 0
-112 -123 -33 42 134 0
-112 -123 33 -42 134 0
-112 -123 33 42 -134 0
-112 -123 -34 -43 -135 0
-112 -123 -34 43 135 0
-112 -123 34 -43 135 0
-112 -123 34 43 -135 0
-112 -123 -35 -44 -136 0
-112 -123 -35 44 136 0
-112 -123 35 -44 136 0
-112 -123 35 44 -136 0
-112 -123 -36 -45 -137 0
-112 -123 -36 45 137 0
-112 -123 36 -45 137 0
-112 -123 36 45 -137 0
-112 -124 -28 -46 -129 0
-112 -124 -28 46 129 0
-112 -124 28 -46 129 0
-112 -124 28 46 -129 0
-112 -124 -29 -47 -130 0
-112 -124 -29 47 130 0
-112 -124 29 -47 130 0
-112 -124 29 47 -130 0
-112 -124 -30 -48 -131 0
-112 -124 -30 48 131 0
-112 -124 30 -48 131 0
-112 -124 30 48 -131 0
-112 -124 -31 -49 -132 0
-112 -124 -31 49 132 0
-112 -124 31 -49 132 0
-112 -124 31 49 -132 0
-112 -124 -32 -50 -133 0
-112 -124 -32 50 133 0
-112 -124 32 -50 133 0
-112 -124 32 50 -133 0
-112 -124 -33 -51 -134 0
-112 -124 -33 51 134 0
-112 -124 33 -51 134 0
-112 -124 33 51 -134 0
-112 -124 -34 -52 -135 0
-112 -124 -34 52 135 0
-112 -124 34 -52 135 0
-112 -124 34 52 -135 0
-112 -124 -35 -53 -136 0
-112 -124 -35 53 136 0
-112 -124 35 -53 136 0
-112 -124 35 53 -136 0
-112 -124 -36 -54 -137 0
-112 -124 -36 54 137 0
-112 -124 36 -54 137 0
-112 -124 36 54 -137 0
-112 -125 -28 -55 -129 0
-112 -125 -28 55 129 0
-112 -125 28 -55 129 0
-112 -125 28 55 -129 0
-112 -125 -29 -56 -130 0
-112 -125 -29 56 130 0
-112 -125 29 -56 130 0
-112 -125 29 56 -130 0
-112 -125 -30 -57 -131 0
-112 -125 -30 57 131 0
-112 -125 30 -57 131 0
-112 -125 30 57 -131 0
-112 -125 -31 -58 -132 0
-112 -125 -31 58 132 0
-112 -125 31 -58 132 0
-112 -125 31 58 -132 0
-112 -125 -32 -59 -133 0
-112 -125 -32 59 133 0
-112 -125 32 -59 133 0
-112 -125 32 59 -133 0
-112 -125 -33 -60 -134 0
-112 -125 -33 60 134 0
-112 -125 33 -60 134 0
-112 -125 33 60 -134 0
-112 -125 -34 -61 -135 0
-112 -125 -34 61 135 0
-112 -125 34 -61 135 0
-112 -125 34 61 -135 0
-112 -125 -35 -62 -136 0
-112 -125 -35 62 136 0
-112 -125 35 -62 136 0
-112 -125 35 62 -136 0
-112 -125 -36 -63 -137 0
-112 -125 -36 63 137 0
-112 -125 36 -63 137 0
-112 -125 36 63 -137 0
-112 -126 -28 -64 -129 0
-112 -126 -28 64 129 0
-112 -126 28 -64 129 0
-112 -126 28 64 -129 0
-112 -126 -29 -65 -130 0
-112 -126 -29 65 130 0
-112 -126 29 -65 130 0
-112 -126 29 65 -130 0
-112 -126 -30 -66 -131 0
-112 -126 -30 66 131 0
-112 -126 30 -66 131 0
-112 -126 30 66 -131 0
-112 -126 -31 -67 -132 0
-112 -126 -31 67 132 0
-112 -126 31 -67 132 0
-112 -126 31 67 -132 0
-112 -126 -32 -68 -133 0
-112 -126 -32 68 133 0
-112 -126 32 -68 133 0
-112 -126 32 68 -133 0
-112 -126 -33 -69 -134 0
-112 -126 -33 69 134 0
-112 -126 33 -69 134 0
-112 -126 33 69 -134 0
-112 -126 -34 -70 -135 0
-112 -126 -34 70 135 0
-112 -126 34 -70 135 0
-112 -126 34 70 -135 0
-112 -126 -35 -71 -136 0
-112 -126 -35 71 136 0
-112 -126 35 -71 136 0
-112 -126 35 71 -136 0
-112 -126 -36 -72 -137 0
-112 -126 -36 72 137 0
-112 -126 36 -72 137 0
-112 -126 36 72 -137 0
-112 -127 -28 -73 -129 0
-112 -127 -28 73 129 0
-112 -127 28 -73 129 0
-112 -127 28 73 -129 0
-112 -127 -29 -74 -130 0
-112 -127 -29 74 130 0
-112 -127 29 -74 130 0
-112 -127 29 74 -130 0
-112 -127 -30 -75 -131 0
-112 -127 -30 75 131 0
-112 -127 30 -75 131 0
-112 -127 30 75 -131 0
-112 -127 -31 -76 -132 0
-112 -127 -31 76 132 0
-112 -127 31 -76 132 0
-112 -127 31 76 -132 0
-112 -127 -32 -77 -133 0
-112 -127 -32 77 133 0
-112 -127 32 -77 133 0
-112 -127 32 77 -133 0
-112 -127 -33 -78 -134 0
-112 -127 -33 78 134 0
-112 -127 33 -78 134 0
-112 -127 33 78 -134 0
-112 -127 -34 -79 -135 0
-112 -127 -34 79 135 0
-112 -127 34 -79 135 0
-112 -127 34 79 -135 0
-112 -127 -35 -80 -136 0
-112 -127 -35 80 136 0
-112 -127 35 -80 136 0
-112 -127 35 80 -136 0
-112 -127 -36 -81 -137 0
-112 -127 -36 81 137 0
-112 -127 36 -81 137 0
-112 -127 36 81 -137 0
-112 -128 -28 -100 -129 0
-112 -128 -28 100 129 0
-112 -128 28 -100 129 0
-112 -128 28 100 -129 0
-112 -128 -29 -101 -130 0
-112 -128 -29 101 130 0
-112 -128 29 -101 130 0
-112 -128 29 101 -130 0
-112 -128 -30 -102 -131 0
-112 -128 -30 102 131 0
-112 -128 30 -102 131 0
-112 -128 30 102 -131 0
-112 -128 -31 -103 -132 0
-112 -128 -31 103 132 0
-112 -128 31 -103 132 0
-112 -128 31 103 -132 0
-112 -128 -32 -104 -133 0
-112 -128 -32 104 133 0
-112 -128 32 -104 133 0
-112 -128 32 104 -133 0
-112 -128 -33 -105 -134 0
-112 -128 -33 105 134 0
-112 -128 33 -105 134 0
-112 -128 33 105 -134 0
-112 -128 -34 -106 -135 0
-112 -128 -34 106 135 0
-112 -128 34 -106 135 0
-112 -128 34 106 -135 0
-112 -128 -35 -107 -136 0
-112 -128 -35 107 136 0
-112 -128 35 -107 136 0
-112 -128 35 107 -136 0
-112 -128 -36 -108 -137 0
-112 -128 -36 108 137 0
-112 -128 36 -108 137 0
-112 -128 36 108 -137 0
-113 -124 -37 -46 -129 0
-113 -124 -37 46 129 0
-113 -124 37 -46 129 0
-113 -124 37 46 -129 0
-113 -124 -38 -47 -130 0
-113 -124 -38 47 130 0
-113 -124 38 -47 130 0
-113 -124 38 47 -130 0
-113 -124 -39 -48 -131 0
-113 -124 -39 48 131 0
-113 -124 39 -48 131 0
-113 -124 39 48 -131 0
-113 -124 -40 -49 -132 0
-113 -124 -40 49 132 0
-113 -124 40 -49 132 0
-113 -124 40 49 -132 0
-113 -124 -41 -50 -133 0
-113 -124 -41 50 133 0
-113 -124 41 -50 133 0
-113 -124 41 50 -133 0
-113 -124 -42 -51 -134 0
-113 -124 -42 51 134 0
-113 -124 42 -51 134 0
-113 -124 42 51 -134 0
-113 -124 -43 -52 -135 0
-113 -124 -43 52 135 0
-113 -124 43 -52 135 0
-113 -124 43 52 -135 0
-113 -124 -44 -53 -136 0
-113 -124 -44 53 136 0
-113 -124 44 -53 136 0
-113 -124 44 53 -136 0
-113 -124 -45 -54 -137 0
-113 -124 -45 54 137 0
-113 -124 45 -54 137 0
-113 -124 45 54 -137 0
-113 -125 -37 -55 -129 0
-113 -125 -37 55 129 0
-113 -125 37 -55 129 0
-113 -125 37 55 -129 0
-113 -125 -38 -56 -130 0
-113 -125 -38 56 130 0
-113 -125 38 -56 130 0
-113 -125 38 56 -130 0
-113 -125 -39 -57 -131 0
-113 -125 -39 57 131 0
-113 -125 39 -57 131 0
-113 -125 39 57 -131 0
-113 -125 -40 -58 -132 0
-113 -125 -40 58 132 0
-113 -125 40 -58 132 0
-113 -125 40 58 -132 0
-113 -125 -41 -59 -133 0
-113 -125 -41 59 133 0
-113 -125 41 -59 133 0
-113 -125 41 59 -133 0
-113 -125 -42 -60 -134 0
-113 -125 -42 60 134 0
-113 -125 42 -60 134 0
-113 -125 42 60 -134 0
-113 -125 -43 -61 -135 0
-113 -125 -43 61 135 0
-113 -125 43 -61 135 0
-113 -125 43 61 -135 0
-113 -125 -44 -62 -136 0
-113 -125 -44 62 136 0
-113 -125 44 -62 136 0
-113 -125 44 62 -136 0
-113 -125 -45 -63 -137 0
-113 -125 -45 63 137 0
-113 -125 45 -63 137 0
-113 -125 45 63 -137 0
-113 -126 -37 -64 -129 0
-113 -126 -37 64 129 0
-113 -126 37 -64 129 0
-113 -126 37 64 -129 0
-113 -126 -38 -65 -130 0
-113 -126 -38 65 130 0
-113 -126 38 -65 130 0
-113 -126 38 65 -130 0
-113 -126 -39 -66 -131 0
-113 -126 -39 66 131 0
-113 -126 39 -66 131 0
-113 -126 39 66 -131 0
-113 -126 -40 -67 -132 0
-113 -126 -40 67 132 0
-113 -126 40 -67 132 0
-113 -126 40 67 -132 0
-113 -126 -41 -68 -133 0
-113 -126 -41 68 133 0
-113 -126 41 -68 133 0
-113 -126 41 68 -133 0
-113 -126 -42 -69 -134 0
-113 -126 -42 69 134 0
-113 -126 42 -69 134 0
-113 -126 42 69 -134 0
-113 -126 -43 -70 -135 0
-113 -126 -43 70 135 0
-113 -126 43 -70 135 0
-113 -126 43 70 -135 0
-113 -126 -44 -71 -136 0
-113 -126 -44 71 136 0
-113 -126 44 -71 136 0
-113 -126 44 71 -136 0
-113 -126 -45 -72 -137 0
-113 -126 -45 72 137 0
-113 -126 45 -72 137 0
-113 -126 45 72 -137 0
-113 -127 -37 -73 -129 0
-113 -127 -37 73 129 0
-113 -127 37 -73 129 0
-113 -127 37 73 -129 0
-113 -127 -38 -74 -130 0
-113 -127 -38 74 130 0
-113 -127 38 -74 130 0
-113 -127 38 74 -130 0
-113 -127 -39 -75 -131 0
-113 -127 -39 75 131 0
-113 -127 39 -75 131 0
-113 -127 39 75 -131 0
-113 -127 -40 -76 -132 0
-113 -127 -40 76 132 0
-113 -127 40 -76 132 0
-113 -127 40 76 -132 0
-113 -127 -41 -77 -133 0
-113 -127 -41 77 133 0
-113 -127 41 -77 133 0
-113 -127 41 77 -133 0
-113 -127 -42 -78 -134 0
-113 -127 -42 78 134 0
-113 -127 42 -78 134 0
-113 -127 42 78 -134 0
-113 -127 -43 -79 -135 0
-113 -127 -43 79 135 0
-113 -127 43 -79 135 0
-113 -127 43 79 -135 0
-113 -127 -44 -80 -136 0
-113 -127 -44 80 136 0
-113 -127 44 -80 136 0
-113 -127 44 80 -136 0
-113 -127 -45 -81 -137 0
-113 -127 -45 81 137 0
-113 -127 45 -81 137 0
-113 -127 45 81 -137 0
-113 -128 -37 -100 -129 0
-113 -128 -37 100 129 0
-113 -128 37 -100 129 0
-113 -128 37 100 -129 0
-113 -128 -38 -101 -130 0
-113 -128 -38 101 130 0
-113 -128 38 -101 130 0
-113 -128 38 101 -130 0
-113 -128 -39 -102 -131 0
-113 -128 -39 102 131 0
-113 -128 39 -102 131 0
-113 -128 39 102 -131 0
-113 -128 -40 -103 -132 0
-113 -128 -40 103 132 0
-113 -128 40 -103 132 0
-113 -128 40 103 -132 0
-113 -128 -41 -104 -133 0
-113 -128 -41 104 133 0
-113 -128 41 -104 133 0
-113 -128 41 104 -133 0
-113 -128 -42 -105 -134 0
-113 -128 -42 105 134 0
-113 -128 42 -105 134 0
-113 -128 42 105 -134 0
-113 -128 -43 -106 -135 0
-113 -128 -43 106 135 0
-113 -128 43 -106 135 0
-113 -128 43 106 -135 0
-113 -128 -44 -107 -136 0
-113 -128 -44 107 136 0
-113 -128 44 -107 136 0
-113 -128 44 107 -136 0
-113 -128 -45 -108 -137 0
-113 -128 -45 108 137 0
-113 -128 45 -108 137 0
-113 -128 45 108 -137 0
-114 -125 -46 -55 -129 0
-114 -125 -46 55 129 0
-114 -125 46 -55 129 0
-114 -125 46 55 -129 0
-114 -125 -47 -56 -130 0
-114 -125 -47 56 130 0
-114 -125 47 -56 130 0
-114 -125 47 56 -130 0
-114 -125 -48 -57 -131 0
-114 -125 -48 57 131 0
-114 -125 48 -57 131 0
-114 -125 48 57 -131 0
-114 -125 -49 -58 -132 0
-114 -125 -49 58 132 0
-114 -125 49 -58 132 0
-114 -125 49 58 -132 0
-114 -125 -50 -59 -133 0
-114 -125 -50 59 133 0
-114 -125 50 -59 133 0
-114 -125 50 59 -133 0
-114 -125 -51 -60 -134 0
-114 -125 -51 60 134 0
-114 -125 51 -60 134 0
-114 -125 51 60 -134 0
-114 -125 -52 -61 -135 0
-114 -125 -52 61 135 0
-114 -125 52 -61 135 0
-114 -125 52 61 -135 0
-114 -125 -53 -62 -136 0
-114 -125 -53 62 136 0
-114 -125 53 -62 136 0
-114 -125 53 62 -136 0
-114 -125 -54 -63 -137 0
-114 -125 -54 63 137 0
-114 -125 54 -63 137 0
-114 -125 54 63 -137 0
-114 -126 -46 -64 -129 0
-114 -126 -46 64 129 0
-114 -126 46 -64 129 0
-114 -126 46 64 -129 0
-114 -126 -47 -65 -130 0
-114 -126 -47 65 130 0
-114 -126 47 -65 130 0
-114 -126 47 65 -130 0
-114 -126 -48 -66 -131 0
-114 -126 -48 66 131 0
-114 -126 48 -66 131 0
-114 -126 48 66 -131 0
-114 -126 -49 -67 -132 0
-114 -126 -49 67 132 0
-114 -126 49 -67 132 0
-114 -126 49 67 -132 0
-114 -126 -50 -68 -133 0
-114 -126 -50 68 133 0
-114 -126 50 -68 133 0
-114 -126 50 68 -133 0
-114 -126 -51 -69 -134 0
-114 -126 -51 69 134 0
-114 -126 51 -69 134 0
-114 -126 51 69 -134 0
-114 -126 -52 -70 -135 0
-114 -126 -52 70 135 0
-114 -126 52 -70 135 0
-114 -126 52 70 -135 0
-114 -126 -53 -71 -136 0
-114 -126 -53 71 136 0
-114 -126 53 -71 136 0
-114 -126 53 71 -136 0
-114 -126 -54 -72 -137 0
-114 -126 -54 72 137 0
-114 -126 54 -72 137 0
-114 -126 54 72 -137 0
-114 -127 -46 -73 -129 0
-114 -127 -46 73 129 0
-114 -127 46 -73 129 0
-114 -127 46 73 -129 0
-114 -127 -47 -74 -130 0
-114 -127 -47 74 130 0
-114 -127 47 -74 130 0
-114 -127 47 74 -130 0
-114 -127 -48 -75 -131 0
-114 -127 -48 75 131 0
-114 -127 48 -75 131 0
-114 -127 48 75 -131 0
-114 -127 -49 -76 -132 0
-114 -127 -49 76 132 0
-114 -127 49 -76 132 0
-114 -127 49 76 -132 0
-114 -127 -50 -77 -133 0
-114 -127 -50 77 133 0
-114 -127 50 -77 133 0
-114 -127 50 77 -133 0
-114 -127 -51 -78 -134 0
-114 -127 -51 78 134 0
-114 -127 51 -78 134 0
-114 -127 51 78 -134 0
-114 -127 -52 -79 -135 0
-114 -127 -52 79 135 0
-114 -127 52 -79 135 0
-114 -127 52 79 -135 0
-114 -127 -53 -80 -136 0
-114 -127 -53 80 136 0
-114 -127 53 -80 136 0
-114 -127 53 80 -136 0
-114 -127 -54 -81 -137 0
-114 -127 -54 81 137 0
-114 -127 54 -81 137 0
-114 -127 54 81 -137 0
-114 -128 -46 -100 -129 0
-114 -128 -46 100 129 0
-114 -128 46 -100 129 0
-114 -128 46 100 -129 0
-114 -128 -47 -101 -130 0
-114 -128 -47 101 130 0
-114 -128 47 -101 130 0
-114 -128 47 101 -130 0
-114 -128 -48 -102 -131 0
-114 -128 -48 102 131 0
-114 -128 48 -102 131 0
-114 -128 48 102 -131 0
-114 -128 -49 -103 -132 0
-114 -128 -49 103 132 0
-114 -128 49 -103 132 0
-114 -128 49 103 -132 0
-114 -128 -50 -104 -133 0
-114 -128 -50 104 133 0
-114 -128 50 -104 133 0
-114 -128 50 104 -133 0
-114 -128 -51 -105 -134 0
-114 -128 -51 105 134 0
-114 -128 51 -105 134 0
-114 -128 51 105 -134 0
-114 -128 -52 -106 -135 0
-114 -128 -52 106 135 0
-114 -128 52 -106 135 0
-114 -128 52 106 -135 0
-114 -128 -53 -107 -136 0
-114 -128 -53 107 136 0
-114 -128 53 -107 136 0
-114 -128 53 107 -136 0
-114 -128 -54 -108 -137 0
-114 -128 -54 108 137 0
-114 -128 54 -108 137 0
-114 -128 54 108 -137 0
-115 -126 -55 -64 -129 0
-115 -126 -55 64 129 0
-115 -126 55 -64 129 0
-115 -126 55 64 -129 0
-115 -126 -56 -65 -130 0
-115 -126 -56 65 130 0
-115 -126 56 -65 130 0
-115 -126 56 65 -130 0
-115 -126 -57 -66 -131 0
-115 -126 -57 66 131 0
-115 -126 57 -66 131 0
-115 -126 57 66 -131 0
-115 -126 -58 -67 -132 0
-115 -126 -58 67 132 0
-115 -126 58 -67 132 0
-115 -126 58 67 -132 0
-115 -126 -59 -68 -133 0
-115 -126 -59 68 133 0
-115 -126 59 -68 133 0
-115 -126 59 68 -133 0
-115 -126 -60 -69 -134 0
-115 -126 -60 69 134 0
-115 -126 60 -69 134 0
-115 -126 60 69 -134 0
-115 -126 -61 -70 -135 0
-115 -126 -61 70 135 0
-115 -126 61 -70 135 0
-115 -126 61 70 -135 0
-115 -126 -62 -71 -136 0
-115 -126 -62 71 136 0
-115 -126 62 -71 136 0
-115 -126 62 71 -136 0
-115 -126 -63 -72 -137 0
-115 -126 -63 72 137 0
-115 -126 63 -72 137 0
-115 -126 63 72 -137 0
-115 -127 -55 -73 -129 0
-115 -127 -55 73 129 0
-115 -127 55 -73 129 0
-115 -127 55 73 -129 0
-115 -127 -56 -74 -130 0
-115 -127 -56 74 130 0
-115 -127 56 -74 130 0
-115 -127 56 74 -130 0
-115 -127 -57 -75 -131 0
-115 -127 -57 75 131 0
-115 -127 57 -75 131 0
-115 -127 57 75 -131 0
-115 -127 -58 -76 -132 0
-115 -127 -58 76 132 0
-115 -127 58 -76 132 0
-115 -127 58 76 -132 0
-115 -127 -59 -77 -133 0
-115 -127 -59 77 133 0
-115 -127 59 -77 133 0
-115 -127 59 77 -133 0
-115 -127 -60 -78 -134 0
-115 -127 -60 78 134 0
-115 -127 60 -78 134 0
-115 -127 60 78 -134 0
-115 -127 -61 -79 -135 0
-115 -127 -61 79 135 0
-115 -127 61 -79 135 0
-115 -127 61 79 -135 0
-115 -127 -62 -80 -136 0
-115 -127 -62 80 136 0
-115 -127 62 -80 136 0
-115 -127 62 80 -136 0
-115 -127 -63 -81 -137 0
-115 -127 -63 81 137 0
-115 -127 63 -81 137 0
-115 -127 63 81 -137 0
-115 -128 -55 -100 -129 0
-115 -128 -55 100 129 0
-115 -128 55 -100 129 0
-115 -128 55 100 -129 0
-115 -128 -56 -101 -130 0
-115 -128 -56 101 130 0
-115 -128 56 -101 130 0
-115 -128 56 101 -130 0
-115 -128 -57 -102 -131 0
-115 -128 -57 102 131 0
-115 -128 57 -102 131 0
-115 -128 57 102 -131 0
-115 -128 -58 -103 -132 0
-115 -128 -58 103 132 0
-115 -128 58 -103 132 0
-115 -128 58 103 -132 0
-115 -128 -59 -104 -133 0
-115 -128 -59 104 133 0
-115 -128 59 -104 133 0
-115 -128 59 104 -133 0
-115 -128 -60 -105 -134 0
-115 -128 -60 105 134 0
-115 -128 60 -105 134 0
-115 -128 60 105 -134 0
-115 -128 -61 -106 -135 0
-115 -128 -61 106 135 0
-115 -128 61 -106 135 0
-115 -128 61 106 -135 0
-115 -128 -62 -107 -136 0
-115 -128 -62 107 136 0
-115 -128 62 -107 136 0
-115 -128 62 107 -136 0
-115 -128 -63 -108 -137 0
-115 -128 -63 108 137 0
-115 -128 63 -108 137 0
-115 -128 63 108 -137 0
-116 -127 -64 -73 -129 0
-116 -127 -64 73 129 0
-116 -127 64 -73 129 0
-116 -127 64 73 -129 0
-116 -127 -65 -74 -130 0
-116 -127 -65 74 130 0
-116 -127 65 -74 130 0
-116 -127 65 74 -130 0
-116 -127 -66 -75 -131 0
-116 -127 -66 75 131 0
-116 -127 66 -75 131 0
-116 -127 66 75 -131 0
-116 -127 -67 -76 -132 0
-116 -127 -67 76 132 0
-116 -127 67 -76 132 0
-116 -127 67 76 -132 0
-116 -127 -68 -77 -133 0
-116 -127 -68 77 133 0
-116 -127 68 -77 133 0
-116 -127 68 77 -133 0
-116 -127 -69 -78 -134 0
-116 -127 -69 78 134 0
-116 -127 69 -78 134 0
-116 -127 69 78 -134 0
-116 -127 -70 -79 -135 0
-116 -127 -70 79 135 0
-116 -127 70 -79 135 0
-116 -127 70 79 -135 0
-116 -127 -71 -80 -136 0
-116 -127 -71 80 136 0
-116 -127 71 -80 136 0
-116 -127 71 80 -136 0
-116 -127 -72 -81 -137 0
-116 -127 -72 81 137 0
-116 -127 72 -81 137 0
-116 -127 72 81 -137 0
-116 -128 -64 -100 -129 0
-116 -128 -64 100 129 0
-116 -128 64 -100 129 0
-116 -128 64 100 -129 0
-116 -128 -65 -101 -130 0
-116 -128 -65 101 130 0
-116 -128 65 -101 130 0
-116 -128 65 101 -130 0
-116 -128 -66 -102 -131 0
-116 -128 -66 102 131 0
-116 -128 66 -102 131 0
-116 -128 66 102 -131 0
-116 -128 -67 -103 -132 0
-116 -128 -67 103 132 0
-116 -128 67 -103 132 0
-116 -128 67 103 -132 0
-116 -128 -68 -104 -133 0
-116 -128 -68 104 133 0
-116 -128 68 -104 133 0
-116 -128 68 104 -133 0
-116 -128 -69 -105 -134 0
-116 -128 -69 105 134 0
-116 -128 69 -105 134 0
-116 -128 69 105 -134 0
-116 -128 -70 -106 -135 0
-116 -128 -70 106 135 0
-116 -128 70 -106 135 0
-116 -128 70 106 -135 0
-116 -128 -71 -107 -136 0
-116 -128 -71 107 136 0
-116 -128 71 -107 136 0
-116 -128 71 107 -136 0
-116 -128 -72 -108 -137 0
-116 -128 -72 108 137 0
-116 -128 72 -108 137 0
-116 -128 72 108 -137 0
-117 -128 -73 -100 -129 0
-117 -128 -73 100 129 0
-117 -128 73 -100 129 0
-117 -128 73 100 -129 0
-117 -128 -74 -101 -130 0
-117 -128 -74 101 130 0
-117 -128 74 -101 130 0
-117 -128 74 101 -130 0
-117 -128 -75 -102 -131 0
-117 -128 -75 102 131 0
-117 -128 75 -102 131 0
-117 -128 75 102 -131 0
-117 -128 -76 -103 -132 0
-117 -128 -76 103 132 0
-117 -128 76 -103 132 0
-117 -128 76 103 -132 0
-117 -128 -77 -104 -133 0
-117 -128 -77 104 133 0
-117 -128 77 -104 133 0
-117 -128 77 104 -133 0
-117 -128 -78 -105 -134 0
-117 -128 -78 105 134 0
-117 -128 78 -105 134 0
-117 -128 78 105 -134 0
-117 -128 -79 -106 -135 0
-117 -128 -79 106 135 0
-117 -128 79 -106 135 0
-117 -128 79 106 -135 0
-117 -128 -80 -107 -136 0
-117 -128 -80 107 136 0
-117 -128 80 -107 136 0
-117 -128 80 107 -136 0
-117 -128 -81 -108 -137 0
-117 -128 -81 108 137 0
-117 -128 81 -108 137 0
-117 -128 81 108 -137 0
129 130 131 132 133 134 135 136 137 0
138 139 140 141 142 143 144 145 146 147 148 0
-138 -139 0
-138 -140 0
-138 -141 0
-138 -142 0
-138 -143 0
-138 -144 0
-138 -145 0
-138 -146 0
-138 -147 0
-138 -148 0
-139 -140 0
-139 -141 0
-139 -142 0
-139 -143 0
-139 -144 0
-139 -145 0
-139 -146 0
-139 -147 0
-139 -148 0
-140 -141 0
-140 -142 0
-140 -143 0
-140 -144 0
-140 -145 0
-140 -146 0
-140 -147 0
-140 -148 0
-141 -142 0
-141 -143 0
-141 -144 0
-141 -145 0
-141 -146 0
-141 -147 0
-141 -148 0
-142 -143 0
-142 -144 0
-142 -145 0
-142 -146 0
-142 -147 0
-142 -148 0
-143 -144 0
-143 -145 0
-143 -146 0
-143 -147 0
-143 -148 0
-144 -145 0
-144 -146 0
-144 -147 0
-144 -148 0
-145 -146 0
-145 -147 0
-145 -148 0
-146 -147 0
-146 -148 0
-147 -148 0
149 150 151 152 153 154 155 156 157 158 159 0
-149 -150 0
-149 -151 0
-149 -152 0
-149 -153 0
-149 -154 0
-149 -155 0
-149 -156 0
-149 -157 0
-149 -158 0
-149 -159 0
-150 -151 0
-150 -152 0
-150 -153 0
-150 -154 0
-150 -155 0
-150 -156 0
-150 -157 0
-150 -158 0
-150 -159 0
-151 -152 0
-151 -153 0
-151 -154 0
-151 -155 0
-151 -156 0
-151 -157 0
-151 -158 0
-151 -159 0
-152 -153 0
-152 -154 0
-152 -155 0
-152 -156 0
-152 -157 0
-152 -158 0
-152 -159 0
-153 -154 0
-153 -155 0
-153 -156 0
-153 -157 0
-153 -158 0
-153 -159 0
-154 -155 0
-154 -156 0
-154 -157 0
-154 -158 0
-154 -159 0
-155 -156 0
-155 -157 0
-155 -158 0
-155 -159 0
-156 -157 0
-156 -158 0
-156 -159 0
-157 -158 0
-157 -159 0
-158 -159 0
-138 -149 0
-139 -149 0
-139 -150 0
-140 -149 0
-140 -150 0
-140 -151 0
-141 -149 0
-141 -150 0
-141 -151 0
-141 -152 0
-142 -149 0
-142 -150 0
-142 -151 0
-142 -152 0
-142 -153 0
-143 -149 0
-143 -150 0
-143 -151 0
-143 -152 0
-143 -153 0
-143 -154 0
-144 -149 0
-144 -150 0
-144 -151 0
-144 -152 0
-144 -153 0
-144 -154 0
-144 -155 0
-145 -149 0
-145 -150 0
-145 -151 0
-145 -152 0
-145 -153 0
-145 -154 0
-145 -155 0
-145 -156 0
-146 -149 0
-146 -150 0
-146 -151 0
-146 -152 0
-146 -153 0
-146 -154 0
-146 -155 0
-146 -156 0
-146 -157 0
-147 -149 0
-147 -150 0
-147 -151 0
-147 -152 0
-147 -153 0
-147 -154 0
-147 -155 0
-147 -156 0
-147 -157 0
-147 -158 0
-148 -149 0
-148 -150 0
-148 -151 0
-148 -152 0
-148 -153 0
-148 -154 0
-148 -155 0
-148 -156 0
-148 -157 0
-148 -158 0
-148 -159 0
-138 -150 -1 -10 -160 0
-138 -150 -1 10 160 0
-138 -150 1 -10 160 0
-138 -150 1 10 -160 0
-138 -150 -2 -11 -161 0
-138 -150 -2 11 161 0
-138 -150 2 -11 161 0
-138 -150 2 11 -161 0
-138 -150 -3 -12 -162 0
-138 -150 -3 12 162 0
-138 -150 3 -12 162 0
-138 -150 3 12 -162 0
-138 -150 -4 -13 -163 0
-138 -150 -4 13 163 0
-138 -150 4 -13 163 0
-138 -150 4 13 -163 0
-138 -150 -5 -14 -164 0
-138 -150 -5 14 164 0
-138 -150 5 -14 164 0
-138 -150 5 14 -164 0
-138 -150 -6 -15 -165 0
-138 -150 -6 15 165 0
-138 -150 6 -15 165 0
-138 -150 6 15 -165 0
-138 -150 -7 -16 -166 0
-138 -150 -7 16 166 0
-138 -150 7 -16 166 0
-138 -150 7 16 -166 0
-138 -150 -8 -17 -167 0
-138 -150 -8 17 167 0
-138 -150 8 -17 167 0
-138 -150 8 17 -167 0
-138 -150 -9 -18 -168 0
-138 -150 -9 18 168 0
-138 -150 9 -18 168 0
-138 -150 9 18 -168 0
-138 -151 -1 -19 -160 0
-138 -151 -1 19 160 0
-138 -151 1 -19 160 0
-138 -151 1 19 -160 0
-138 -151 -2 -20 -161 0
-138 -151 -2 20 161 0
-138 -151 2 -20 161 0
-138 -151 2 20 -161 0
-138 -151 -3 -21 -162 0
-138 -151 -3 21 162 0
-138 -151 3 -21 162 0
-138 -151 3 21 -162 0
-138 -151 -4 -22 -163 0
-138 -151 -4 22 163 0
-138 -151 4 -22 163 0
-138 -151 4 22 -163 0
-138 -151 -5 -23 -164 0
-138 -151 -5 23 164 0
-138 -151 5 -23 164 0
-138 -151 5 23 -164 0
-138 -151 -6 -24 -165 0
-138 -151 -6 24 165 0
-138 -151 6 -24 165 0
-138 -151 6 24 -165 0
-138 -151 -7 -25 -166 0
-138 -151 -7 25 166 0
-138 -151 7 -25 166 0
-138 -151 7 25 -166 0
-138 -151 -8 -26 -167 0
-138 -151 -8 26 167 0
-138 -151 8 -26 167 0
-138 -151 8 26 -167 0
-138 -151 -9 -27 -168 0
-138 -151 -9 27 168 0
-138 -151 9 -27 168 0
-138 -151 9 27 -168 0
-138 -152 -1 -28 -160 0
-138 -152 -1 28 160 0
-138 -152 1 -28 160 0
-138 -152 1 28 -160 0
-138 -152 -2 -29 -161 0
-138 -152 -2 29 161 0
-138 -152 2 -29 161 0
-138 -152 2 29 -161 0
-138 -152 -3 -30 -162 0
-138 -152 -3 30 162 0
-138 -152 3 -30 162 0
-138 -152 3 30 -162 0
-138 -152 -4 -31 -163 0
-138 -152 -4 31 163 0
-138 -152 4 -31 163 0
-138 -152 4 31 -163 0
-138 -152 -5 -32 -164 0
-138 -152 -5 32 164 0
-138 -152 5 -32 164 0
-138 -152 5 32 -164 0
-138 -152 -6 -33 -165 0
-138 -152 -6 33 165 0
-138 -152 6 -33 165 0
-138 -152 6 33 -165 0
-138 -152 -7 -34 -166 0
-138 -152 -7 34 166 0
-138 -152 7 -34 166 0
-138 -152 7 34 -166 0
-138 -152 -8 -35 -167 0
-138 -152 -8 35 167 0
-138 -152 8 -35 167 0
-138 -152 8 35 -167 0
-138 -152 -9 -36 -168 0
-138 -152 -9 36 168 0
-138 -152 9 -36 168 0
-138 -152 9 36 -168 0
-138 -153 -1 -37 -160 0
-138 -153 -1 37 160 0
-138 -153 1 -37 160 0
-138 -153 1 37 -160 0
-138 -153 -2 -38 -161 0
-138 -153 -2 38 161 0
-138 -153 2 -38 161 0
-138 -153 2 38 -161 0
-138 -153 -3 -39 -162 0
-138 -153 -3 39 162 0
-138 -153 3 -39 162 0
-138 -153 3 39 -162 0
-138 -153 -4 -40 -163 0
-138 -153 -4 40 163 0
-138 -153 4 -40 163 0
-138 -153 4 40 -163 0
-138 -153 -5 -41 -164 0
-138 -153 -5 41 164 0
-138 -153 5 -41 164 0
-138 -153 5 41 -164 0
-138 -153 -6 -42 -165 0
-138 -153 -6 42 165 0
-138 -153 6 -42 165 0
-138 -153 6 42 -165 0
-138 -153 -7 -43 -166 0
-138 -153 -7 43 166 0
-138 -153 7 -43 166 0
-138 -153 7 43 -166 0
-138 -153 -8 -44 -167 0
-138 -153 -8 44 167 0
-138 -153 8 -44 167 0
-138 -153 8 44 -167 0
-138 -153 -9 -45 -168 0
-138 -153 -9 45 168 0
-138 -153 9 -45 168 0
-138 -153 9 45 -168 0
-138 -154 -1 -46 -160 0
-138 -154 -1 46 160 0
-138 -154 1 -46 160 0
-138 -154 1 46 -160 0
-138 -154 -2 -47 -161 0
-138 -154 -2 47 161 0
-138 -154 2 -47 161 0
-138 -154 2 47 -161 0
-138 -154 -3 -48 -162 0
-138 -154 -3 48 162 0
-138 -154 3 -48 162 0
-138 -154 3 48 -162 0
-138 -154 -4 -49 -163 0
-138 -154 -4 49 163 0
-138 -154 4 -49 163 0
-138 -154 4 49 -163 0
-138 -154 -5 -50 -164 0
-138 -154 -5 50 164 0
-138 -154 5 -50 164 0
-138 -154 5 50 -164 0
-138 -154 -6 -51 -165 0
-138 -154 -6 51 165 0
-138 -154 6 -51 165 0
-138 -154 6 51 -165 0
-138 -154 -7 -52 -166 0
-138 -154 -7 52 166 0
-138 -154 7 -52 166 0
-138 -154 7 52 -166 0
-138 -154 -8 -53 -167 0
-138 -154 -8 53 167 0
-138 -154 8 -53 167 0
-138 -154 8 53 -167 0
-138 -154 -9 -54 -168 0
-138 -154 -9 54 168 0
-138 -154 9 -54 168 0
-138 -154 9 54 -168 0
-138 -155 -1 -55 -160 0
-138 -155 -1 55 160 0
-138 -155 1 -55 160 0
-138 -155 1 55 -160 0
-138 -155 -2 -56 -161 0
-138 -155 -2 56 161 0
-138 -155 2 -56 161 0
-138 -155 2 56 -161 0
-138 -155 -3 -57 -162 0
-138 -155 -3 57 162 0
-138 -155 3 -57 162 0
-138 -155 3 57 -162 0
-138 -155 -4 -58 -163 0
-138 -155 -4 58 163 0
-138 -155 4 -58 163 0
-138 -155 4 58 -163 0
-138 -155 -5 -59 -164 0
-138 -155 -5 59 164 0
-138 -155 5 -59 164 0
-138 -155 5 59 -164 0
-138 -155 -6 -60 -165 0
-138 -155 -6 60 165 0
-138 -155 6 -60 165 0
-138 -155 6 60 -165 0
-138 -155 -7 -61 -166 0
-138 -155 -7 61 166 0
-138 -155 7 -61 166 0
-138 -155 7 61 -166 0
-138 -155 -8 -62 -167 0
-138 -155 -8 62 167 0
-138 -155 8 -62 167 0
-138 -155 8 62 -167 0
-138 -155 -9 -63 -168 0
-138 -155 -9 63 168 0
-138 -155 9 -63 168 0
-138 -155 9 63 -168 0
-138 -156 -1 -64 -160 0
-138 -156 -1 64 160 0
-138 -156 1 -64 160 0
-138 -156 1 64 -160 0
-138 -156 -2 -65 -161 0
-138 -156 -2 65 161 0
-138 -156 2 -65 161 0
-138 -156 2 65 -161 0
-138 -156 -3 -66 -162 0
-138 -156 -3 66 162 0
-138 -156 3 -66 162 0
-138 -156 3 66 -162 0
-138 -156 -4 -67 -163 0
-138 -156 -4 67 163 0
-138 -156 4 -67 163 0
-138 -156 4 67 -163 0
-138 -156 -5 -68 -164 0
-138 -156 -5 68 164 0
-138 -156 5 -68 164 0
-138 -156 5 68 -164 0
-138 -156 -6 -69 -165 0
-138 -156 -6 69 165 0
-138 -156 6 -69 165 0
-138 -156 6 69 -165 0
-138 -156 -7 -70 -166 0
-138 -156 -7 70 166 0
-138 -156 7 -70 166 0
-138 -156 7 70 -166 0
-138 -156 -8 -71 -167 0
-138 -156 -8 71 167 0
-138 -156 8 -71 167 0
-138 -156 8 71 -167 0
-138 -156 -9 -72 -168 0
-138 -156 -9 72 168 0
-138 -156 9 -72 168 0
-138 -156 9 72 -168 0
-138 -157 -1 -73 -160 0
-138 -157 -1 73 160 0
-138 -157 1 -73 160 0
-138 -157 1 73 -160 0
-138 -157 -2 -74 -161 0
-138 -157 -2 74 161 0
-138 -157 2 -74 161 0
-138 -157 2 74 -161 0
-138 -157 -3 -75 -162 0
-138 -157 -3 75 162 0
-138 -157 3 -75 162 0
-138 -157 3 75 -162 0
-138 -157 -4 -76 -163 0
-138 -157 -4 76 163 0
-138 -157 4 -76 163 0
-138 -157 4 76 -163 0
-138 -157 -5 -77 -164 0
-138 -157 -5 77 164 0
-138 -157 5 -77 164 0
-138 -157 5 77 -164 0
-138 -157 -6 -78 -165 0
-138 -157 -6 78 165 0
-138 -157 6 -78 165 0
-138 -157 6 78 -165 0
-138 -157 -7 -79 -166 0
-138 -157 -7 79 166 0
-138 -157 7 -79 166 0
-138 -157 7 79 -166 0
-138 -157 -8 -80 -167 0
-138 -157 -8 80 167 0
-138 -157 8 -80 167 0
-138 -157 8 80 -167 0
-138 -157 -9 -81 -168 0
-138 -157 -9 81 168 0
-138 -157 9 -81 168 0
-138 -157 9 81 -168 0
-138 -158 -1 -100 -160 0
-138 -158 -1 100 160 0
-138 -158 1 -100 160 0
-138 -158 1 100 -160 0
-138 -158 -2 -101 -161 0
-138 -158 -2 101 161 0
-138 -158 2 -101 161 0
-138 -158 2 101 -161 0
-138 -158 -3 -102 -162 0
-138 -158 -3 102 162 0
-138 -158 3 -102 162 0
-138 -158 3 102 -162 0
-138 -158 -4 -103 -163 0
-138 -158 -4 103 163 0
-138 -158 4 -103 163 0
-138 -158 4 103 -163 0
-138 -158 -5 -104 -164 0
-138 -158 -5 104 164 0
-138 -158 5 -104 164 0
-138 -158 5 104 -164 0
-138 -158 -6 -105 -165 0
-138 -158 -6 105 165 0
-138 -158 6 -105 165 0
-138 -158 6 105 -165 0
-138 -158 -7 -106 -166 0
-138 -158 -7 106 166 0
-138 -158 7 -106 166 0
-138 -158 7 106 -166 0
-138 -158 -8 -107 -167 0
-138 -158 -8 107 167 0
-138 -158 8 -107 167 0
-138 -158 8 107 -167 0
-138 -158 -9 -108 -168 0
-138 -158 -9 108 168 0
-138 -158 9 -108 168 0
-138 -158 9 108 -168 0
-138 -159 -1 -129 -160 0
-138 -159 -1 129 160 0
-138 -159 1 -129 160 0
-138 -159 1 129 -160 0
-138 -159 -2 -130 -161 0
-138 -159 -2 130 161 0
-138 -159 2 -130 161 0
-138 -159 2 130 -161 0
-138 -159 -3 -131 -162 0
-138 -159 -3 131 162 0
-138 -159 3 -131 162 0
-138 -159 3 131 -162 0
-138 -159 -4 -132 -163 0
-138 -159 -4 132 163 0
-138 -159 4 -132 163 0
-138 -159 4 132 -163 0
-138 -159 -5 -133 -164 0
-138 -159 -5 133 164 0
-138 -159 5 -133 164 0
-138 -159 5 133 -164 0
-138 -159 -6 -134 -165 0
-138 -159 -6 134 165 0
-138 -159 6 -134 165 0
-138 -159 6 134 -165 0
-138 -159 -7 -135 -166 0
-138 -159 -7 135 166 0
-138 -159 7 -135 166 0
-138 -159 7 135 -166 0
-138 -159 -8 -136 -167 0
-138 -159 -8 136 167 0
-138 -159 8 -136 167 0
-138 -159 8 136 -167 0
-138 -159 -9 -137 -168 0
-138 -159 -9 137 168 0
-138 -159 9 -137 168 0
-138 -159 9 137 -168 0
-139 -151 -10 -19 -160 0
-139 -151 -10 19 160 0
-139 -151 10 -19 160 0
-139 -151 10 19 -160 0
-139 -151 -11 -20 -161 0
-139 -151 -11 20 161 0
-139 -151 11 -20 161 0
-139 -151 11 20 -161 0
-139 -151 -12 -21 -162 0
-139 -151 -12 21 162 0
-139 -151 12 -21 162 0
-139 -151 12 21 -162 0
-139 -151 -13 -22 -163 0
-139 -151 -13 22 163 0
-139 -151 13 -22 163 0
-139 -151 13 22 -163 0
-139 -151 -14 -23 -164 0
-139 -151 -14 23 164 0
-139 -151 14 -23 164 0
-139 -151 14 23 -164 0
-139 -151 -15 -24 -165 0
-139 -151 -15 24 165 0
-139 -151 15 -24 165 0
-139 -151 15 24 -165 0
-139 -151 -16 -25 -166 0
-139 -151 -16 25 166 0
-139 -151 16 -25 166 0
-139 -151 16 25 -166 0
-139 -151 -17 -26 -167 0
-139 -151 -17 26 167 0
-139 -151 17 -26 167 0
-139 -151 17 26 -167 0
-139 -151 -18 -27 -168 0
-139 -151 -18 27 168 0
-139 -151 18 -27 168 0
-139 -151 18 27 -168 0
-139 -152 -10 -28 -160 0
-139 -152 -10 28 160 0
-139 -152 10 -28 160 0
-139 -152 10 28 -160 0
-139 -152 -11 -29 -161 0
-139 -152 -11 29 161 0
-139 -152 11 -29 161 0
-139 -152 11 29 -161 0
-139 -152 -12 -30 -162 0
-139 -152 -12 30 162 0
-139 -152 12 -30 162 0
-139 -152 12 30 -162 0
-139 -152 -13 -31 -163 0
-139 -152 -13 31 163 0
-139 -152 13 -31 163 0
-139 -152 13 31 -163 0
-139 -152 -14 -32 -164 0
-139 -152 -14 32 164 0
-139 -152 14 -32 164 0
-139 -152 14 32 -164 0
-139 -152 -15 -33 -165 0
-139 -152 -15 33 165 0
-139 -152 15 -33 165 0
-139 -152 15 33 -165 0
-139 -152 -16 -34 -166 0
-139 -152 -16 34 166 0
-139 -152 16 -34 166 0
-139 -152 16 34 -166 0
-139 -152 -17 -35 -167 0
-139 -152 -17 35 167 0
-139 -152 17 -35 167 0
-139 -152 17 35 -167 0
-139 -152 -18 -36 -168 0
-139 -152 -18 36 168 0
-139 -152 18 -36 168 0
-139 -152 18 36 -168 0
-139 -153 -10 -37 -160 0
-139 -153 -10 37 160 0
-139 -153 10 -37 160 0
-139 -153 10 37 -160 0
-139 -153 -11 -38 -161 0
-139 -153 -11 38 161 0
-139 -153 11 -38 161 0
-139 -153 11 38 -161 0
-139 -153 -12 -39 -162 0
-139 -153 -12 39 162 0
-139 -153 12 -39 162 0
-139 -153 12 39 -162 0
-139 -153 -13 -40 -163 0
-139 -153 -13 40 163 0
-139 -153 13 -40 163 0
-139 -153 13 40 -163 0
-139 -153 -14 -41 -164 0
-139 -153 -14 41 164 0
-139 -153 14 -41 164 0
-139 -153 14 41 -164 0
-139 -153 -15 -42 -165 0
-139 -153 -15 42 165 0
-139 -153 15 -42 165 0
-139 -153 15 42 -165 0
-139 -153 -16 -43 -166 0
-139 -153 -16 43 166 0
-139 -153 16 -43 166 0
-139 -153 16 43 -166 0
-139 -153 -17 -44 -167 0
-139 -153 -17 44 167 0
-139 -153 17 -44 167 0
-139 -153 17 44 -167 0
-139 -153 -18 -45 -168 0
-139 -153 -18 45 168 0
-139 -153 18 -45 168 0
-139 -153 18 45 -168 0
-139 -154 -10 -46 -160 0
-139 -154 -10 46 160 0
-139 -154 10 -46 160 0
-139 -154 10 46 -160 0
-139 -154 -11 -47 -161 0
-139 -154 -11 47 161 0
-139 -154 11 -47 161 0
-139 -154 11 47 -161 0
-139 -154 -12 -48 -162 0
-139 -154 -12 48 162 0
-139 -154 12 -48 162 0
-139 -154 12 48 -162 0
-139 -154 -13 -49 -163 0
-139 -154 -13 49 163 0
-139 -154 13 -49 163 0
-139 -154 13 49 -163 0
-139 -154 -14 -50 -164 0
-139 -154 -14 50 164 0
-139 -154 14 -50 164 0
-139 -154 14 50 -164 0
-139 -154 -15 -51 -165 0
-139 -154 -15 51 165 0
-139 -154 15 -51 165 0
-139 -154 15 51 -165 0
-139 -154 -16 -52 -166 0
-139 -154 -16 52 166 0
-139 -154 16 -52 166 0
-139 -154 16 52 -166 0
-139 -154 -17 -53 -167 0
-139 -154 -17 53 167 0
-139 -154 17 -53 167 0
-139 -154 17 53 -167 0
-139 -154 -18 -54 -168 0
-139 -154 -18 54 168 0
-139 -154 18 -54 168 0
-139 -154 18 54 -168 0
-139 -155 -10 -55 -160 0
-139 -155 -10 55 160 0
-139 -155 10 -55 160 0
-139 -155 10 55 -160 0
-139 -155 -11 -56 -161 0
-139 -155 -11 56 161 0
-139 -155 11 -56 161 0
-139 -155 11 56 -161 0
-139 -155 -12 -57 -162 0
-139 -155 -12 57 162 0
-139 -155 12 -57 162 0
-139 -155 12 57 -162 0
-139 -155 -13 -58 -163 0
-139 -155 -13 58 163 0
-139 -155 13 -58 163 0
-139 -155 13 58 -163 0
-139 -155 -14 -59 -164 0
-139 -155 -14 59 164 0
-139 -155 14 -59 164 0
-139 -155 14 59 -164 0
-139 -155 -15 -60 -165 0
-139 -155 -15 60 165 0
-139 -155 15 -60 165 0
-139 -155 15 60 -165 0
-139 -155 -16 -61 -166 0
-139 -155 -16 61 166 0
-139 -155 16 -61 166 0
-139 -155 16 61 -166 0
-139 -155 -17 -62 -167 0
-139 -155 -17 62 167 0
-139 -155 17 -62 167 0
-139 -155 17 62 -167 0
-139 -155 -18 -63 -168 0
-139 -155 -18 63 168 0
-139 -155 18 -63 168 0
-139 -155 18 63 -168 0
-139 -156 -10 -64 -160 0
-139 -156 -10 64 160 0
-139 -156 10 -64 160 0
-139 -156 10 64 -160 0
-139 -156 -11 -65 -161 0
-139 -156 -11 65 161 0
-139 -156 11 -65 161 0
-139 -156 11 65 -161 0
-139 -156 -12 -66 -162 0
-139 -156 -12 66 162 0
-139 -156 12 -66 162 0
-139 -156 12 66 -162 0
-139 -156 -13 -67 -163 0
-139 -156 -13 67 163 0
-139 -156 13 -67 163 0
-139 -156 13 67 -163 0
-139 -156 -14 -68 -164 0
-139 -156 -14 68 164 0
-139 -156 14 -68 164 0
-139 -156 14 68 -164 0
-139 -156 -15 -69 -165 0
-139 -156 -15 69 165 0
-139 -156 15 -69 165 0
-139 -156 15 69 -165 0
-139 -156 -16 -70 -166 0
-139 -156 -16 70 166 0
-139 -156 16 -70 166 0
-139 -156 16 70 -166 0
-139 -156 -17 -71 -167 0
-139 -156 -17 71 167 0
-139 -156 17 -71 167 0
-139 -156 17 71 -167 0
-139 -156 -18 -72 -168 0
-139 -156 -18 72 168 0
-139 -156 18 -72 168 0
-139 -156 18 72 -168 0
-139 -157 -10 -73 -160 0
-139 -157 -10 73 160 0
-139 -157 10 -73 160 0
-139 -157 10 73 -160 0
-139 -157 -11 -74 -161 0
-139 -157 -11 74 161 0
-139 -157 11 -74 161 0
-139 -157 11 74 -161 0
-139 -157 -12 -75 -162 0
-139 -157 -12 75 162 0
-139 -157 12 -75 162 0
-139 -157 12 75 -162 0
-139 -157 -13 -76 -163 0
-139 -157 -13 76 163 0
-139 -157 13 -76 163 0
-139 -157 13 76 -163 0
-139 -157 -14 -77 -164 0
-139 -157 -14 77 164 0
-139 -157 14 -77 164 0
-139 -157 14 77 -164 0
-139 -157 -15 -78 -165 0
-139 -157 -15 78 165 0
-139 -157 15 -78 165 0
-139 -157 15 78 -165 0
-139 -157 -16 -79 -166 0
-139 -157 -16 79 166 0
-139 -157 16 -79 166 0
-139 -157 16 79 -166 0
-139 -157 -17 -80 -167 0
-139 -157 -17 80 167 0
-139 -157 17 -80 167 0
-139 -157 17 80 -167 0
-139 -157 -18 -81 -168 0
-139 -157 -18 81 168 0
-139 -157 18 -81 168 0
-139 -157 18 81 -168 0
-139 -158 -10 -100 -160 0
-139 -158 -10 100 160 0
-139 -158 10 -100 160 0
-139 -158 10 100 -160 0
-139 -158 -11 -101 -161 0
-139 -158 -11 101 161 0
-139 -158 11 -101 161 0
-139 -158 11 101 -161 0
-139 -158 -12 -102 -162 0
-139 -158 -12 102 162 0
-139 -158 12 -102 162 0
-139 -158 12 102 -162 0
-139 -158 -13 -103 -163 0
-139 -158 -13 103 163 0
-139 -158 13 -103 163 0
-139 -158 13 103 -163 0
-139 -158 -14 -104 -164 0
-139 -158 -14 104 164 0
-139 -158 14 -104 164 0
-139 -158 14 104 -164 0
-139 -158 -15 -105 -165 0
-139 -158 -15 105 165 0
-139 -158 15 -105 165 0
-139 -158 15 105 -165 0
-139 -158 -16 -106 -166 0
-139 -158 -16 106 166 0
-139 -158 16 -106 166 0
-139 -158 16 106 -166 0
-139 -158 -17 -107 -167 0
-139 -158 -17 107 167 0
-139 -158 17 -107 167 0
-139 -158 17 107 -167 0
-139 -158 -18 -108 -168 0
-139 -158 -18 108 168 0
-139 -158 18 -108 168 0
-139 -158 18 108 -168 0
-139 -159 -10 -129 -160 0
-139 -159 -10 129 160 0
-139 -159 10 -129 160 0
-139 -159 10 129 -160 0
-139 -159 -11 -130 -161 0
-139 -159 -11 130 161 0
-139 -159 11 -130 161 0
-139 -159 11 130 -161 0
-139 -159 -12 -131 -162 0
-139 -159 -12 131 162 0
-139 -159 12 -131 162 0
-139 -159 12 131 -162 0
-139 -159 -13 -132 -163 0
-139 -159 -13 132 163 0
-139 -159 13 -132 163 0
-139 -159 13 132 -163 0
-139 -159 -14 -133 -164 0
-139 -159 -14 133 164 0
-139 -159 14 -133 164 0
-139 -159 14 133 -164 0
-139 -159 -15 -134 -165 0
-139 -159 -15 134 165 0
-139 -159 15 -134 165 0
-139 -159 15 134 -165 0
-139 -159 -16 -135 -166 0
-139 -159 -16 135 166 0
-139 -159 16 -135 166 0
-139 -159 16 135 -166 0
-139 -159 -17 -136 -167 0
-139 -159 -17 136 167 0
-139 -159 17 -136 167 0
-139 -159 17 136 -167 0
-139 -159 -18 -137 -168 0
-139 -159 -18 137 168 0
-139 -159 18 -137 168 0
-139 -159 18 137 -168 0
-140 -152 -19 -28 -160 0
-140 -152 -19 28 160 0
-140 -152 19 -28 160 0
-140 -152 19 28 -160 0
-140 -152 -20 -29 -161 0
-140 -152 -20 29 161 0
-140 -152 20 -29 161 0
-140 -152 20 29 -161 0
-140 -152 -21 -30 -162 0
-140 -152 -21 30 162 0
-140 -152 21 -30 162 0
-140 -152 21 30 -162 0
-140 -152 -22 -31 -163 0
-140 -152 -22 31 163 0
-140 -152 22 -31 163 0
-140 -152 22 31 -163 0
-140 -152 -23 -32 -164 0
-140 -152 -23 32 164 0
-140 -152 23 -32 164 0
-140 -152 23 32 -164 0
-140 -152 -24 -33 -165 0
-140 -152 -24 33 165 0
-140 -152 24 -33 165 0
-140 -152 24 33 -165 0
-140 -152 -25 -34 -166 0
-140 -152 -25 34 166 0
-140 -152 25 -34 166 0
-140 -152 25 34 -166 0
-140 -152 -26 -35 -167 0
-140 -152 -26 35 167 0
-140 -152 26 -35 167 0
-140 -152 26 35 -167 0
-140 -152 -27 -36 -168 0
-140 -152 -27 36 168 0
-140 -152 27 -36 168 0
-140 -152 27 36 -168 0
-140 -153 -19 -37 -160 0
-140 -153 -19 37 160 0
-140 -153 19 -37 160 0
-140 -153 19 37 -160 0
-140 -153 -20 -38 -161 0
-140 -153 -20 38 161 0
-140 -153 20 -38 161 0
-140 -153 20 38 -161 0
-140 -153 -21 -39 -162 0
-140 -153 -21 39 162 0
-140 -153 21 -39 162 0
-140 -153 21 39 -162 0
-140 -153 -22 -40 -163 0
-140 -153 -22 40 163 0
-140 -153 22 -40 163 0
-140 -153 22 40 -163 0
-140 -153 -23 -41 -164 0
-140 -153 -23 41 164 0
-140 -153 23 -41 164 0
-140 -153 23 41 -164 0
-140 -153 -24 -42 -165 0
-140 -153 -24 42 165 0
-140 -153 24 -42 165 0
-140 -153 24 42 -165 0
-140 -153 -25 -43 -166 0
-140 -153 -25 43 166 0
-140 -153 25 -43 166 0
-140 -153 25 43 -166 0
-140 -153 -26 -44 -167 0
-140 -153 -26 44 167 0
-140 -153 26 -44 167 0
-140 -153 26 44 -167 0
-140 -153 -27 -45 -168 0
-140 -153 -27 45 168 0
-140 -153 27 -45 168 0
-140 -153 27 45 -168 0
-140 -154 -19 -46 -160 0
-140 -154 -19 46 160 0
-140 -154 19 -46 160 0
-140 -154 19 46 -160 0
-140 -154 -20 -47 -161 0
-140 -154 -20 47 161 0
-140 -154 20 -47 161 0
-140 -154 20 47 -161 0
-140 -154 -21 -48 -162 0
-140 -154 -21 48 162 0
-140 -154 21 -48 162 0
-140 -154 21 48 -162 0
-140 -154 -22 -49 -163 0
-140 -154 -22 49 163 0
-140 -154 22 -49 163 0
-140 -154 22 49 -163 0
-140 -154 -23 -50 -164 0
-140 -154 -23 50 164 0
-140 -154 23 -50 164 0
-140 -154 23 50 -164 0
-140 -154 -24 -51 -165 0
-140 -154 -24 51 165 0
-140 -154 24 -51 165 0
-140 -154 24 51 -165 0
-140 -154 -25 -52 -166 0
-140 -154 -25 52 166 0
-140 -154 25 -52 166 0
-140 -154 25 52 -166 0
-140 -154 -26 -53 -167 0
-140 -154 -26 53 167 0
-140 -154 26 -53 167 0
-140 -154 26 53 -167 0
-140 -154 -27 -54 -168 0
-140 -154 -27 54 168 0
-140 -154 27 -54 168 0
-140 -154 27 54 -168 0
-140 -155 -19 -55 -160 0
-140 -155 -19 55 160 0
-140 -155 19 -55 160 0
-140 -155 19 55 -160 0
-140 -155 -20 -56 -161 0
-140 -155 -20 56 161 0
-140 -155 20 -56 161 0
-140 -155 20 56 -161 0
-140 -155 -21 -57 -162 0
-140 -155 -21 57 162 0
-140 -155 21 -57 162 0
-140 -155 21 57 -162 0
-140 -155 -22 -58 -163 0
-140 -155 -22 58 163 0
-140 -155 22 -58 163 0
-140 -155 22 58 -163 0
-140 -155 -23 -59 -164 0
-140 -155 -23 59 164 0
-140 -155 23 -59 164 0
-140 -155 23 59 -164 0
-140 -155 -24 -60 -165 0
-140 -155 -24 60 165 0
-140 -155 24 -60 165 0
-140 -155 24 60 -165 0
-140 -155 -25 -61 -166 0
-140 -155 -25 61 166 0
-140 -155 25 -61 166 0
-140 -155 25 61 -166 0
-140 -155 -26 -62 -167 0
-140 -155 -26 62 167 0
-140 -155 26 -62 167 0
-140 -155 26 62 -167 0
-140 -155 -27 -63 -168 0
-140 -155 -27 63 168 0
-140 -155 27 -63 168 0
-140 -155 27 63 -168 0
-140 -156 -19 -64 -160 0
-140 -156 -19 64 160 0
-140 -156 19 -64 160 0
-140 -156 19 64 -160 0
-140 -156 -20 -65 -161 0
-140 -156 -20 65 161 0
-140 -156 20 -65 161 0
-140 -156 20 65 -161 0
-140 -156 -21 -66 -162 0
-140 -156 -21 66 162 0
-140 -156 21 -66 162 0
-140 -156 21 66 -162 0
-140 -156 -22 -67 -163 0
-140 -156 -22 67 163 0
-140 -156 22 -67 163 0
-140 -156 22 67 -163 0
-140 -156 -23 -68 -164 0
-140 -156 -23 68 164 0
-140 -156 23 -68 164 0
-140 -156 23 68 -164 0
-140 -156 -24 -69 -165 0
-140 -156 -24 69 165 0
-140 -156 24 -69 165 0
-140 -156 24 69 -165 0
-140 -156 -25 -70 -166 0
-140 -156 -25 70 166 0
-140 -156 25 -70 166 0
-140 -156 25 70 -166 0
-140 -156 -26 -71 -167 0
-140 -156 -26 71 167 0
-140 -156 26 -71 167 0
-140 -156 26 71 -167 0
-140 -156 -27 -72 -168 0
-140 -156 -27 72 168 0
-140 -156 27 -72 168 0
-140 -156 27 72 -168 0
-140 -157 -19 -73 -160 0
-140 -157 -19 73 160 0
-140 -157 19 -73 160 0
-140 -157 19 73 -160 0
-140 -157 -20 -74 -161 0
-140 -157 -20 74 161 0
-140 -157 20 -74 161 0
-140 -157 20 74 -161 0
-140 -157 -21 -75 -162 0
-140 -157 -21 75 162 0
-140 -157 21 -75 162 0
-140 -157 21 75 -162 0
-140 -157 -22 -76 -163 0
-140 -157 -22 76 163 0
-140 -157 22 -76 163 0
-140 -157 22 76 -163 0
-140 -157 -23 -77 -164 0
-140 -157 -23 77 164 0
-140 -157 23 -77 164 0
-140 -157 23 77 -164 0
-140 -157 -24 -78 -165 0
-140 -157 -24 78 165 0
-140 -157 24 -78 165 0
-140 -157 24 78 -165 0
-140 -157 -25 -79 -166 0
-140 -157 -25 79 166 0
-140 -157 25 -79 166 0
-140 -157 25 79 -166 0
-140 -157 -26 -80 -167 0
-140 -157 -26 80 167 0
-140 -157 26 -80 167 0
-140 -157 26 80 -167 0
-140 -157 -27 -81 -168 0
-140 -157 -27 81 168 0
-140 -157 27 -81 168 0
-140 -157 27 81 -168 0
-140 -158 -19 -100 -160 0
-140 -158 -19 100 160 0
-140 -158 19 -100 160 0
-140 -158 19 100 -160 0
-140 -158 -20 -101 -161 0
-140 -158 -20 101 161 0
-140 -158 20 -101 161 0
-140 -158 20 101 -161 0
-140 -158 -21 -102 -162 0
-140 -158 -21 102 162 0
-140 -158 21 -102 162 0
-140 -158 21 102 -162 0
-140 -158 -22 -103 -163 0
-140 -158 -22 103 163 0
-140 -158 22 -103 163 0
-140 -158 22 103 -163 0
-140 -158 -23 -104 -164 0
-140 -158 -23 104 164 0
-140 -158 23 -104 164 0
-140 -158 23 104 -164 0
-140 -158 -24 -105 -165 0
-140 -158 -24 105 165 0
-140 -158 24 -105 165 0
-140 -158 24 105 -165 0
-140 -158 -25 -106 -166 0
-140 -158 -25 106 166 0
-140 -158 25 -106 166 0
-140 -158 25 106 -166 0
-140 -158 -26 -107 -167 0
-140 -158 -26 107 167 0
-140 -158 26 -107 167 0
-140 -158 26 107 -167 0
-140 -158 -27 -108 -168 0
-140 -158 -27 108 168 0
-140 -158 27 -108 168 0
-140 -158 27 108 -168 0
-140 -159 -19 -129 -160 0
-140 -159 -19 129 160 0
-140 -159 19 -129 160 0
-140 -159 19 129 -160 0
-140 -159 -20 -130 -161 0
-140 -159 -20 130 161 0
-140 -159 20 -130 161 0
-140 -159 20 130 -161 0
-140 -159 -21 -131 -162 0
-140 -159 -21 131 162 0
-140 -159 21 -131 162 0
-140 -159 21 131 -162 0
-140 -159 -22 -132 -163 0
-140 -159 -22 132 163 0
-140 -159 22 -132 163 0
-140 -159 22 132 -163 0
-140 -159 -23 -133 -164 0
-140 -159 -23 133 164 0
-140 -159 23 -133 164 0
-140 -159 23 133 -164 0
-140 -159 -24 -134 -165 0
-140 -159 -24 134 165 0
-140 -159 24 -134 165 0
-140 -159 24 134 -165 0
-140 -159 -25 -135 -166 0
-140 -159 -25 135 166 0
-140 -159 25 -135 166 0
-140 -159 25 135 -166 0
-140 -159 -26 -136 -167 0
-140 -159 -26 136 167 0
-140 -159 26 -136 167 0
-140 -159 26 136 -167 0
-140 -159 -27 -137 -168 0
-140 -159 -27 137 168 0
-140 -159 27 -137 168 0
-140 -159 27 137 -168 0
-141 -153 -28 -37 -160 0
-141 -153 -28 37 160 0
-141 -153 28 -37 160 0
-141 -153 28 37 -160 0
-141 -153 -29 -38 -161 0
-141 -153 -29 38 161 0
-141 -153 29 -38 161 0
-141 -153 29 38 -161 0
-141 -153 -30 -39 -162 0
-141 -153 -30 39 162 0
-141 -153 30 -39 162 0
-141 -153 30 39 -162 0
-141 -153 -31 -40 -163 0
-141 -153 -31 40 163 0
-141 -153 31 -40 163 0
-141 -153 31 40 -163 0
-141 -153 -32 -41 -164 0
-141 -153 -32 41 164 0
-141 -153 32 -41 164 0
-141 -153 32 41 -164 0
-141 -153 -33 -42 -165 0
-141 -153 -33 42 165 0
-141 -153 33 -42 165 0
-141 -153 33 42 -165 0
-141 -153 -34 -43 -166 0
-141 -153 -34 43 166 0
-141 -153 34 -43 166 0
-141 -153 34 43 -166 0
-141 -153 -35 -44 -167 0
-141 -153 -35 44 167 0
-141 -153 35 -44 167 0
-141 -153 35 44 -167 0
-141 -153 -36 -45 -168 0
-141 -153 -36 45 168 0
-141 -153 36 -45 168 0
-141 -153 36 45 -168 0
-141 -154 -28 -46 -160 0
-141 -154 -28 46 160 0
-141 -154 28 -46 160 0
-141 -154 28 46 -160 0
-141 -154 -29 -47 -161 0
-141 -154 -29 47 161 0
-141 -154 29 -47 161 0
-141 -154 29 47 -161 0
-141 -154 -30 -48 -162 0
-141 -154 -30 48 162 0
-141 -154 30 -48 162 0
-141 -154 30 48 -162 0
-141 -154 -31 -49 -163 0
-141 -154 -31 49 163 0
-141 -154 31 -49 163 0
-141 -154 31 49 -163 0
-141 -154 -32 -50 -164 0
-141 -154 -32 50 164 0
-141 -154 32 -50 164 0
-141 -154 32 50 -164 0
-141 -154 -33 -51 -165 0
-141 -154 -33 51 165 0
-141 -154 33 -51 165 0
-141 -154 33 51 -165 0
-141 -154 -34 -52 -166 0
-141 -154 -34 52 166 0
-141 -154 34 -52 166 0
-141 -154 34 52 -166 0
-141 -154 -35 -53 -167 0
-141 -154 -35 53 167 0
-141 -154 35 -53 167 0
-141 -154 35 53 -167 0
-141 -154 -36 -54 -168 0
-141 -154 -36 54 168 0
-141 -154 36 -54 168 0
-141 -154 36 54 -168 0
-141 -155 -28 -55 -160 0
-141 -155 -28 55 160 0
-141 -155 28 -55 160 0
-141 -155 28 55 -160 0
-141 -155 -29 -56 -161 0
-141 -155 -29 56 161 0
-141 -155 29 -56 161 0
-141 -155 29 56 -161 0
-141 -155 -30 -57 -162 0
-141 -155 -30 57 162 0
-141 -155 30 -57 162 0
-141 -155 30 57 -162 0
-141 -155 -31 -58 -163 0
-141 -155 -31 58 163 0
-141 -155 31 -58 163 0
-141 -155 31 58 -163 0
-141 -155 -32 -59 -164 0
-141 -155 -32 59 164 0
-141 -155 32 -59 164 0
-141 -155 32 59 -164 0
-141 -155 -33 -60 -165 0
-141 -155 -33 60 165 0
-141 -155 33 -60 165 0
-141 -155 33 60 -165 0
-141 -155 -34 -61 -166 0
-141 -155 -34 61 166 0
-141 -155 34 -61 166 0
-141 -155 34 61 -166 0
-141 -155 -35 -62 -167 0
-141 -155 -35 62 167 0
-141 -155 35 -62 167 0
-141 -155 35 62 -167 0
-141 -155 -36 -63 -168 0
-141 -155 -36 63 168 0
-141 -155 36 -63 168 0
-141 -155 36 63 -168 0
-141 -156 -28 -64 -160 0
-141 -156 -28 64 160 0
-141 -156 28 -64 160 0
-141 -156 28 64 -160 0
-141 -156 -29 -65 -161 0
-141 -156 -29 65 161 0
-141 -156 29 -65 161 0
-141 -156 29 65 -161 0
-141 -156 -30 -66 -162 0
-141 -156 -30 66 162 0
-141 -156 30 -66 162 0
-141 -156 30 66 -162 0
-141 -156 -31 -67 -163 0
-141 -156 -31 67 163 0
-141 -156 31 -67 163 0
-141 -156 31 67 -163 0
-141 -156 -32 -68 -164 0
-141 -156 -32 68 164 0
-141 -156 32 -68 164 0
-141 -156 32 68 -164 0
-141 -156 -33 -69 -165 0
-141 -156 -33 69 165 0
-141 -156 33 -69 165 0
-141 -156 33 69 -165 0
-141 -156 -34 -70 -166 0
-141 -156 -34 70 166 0
-141 -156 34 -70 166 0
-141 -156 34 70 -166 0
-141 -156 -35 -71 -167 0
-141 -156 -35 71 167 0
-141 -156 35 -71 167 0
-141 -156 35 71 -167 0
-141 -156 -36 -72 -168 0
-141 -156 -36 72 168 0
-141 -156 36 -72 168 0
-141 -156 36 72 -168 0
-141 -157 -28 -73 -160 0
-141 -157 -28 73 160 0
-141 -157 28 -73 160 0
-141 -157 28 73 -160 0
-141 -157 -29 -74 -161 0
-141 -157 -29 74 161 0
-141 -157 29 -74 161 0
-141 -157 29 74 -161 0
-141 -157 -30 -75 -162 0
-141 -157 -30 75 162 0
-141 -157 30 -75 162 0
-141 -157 30 75 -162 0
-141 -157 -31 -76 -163 0
-141 -157 -31 76 163 0
-141 -157 31 -76 163 0
-141 -157 31 76 -163 0
-141 -157 -32 -77 -164 0
-141 -157 -32 77 164 0
-141 -157 32 -77 164 0
-141 -157 32 77 -164 0
-141 -157 -33 -78 -165 0
-141 -157 -33 78 165 0
-141 -157 33 -78 165 0
-141 -157 33 78 -165 0
-141 -157 -34 -79 -166 0
-141 -157 -34 79 166 0
-141 -157 34 -79 166 0
-141 -157 34 79 -166 0
-141 -157 -35 -80 -167 0
-141 -157 -35 80 167 0
-141 -157 35 -80 167 0
-141 -157 35 80 -167 0
-141 -157 -36 -81 -168 0
-141 -157 -36 81 168 0
-141 -157 36 -81 168 0
-141 -157 36 81 -168 0
-141 -158 -28 -100 -160 0
-141 -158 -28 100 160 0
-141 -158 28 -100 160 0
-141 -158 28 100 -160 0
-141 -158 -29 -101 -161 0
-141 -158 -29 101 161 0
-141 -158 29 -101 161 0
-141 -158 29 101 -161 0
-141 -158 -30 -102 -162 0
-141 -158 -30 102 162 0
-141 -158 30 -102 162 0
-141 -158 30 102 -162 0
-141 -158 -31 -103 -163 0
-141 -158 -31 103 163 0
-141 -158 31 -103 163 0
-141 -158 31 103 -163 0
-141 -158 -32 -104 -164 0
-141 -158 -32 104 164 0
-141 -158 32 -104 164 0
-141 -158 32 104 -164 0
-141 -158 -33 -105 -165 0
-141 -158 -33 105 165 0
-141 -158 33 -105 165 0
-141 -158 33 105 -165 0
-141 -158 -34 -106 -166 0
-141 -158 -34 106 166 0
-141 -158 34 -106 166 0
-141 -158 34 106 -166 0
-141 -158 -35 -107 -167 0
-141 -158 -35 107 167 0
-141 -158 35 -107 167 0
-141 -158 35 107 -167 0
-141 -158 -36 -108 -168 0
-141 -158 -36 108 168 0
-141 -158 36 -108 168 0
-141 -158 36 108 -168 0
-141 -159 -28 -129 -160 0
-141 -159 -28 129 160 0
-141 -159 28 -129 160 0
-141 -159 28 129 -160 0
-141 -159 -29 -130 -161 0
-141 -159 -29 130 161 0
-141 -159 29 -130 161 0
-141 -159 29 130 -161 0
-141 -159 -30 -131 -162 0
-141 -159 -30 131 162 0
-141 -159 30 -131 162 0
-141 -159 30 131 -162 0
-141 -159 -31 -132 -163 0
-141 -159 -31 132 163 0
-141 -159 31 -132 163 0
-141 -159 31 132 -163 0
-141 -159 -32 -133 -164 0
-141 -159 -32 133 164 0
-141 -159 32 -133 164 0
-141 -159 32 133 -164 0
-141 -159 -33 -134 -165 0
-141 -159 -33 134 165 0
-141 -159 33 -134 165 0
-141 -159 33 134 -165 0
-141 -159 -34 -135 -166 0
-141 -159 -34 135 166 0
-141 -159 34 -135 166 0
-141 -159 34 135 -166 0
-141 -159 -35 -136 -167 0
-141 -159 -35 136 167 0
-141 -159 35 -136 167 0
-141 -159 35 136 -167 0
-141 -159 -36 -137 -168 0
-141 -159 -36 137 168 0
-141 -159 36 -137 168 0
-141 -159 36 137 -168 0
-142 -154 -37 -46 -160 0
-142 -154 -37 46 160 0
-142 -154 37 -46 160 0
-142 -154 37 46 -160 0
-142 -154 -38 -47 -161 0
-142 -154 -38 47 161 0
-142 -154 38 -47 161 0
-142 -154 38 47 -161 0
-142 -154 -39 -48 -162 0
-142 -154 -39 48 162 0
-142 -154 39 -48 162 0
-142 -154 39 48 -162 0
-142 -154 -40 -49 -163 0
-142 -154 -40 49 163 0
-142 -154 40 -49 163 0
-142 -154 40 49 -163 0
-142 -154 -41 -50 -164 0
-142 -154 -41 50 164 0
-142 -154 41 -50 164 0
-142 -154 41 50 -164 0
-142 -154 -42 -51 -165 0
-142 -154 -42 51 165 0
-142 -154 42 -51 165 0
-142 -154 42 51 -165 0
-142 -154 -43 -52 -166 0
-142 -154 -43 52 166 0
-142 -154 43 -52 166 0
-142 -154 43 52 -166 0
-142 -154 -44 -53 -167 0
-142 -154 -44 53 167 0
-142 -154 44 -53 167 0
-142 -154 44 53 -167 0
-142 -154 -45 -54 -168 0
-142 -154 -45 54 168 0
-142 -154 45 -54 168 0
-142 -154 45 54 -168 0
-142 -155 -37 -55 -160 0
-142 -155 -37 55 160 0
-142 -155 37 -55 160 0
-142 -155 37 55 -160 0
-142 -155 -38 -56 -161 0
-142 -155 -38 56 161 0
-142 -155 38 -56 161 0
-142 -155 38 56 -161 0
-142 -155 -39 -57 -162 0
-142 -155 -39 57 162 0
-142 -155 39 -57 162 0
-142 -155 39 57 -162 0
-142 -155 -40 -58 -163 0
-142 -155 -40 58 163 0
-142 -155 40 -58 163 0
-142 -155 40 58 -163 0
-142 -155 -41 -59 -164 0
-142 -155 -41 59 164 0
-142 -155 41 -59 164 0
-142 -155 41 59 -164 0
-142 -155 -42 -60 -165 0
-142 -155 -42 60 165 0
-142 -155 42 -60 165 0
-142 -155 42 60 -165 0
-142 -155 -43 -61 -166 0
-142 -155 -43 61 166 0
-142 -155 43 -61 166 0
-142 -155 43 61 -166 0
-142 -155 -44 -62 -167 0
-142 -155 -44 62 167 0
-142 -155 44 -62 167 0
-142 -155 44 62 -167 0
-142 -155 -45 -63 -168 0
-142 -155 -45 63 168 0
-142 -155 45 -63 168 0
-142 -155 45 63 -168 0
-142 -156 -37 -64 -160 0
-142 -156 -37 64 160 0
-142 -156 37 -64 160 0
-142 -156 37 64 -160 0
-142 -156 -38 -65 -161 0
-142 -156 -38 65 161 0
-142 -156 38 -65 161 0
-142 -156 38 65 -161 0
-142 -156 -39 -66 -162 0
-142 -156 -39 66 162 0
-142 -156 39 -66 162 0
-142 -156 39 66 -162 0
-142 -156 -40 -67 -163 0
-142 -156 -40 67 163 0
-142 -156 40 -67 163 0
-142 -156 40 67 -163 0
-142 -156 -41 -68 -164 0
-142 -156 -41 68 164 0
-142 -156 41 -68 164 0
-142 -156 41 68 -164 0
-142 -156 -42 -69 -165 0
-142 -156 -42 69 165 0
-142 -156 42 -69 165 0
-142 -156 42 69 -165 0
-142 -156 -43 -70 -166 0
-142 -156 -43 70 166 0
-142 -156 43 -70 166 0
-142 -156 43 70 -166 0
-142 -156 -44 -71 -167 0
-142 -156 -44 71 167 0
-142 -156 44 -71 167 0
-142 -156 44 71 -167 0
-142 -156 -45 -72 -168 0
-142 -156 -45 72 168 0
-142 -156 45 -72 168 0
-142 -156 45 72 -168 0
-142 -157 -37 -73 -160 0
-142 -157 -37 73 160 0
-142 -157 37 -73 160 0
-142 -157 37 73 -160 0
-142 -157 -38 -74 -161 0
-142 -157 -38 74 161 0
-142 -157 38 -74 161 0
-142 -157 38 74 -161 0
-142 -157 -39 -75 -162 0
-142 -157 -39 75 162 0
-142 -157 39 -75 162 0
-142 -157 39 75 -162 0
-142 -157 -40 -76 -163 0
-142 -157 -40 76 163 0
-142 -157 40 -76 163 0
-142 -157 40 76 -163 0
-142 -157 -41 -77 -164 0
-142 -157 -41 77 164 0
-142 -157 41 -77 164 0
-142 -157 41 77 -164 0
-142 -157 -42 -78 -165 0
-142 -157 -42 78 165 0
-142 -157 42 -78 165 0
-142 -157 42 78 -165 0
-142 -157 -43 -79 -166 0
-142 -157 -43 79 166 0
-142 -157 43 -79 166 0
-142 -157 43 79 -166 0
-142 -157 -44 -80 -167 0
-142 -157 -44 80 167 0
-142 -157 44 -80 167 0
-142 -157 44 80 -167 0
-142 -157 -45 -81 -168 0
-142 -157 -45 81 168 0
-142 -157 45 -81 168 0
-142 -157 45 81 -168 0
-142 -158 -37 -100 -160 0
-142 -158 -37 100 160 0
-142 -158 37 -100 160 0
-142 -158 37 100 -160 0
-142 -158 -38 -101 -161 0
-142 -158 -38 101 161 0
-142 -158 38 -101 161 0
-142 -158 38 101 -161 0
-142 -158 -39 -102 -162 0
-142 -158 -39 102 162 0
-142 -158 39 -102 162 0
-142 -158 39 102 -162 0
-142 -158 -40 -103 -163 0
-142 -158 -40 103 163 0
-142 -158 40 -103 163 0
-142 -158 40 103 -163 0
-142 -158 -41 -104 -164 0
-142 -158 -41 104 164 0
-142 -158 41 -104 164 0
-142 -158 41 104 -164 0
-142 -158 -42 -105 -165 0
-142 -158 -42 105 165 0
-142 -158 42 -105 165 0
-142 -158 42 105 -165 0
-142 -158 -43 -106 -166 0
-142 -158 -43 106 166 0
-142 -158 43 -106 166 0
-142 -158 43 106 -166 0
-142 -158 -44 -107 -167 0
-142 -158 -44 107 167 0
-142 -158 44 -107 167 0
-142 -158 44 107 -167 0
-142 -158 -45 -108 -168 0
-142 -158 -45 108 168 0
-142 -158 45 -108 168 0
-142 -158 45 108 -168 0
-142 -159 -37 -129 -160 0
-142 -159 -37 129 160 0
-142 -159 37 -129 160 0
-142 -159 37 129 -160 0
-142 -159 -38 -130 -161 0
-142 -159 -38 130 161 0
-142 -159 38 -130 161 0
-142 -159 38 130 -161 0
-142 -159 -39 -131 -162 0
-142 -159 -39 131 162 0
-142 -159 39 -131 162 0
-142 -159 39 131 -162 0
-142 -159 -40 -132 -163 0
-142 -159 -40 132 163 0
-142 -159 40 -132 163 0
-142 -159 40 132 -163 0
-142 -159 -41 -133 -164 0
-142 -159 -41 133 164 0
-142 -159 41 -133 164 0
-142 -159 41 133 -164 0
-142 -159 -42 -134 -165 0
-142 -159 -42 134 165 0
-142 -159 42 -134 165 0
-142 -159 42 134 -165 0
-142 -159 -43 -135 -166 0
-142 -159 -43 135 166 0
-142 -159 43 -135 166 0
-142 -159 43 135 -166 0
-142 -159 -44 -136 -167 0
-142 -159 -44 136 167 0
-142 -159 44 -136 167 0
-142 -159 44 136 -167 0
-142 -159 -45 -137 -168 0
-142 -159 -45 137 168 0
-142 -159 45 -137 168 0
-142 -159 45 137 -168 0
-143 -155 -46 -55 -160 0
-143 -155 -46 55 160 0
-143 -155 46 -55 160 0
-143 -155 46 55 -160 0
-143 -155 -47 -56 -161 0
-143 -155 -47 56 161 0
-143 -155 47 -56 161 0
-143 -155 47 56 -161 0
-143 -155 -48 -57 -162 0
-143 -155 -48 57 162 0
-143 -155 48 -57 162 0
-143 -155 48 57 -162 0
-143 -155 -49 -58 -163 0
-143 -155 -49 58 163 0
-143 -155 49 -58 163 0
-143 -155 49 58 -163 0
-143 -155 -50 -59 -164 0
-143 -155 -50 59 164 0
-143 -155 50 -59 164 0
-143 -155 50 59 -164 0
-143 -155 -51 -60 -165 0
-143 -155 -51 60 165 0
-143 -155 51 -60 165 0
-143 -155 51 60 -165 0
-143 -155 -52 -61 -166 0
-143 -155 -52 61 166 0
-143 -155 52 -61 166 0
-143 -155 52 61 -166 0
-143 -155 -53 -62 -167 0
-143 -155 -53 62 167 0
-143 -155 53 -62 167 0
-143 -155 53 62 -167 0
-143 -155 -54 -63 -168 0
-143 -155 -54 63 168 0
-143 -155 54 -63 168 0
-143 -155 54 63 -168 0
-143 -156 -46 -64 -160 0
-143 -156 -46 64 160 0
-143 -156 46 -64 160 0
-143 -156 46 64 -160 0
-143 -156 -47 -65 -161 0
-143 -156 -47 65 161 0
-143 -156 47 -65 161 0
-143 -156 47 65 -161 0
-143 -156 -48 -66 -162 0
-143 -156 -48 66 162 0
-143 -156 48 -66 162 0
-143 -156 48 66 -162 0
-143 -156 -49 -67 -163 0
-143 -156 -49 67 163 0
-143 -156 49 -67 163 0
-143 -156 49 67 -163 0
-143 -156 -50 -68 -164 0
-143 -156 -50 68 164 0
-143 -156 50 -68 164 0
-143 -156 50 68 -164 0
-143 -156 -51 -69 -165 0
-143 -156 -51 69 165 0
-143 -156 51 -69 165 0
-143 -156 51 69 -165 0
-143 -156 -52 -70 -166 0
-143 -156 -52 70 166 0
-143 -156 52 -70 166 0
-143 -156 52 70 -166 0
-143 -156 -53 -71 -167 0
-143 -156 -53 71 167 0
-143 -156 53 -71 167 0
-143 -156 53 71 -167 0
-143 -156 -54 -72 -168 0
-143 -156 -54 72 168 0
-143 -156 54 -72 168 0
-143 -156 54 72 -168 0
-143 -157 -46 -73 -160 0
-143 -157 -46 73 160 0
-143 -157 46 -73 160 0
-143 -157 46 73 -160 0
-143 -157 -47 -74 -161 0
-143 -157 -47 74 161 0
-143 -157 47 -74 161 0
-143 -157 47 74 -161 0
-143 -157 -48 -75 -162 0
-143 -157 -48 75 162 0
-143 -157 48 -75 162 0
-143 -157 48 75 -162 0
-143 -157 -49 -76 -163 0
-143 -157 -49 76 163 0
-143 -157 49 -76 163 0
-143 -157 49 76 -163 0
-143 -157 -50 -77 -164 0
-143 -157 -50 77 164 0
-143 -157 50 -77 164 0
-143 -157 50 77 -164 0
-143 -157 -51 -78 -165 0
-143 -157 -51 78 165 0
-143 -157 51 -78 165 0
-143 -157 51 78 -165 0
-143 -157 -52 -79 -166 0
-143 -157 -52 79 166 0
-143 -157 52 -79 166 0
-143 -157 52 79 -166 0
-143 -157 -53 -80 -167 0
-143 -157 -53 80 167 0
-143 -157 53 -80 167 0
-143 -157 53 80 -167 0
-143 -157 -54 -81 -168 0
-143 -157 -54 81 168 0
-143 -157 54 -81 168 0
-143 -157 54 81 -168 0
-143 -158 -46 -100 -160 0
-143 -158 -46 100 160 0
-143 -158 46 -100 160 0
-143 -158 46 100 -160 0
-143 -158 -47 -101 -161 0
-143 -158 -47 101 161 0
-143 -158 47 -101 161 0
-143 -158 47 101 -161 0
-143 -158 -48 -102 -162 0
-143 -158 -48 102 162 0
-143 -158 48 -102 162 0
-143 -158 48 102 -162 0
-143 -158 -49 -103 -163 0
-143 -158 -49 103 163 0
-143 -158 49 -103 163 0
-143 -158 49 103 -163 0
-143 -158 -50 -104 -164 0
-143 -158 -50 104 164 0
-143 -158 50 -104 164 0
-143 -158 50 104 -164 0
-143 -158 -51 -105 -165 0
-143 -158 -51 105 165 0
-143 -158 51 -105 165 0
-143 -158 51 105 -165 0
-143 -158 -52 -106 -166 0
-143 -158 -52 106 166 0
-143 -158 52 -106 166 0
-143 -158 52 106 -166 0
-143 -158 -53 -107 -167 0
-143 -158 -53 107 167 0
-143 -158 53 -107 167 0
-143 -158 53 107 -167 0
-143 -158 -54 -108 -168 0
-143 -158 -54 108 168 0
-143 -158 54 -108 168 0
-143 -158 54 108 -168 0
-143 -159 -46 -129 -160 0
-143 -159 -46 129 160 0
-143 -159 46 -129 160 0
-143 -159 46 129 -160 0
-143 -159 -47 -130 -161 0
-143 -159 -47 130 161 0
-143 -159 47 -130 161 0
-143 -159 47 130 -161 0
-143 -159 -48 -131 -162 0
-143 -159 -48 131 162 0
-143 -159 48 -131 162 0
-143 -159 48 131 -162 0
-143 -159 -49 -132 -163 0
-143 -159 -49 132 163 0
-143 -159 49 -132 163 0
-143 -159 49 132 -163 0
-143 -159 -50 -133 -164 0
-143 -159 -50 133 164 0
-143 -159 50 -133 164 0
-143 -159 50 133 -164 0
-143 -159 -51 -134 -165 0
-143 -159 -51 134 165 0
-143 -159 51 -134 165 0
-143 -159 51 134 -165 0
-143 -159 -52 -135 -166 0
-143 -159 -52 135 166 0
-143 -159 52 -135 166 0
-143 -159 52 135 -166 0
-143 -159 -53 -136 -167 0
-143 -159 -53 136 167 0
-143 -159 53 -136 167 0
-143 -159 53 136 -167 0
-143 -159 -54 -137 -168 0
-143 -159 -54 137 168 0
-143 -159 54 -137 168 0
-143 -159 54 137 -168 0
-144 -156 -55 -64 -160 0
-144 -156 -55 64 160 0
-144 -156 55 -64 160 0
-144 -156 55 64 -160 0
-144 -156 -56 -65 -161 0
-144 -156 -56 65 161 0
-144 -156 56 -65 161 0
-144 -156 56 65 -161 0
-144 -156 -57 -66 -162 0
-144 -156 -57 66 162 0
-144 -156 57 -66 162 0
-144 -156 57 66 -162 0
-144 -156 -58 -67 -163 0
-144 -156 -58 67 163 0
-144 -156 58 -67 163 0
-144 -156 58 67 -163 0
-144 -156 -59 -68 -164 0
-144 -156 -59 68 164 0
-144 -156 59 -68 164 0
-144 -156 59 68 -164 0
-144 -156 -60 -69 -165 0
-144 -156 -60 69 165 0
-144 -156 60 -69 165 0
-144 -156 60 69 -165 0
-144 -156 -61 -70 -166 0
-144 -156 -61 70 166 0
-144 -156 61 -70 166 0
-144 -156 61 70 -166 0
-144 -156 -62 -71 -167 0
-144 -156 -62 71 167 0
-144 -156 62 -71 167 0
-144 -156 62 71 -167 0
-144 -156 -63 -72 -168 0
-144 -156 -63 72 168 0
-144 -156 63 -72 168 0
-144 -156 63 72 -168 0
-144 -157 -55 -73 -160 0
-144 -157 -55 73 160 0
-144 -157 55 -73 160 0
-144 -157 55 73 -160 0
-144 -157 -56 -74 -161 0
-144 -157 -56 74 161 0
-144 -157 56 -74 161 0
-144 -157 56 74 -161 0
-144 -157 -57 -75 -162 0
-144 -157 -57 75 162 0
-144 -157 57 -75 162 0
-144 -157 57 75 -162 0
-144 -157 -58 -76 -163 0
-144 -157 -58 76 163 0
-144 -157 58 -76 163 0
-144 -157 58 76 -163 0
-144 -157 -59 -77 -164 0
-144 -157 -59 77 164 0
-144 -157 59 -77 164 0
-144 -157 59 77 -164 0
-144 -157 -60 -78 -165 0
-144 -157 -60 78 165 0
-144 -157 60 -78 165 0
-144 -157 60 78 -165 0
-144 -157 -61 -79 -166 0
-144 -157 -61 79 166 0
-144 -157 61 -79 166 0
-144 -157 61 79 -166 0
-144 -157 -62 -80 -167 0
-144 -157 -62 80 167 0
-144 -157 62 -80 167 0
-144 -157 62 80 -167 0
-144 -157 -63 -81 -168 0
-144 -157 -63 81 168 0
-144 -157 63 -81 168 0
-144 -157 63 81 -168 0
-144 -158 -55 -100 -160 0
-144 -158 -55 100 160 0
-144 -158 55 -100 160 0
-144 -158 55 100 -160 0
-144 -158 -56 -101 -161 0
-144 -158 -56 101 161 0
-144 -158 56 -101 161 0
-144 -158 56 101 -161 0
-144 -158 -57 -102 -162 0
-144 -158 -57 102 162 0
-144 -158 57 -102 162 0
-144 -158 57 102 -162 0
-144 -158 -58 -103 -163 0
-144 -158 -58 103 163 0
-144 -158 58 -103 163 0
-144 -158 58 103 -163 0
-144 -158 -59 -104 -164 0
-144 -158 -59 104 164 0
-144 -158 59 -104 164 0
-144 -158 59 104 -164 0
-144 -158 -60 -105 -165 0
-144 -158 -60 105 165 0
-144 -158 60 -105 165 0
-144 -158 60 105 -165 0
-144 -158 -61 -106 -166 0
-144 -158 -61 106 166 0
-144 -158 61 -106 166 0
-144 -158 61 106 -166 0
-144 -158 -62 -107 -167 0
-144 -158 -62 107 167 0
-144 -158 62 -107 167 0
-144 -158 62 107 -167 0
-144 -158 -63 -108 -168 0
-144 -158 -63 108 168 0
-144 -158 63 -108 168 0
-144 -158 63 108 -168 0
-144 -159 -55 -129 -160 0
-144 -159 -55 129 160 0
-144 -159 55 -129 160 0
-144 -159 55 129 -160 0
-144 -159 -56 -130 -161 0
-144 -159 -56 130 161 0
-144 -159 56 -130 161 0
-144 -159 56 130 -161 0
-144 -159 -57 -131 -162 0
-144 -159 -57 131 162 0
-144 -159 57 -131 162 0
-144 -159 57 131 -162 0
-144 -159 -58 -132 -163 0
-144 -159 -58 132 163 0
-144 -159 58 -132 163 0
-144 -159 58 132 -163 0
-144 -159 -59 -133 -164 0
-144 -159 -59 133 164 0
-144 -159 59 -133 164 0
-144 -159 59 133 -164 0
-144 -159 -60 -134 -165 0
-144 -159 -60 134 165 0
-144 -159 60 -134 165 0
-144 -159 60 134 -165 0
-144 -159 -61 -135 -166 0
-144 -159 -61 135 166 0
-144 -159 61 -135 166 0
-144 -159 61 135 -166 0
-144 -159 -62 -136 -167 0
-144 -159 -62 136 167 0
-144 -159 62 -136 167 0
-144 -159 62 136 -167 0
-144 -159 -63 -137 -168 0
-144 -159 -63 137 168 0
-144 -159 63 -137 168 0
-144 -159 63 137 -168 0
-145 -157 -64 -73 -160 0
-145 -157 -64 73 160 0
-145 -157 64 -73 160 0
-145 -157 64 73 -160 0
-145 -157 -65 -74 -161 0
-145 -157 -65 74 161 0
-145 -157 65 -74 161 0
-145 -157 65 74 -161 0
-145 -157 -66 -75 -162 0
-145 -157 -66 75 162 0
-145 -157 66 -75 162 0
-145 -157 66 75 -162 0
-145 -157 -67 -76 -163 0
-145 -157 -67 76 163 0
-145 -157 67 -76 163 0
-145 -157 67 76 -163 0
-145 -157 -68 -77 -164 0
-145 -157 -68 77 164 0
-145 -157 68 -77 164 0
-145 -157 68 77 -164 0
-145 -157 -69 -78 -165 0
-145 -157 -69 78 165 0
-145 -157 69 -78 165 0
-145 -157 69 78 -165 0
-145 -157 -70 -79 -166 0
-145 -157 -70 79 166 0
-145 -157 70 -79 166 0
-145 -157 70 79 -166 0
-145 -157 -71 -80 -167 0
-145 -157 -71 80 167 0
-145 -157 71 -80 167 0
-145 -157 71 80 -167 0
-145 -157 -72 -81 -168 0
-145 -157 -72 81 168 0
-145 -157 72 -81 168 0
-145 -157 72 81 -168 0
-145 -158 -64 -100 -160 0
-145 -158 -64 100 160 0
-145 -158 64 -100 160 0
-145 -158 64 100 -160 0
-145 -158 -65 -101 -161 0
-145 -158 -65 101 161 0
-145 -158 65 -101 161 0
-145 -158 65 101 -161 0
-145 -158 -66 -102 -162 0
-145 -158 -66 102 162 0
-145 -158 66 -102 162 0
-145 -158 66 102 -162 0
-145 -158 -67 -103 -163 0
-145 -158 -67 103 163 0
-145 -158 67 -103 163 0
-145 -158 67 103 -163 0
-145 -158 -68 -104 -164 0
-145 -158 -68 104 164 0
-145 -158 68 -104 164 0
-145 -158 68 104 -164 0
-145 -158 -69 -105 -165 0
-145 -158 -69 105 165 0
-145 -158 69 -105 165 0
-145 -158 69 105 -165 0
-145 -158 -70 -106 -166 0
-145 -158 -70 106 166 0
-145 -158 70 -106 166 0
-145 -158 70 106 -166 0
-145 -158 -71 -107 -167 0
-145 -158 -71 107 167 0
-145 -158 71 -107 167 0
-145 -158 71 107 -167 0
-145 -158 -72 -108 -168 0
-145 -158 -72 108 168 0
-145 -158 72 -108 168 0
-145 -158 72 108 -168 0
-145 -159 -64 -129 -160 0
-145 -159 -64 129 160 0
-145 -159 64 -129 160 0
-145 -159 64 129 -160 0
-145 -159 -65 -130 -161 0
-145 -159 -65 130 161 0
-145 -159 65 -130 161 0
-145 -159 65 130 -161 0
-145 -159 -66 -131 -162 0
-145 -159 -66 131 162 0
-145 -159 66 -131 162 0
-145 -159 66 131 -162 0
-145 -159 -67 -132 -163 0
-145 -159 -67 132 163 0
-145 -159 67 -132 163 0
-145 -159 67 132 -163 0
-145 -159 -68 -133 -164 0
-145 -159 -68 133 164 0
-145 -159 68 -133 164 0
-145 -159 68 133 -164 0
-145 -159 -69 -134 -165 0
-145 -159 -69 134 165 0
-145 -159 69 -134 165 0
-145 -159 69 134 -165 0
-145 -159 -70 -135 -166 0
-145 -159 -70 135 166 0
-145 -159 70 -135 166 0
-145 -159 70 135 -166 0
-145 -159 -71 -136 -167 0
-145 -159 -71 136 167 0
-145 -159 71 -136 167 0
-145 -159 71 136 -167 0
-145 -159 -72 -137 -168 0
-145 -159 -72 137 168 0
-145 -159 72 -137 168 0
-145 -159 72 137 -168 0
-146 -158 -73 -100 -160 0
-146 -158 -73 100 160 0
-146 -158 73 -100 160 0
-146 -158 73 100 -160 0
-146 -158 -74 -101 -161 0
-146 -158 -74 101 161 0
-146 -158 74 -101 161 0
-146 -158 74 101 -161 0
-146 -158 -75 -102 -162 0
-146 -158 -75 102 162 0
-146 -158 75 -102 162 0
-146 -158 75 102 -162 0
-146 -158 -76 -103 -163 0
-146 -158 -76 103 163 0
-146 -158 76 -103 163 0
-146 -158 76 103 -163 0
-146 -158 -77 -104 -164 0
-146 -158 -77 104 164 0
-146 -158 77 -104 164 0
-146 -158 77 104 -164 0
-146 -158 -78 -105 -165 0
-146 -158 -78 105 165 0
-146 -158 78 -105 165 0
-146 -158 78 105 -165 0
-146 -158 -79 -106 -166 0
-146 -158 -79 106 166 0
-146 -158 79 -106 166 0
-146 -158 79 106 -166 0
-146 -158 -80 -107 -167 0
-146 -158 -80 107 167 0
-146 -158 80 -107 167 0
-146 -158 80 107 -167 0
-146 -158 -81 -108 -168 0
-146 -158 -81 108 168 0
-146 -158 81 -108 168 0
-146 -158 81 108 -168 0
-146 -159 -73 -129 -160 0
-146 -159 -73 129 160 0
-146 -159 73 -129 160 0
-146 -159 73 129 -160 0
-146 -159 -74 -130 -161 0
-146 -159 -74 130 161 0
-146 -159 74 -130 161 0
-146 -159 74 130 -161 0
-146 -159 -75 -131 -162 0
-146 -159 -75 131 162 0
-146 -159 75 -131 162 0
-146 -159 75 131 -162 0
-146 -159 -76 -132 -163 0
-146 -159 -76 132 163 0
-146 -159 76 -132 163 0
-146 -159 76 132 -163 0
-146 -159 -77 -133 -164 0
-146 -159 -77 133 164 0
-146 -159 77 -133 164 0
-146 -159 77 133 -164 0
-146 -159 -78 -134 -165 0
-146 -159 -78 134 165 0
-146 -159 78 -134 165 0
-146 -159 78 134 -165 0
-146 -159 -79 -135 -166 0
-146 -159 -79 135 166 0
-146 -159 79 -135 166 0
-146 -159 79 135 -166 0
-146 -159 -80 -136 -167 0
-146 -159 -80 136 167 0
-146 -159 80 -136 167 0
-146 -159 80 136 -167 0
-146 -159 -81 -137 -168 0
-146 -159 -81 137 168 0
-146 -159 81 -137 168 0
-146 -159 81 137 -168 0
-147 -159 -100 -129 -160 0
-147 -159 -100 129 160 0
-147 -159 100 -129 160 0
-147 -159 100 129 -160 0
-147 -159 -101 -130 -161 0
-147 -159 -101 130 161 0
-147 -159 101 -130 161 0
-147 -159 101 130 -161 0
-147 -159 -102 -131 -162 0
-147 -159 -102 131 162 0
-147 -159 102 -131 162 0
-147 -159 102 131 -162 0
-147 -159 -103 -132 -163 0
-147 -159 -103 132 163 0
-147 -159 103 -132 163 0
-147 -159 103 132 -163 0
-147 -159 -104 -133 -164 0
-147 -159 -104 133 164 0
-147 -159 104 -133 164 0
-147 -159 104 133 -164 0
-147 -159 -105 -134 -165 0
-147 -159 -105 134 165 0
-147 -159 105 -134 165 0
-147 -159 105 134 -165 0
-147 -159 -106 -135 -166 0
-147 -159 -106 135 166 0
-147 -159 106 -135 166 0
-147 -159 106 135 -166 0
-147 -159 -107 -136 -167 0
-147 -159 -107 136 167 0
-147 -159 107 -136 167 0
-147 -159 107 136 -167 0
-147 -159 -108 -137 -168 0
-147 -159 -108 137 168 0
-147 -159 108 -137 168 0
-147 -159 108 137 -168 0
160 161 162 163 164 165 166 167 168 0
169 170 171 172 173 174 175 176 177 178 179 180 0
-169 -170 0
-169 -171 0
-169 -172 0
-169 -173 0
-169 -174 0
-169 -175 0
-169 -176 0
-169 -177 0
-169 -178 0
-169 -179 0
-169 -180 0
-170 -171 0
-170 -172 0
-170 -173 0
-170 -174 0
-170 -175 0
-170 -176 0
-170 -177 0
-170 -178 0
-170 -179 0
-170 -180 0
-171 -172 0
-171 -173 0
-171 -174 0
-171 -175 0
-171 -176 0
-171 -177 0
-171 -178 0
-171 -179 0
-171 -180 0
-172 -173 0
-172 -174 0
-172 -175 0
-172 -176 0
-172 -177 0
-172 -178 0
-172 -179 0
-172 -180 0
-173 -174 0
-173 -175 0
-173 -176 0
-173 -177 0
-173 -178 0
-173 -179 0
-173 -180 0
-174 -175 0
-174 -176 0
-174 -177 0
-174 -178 0
-174 -179 0
-174 -180 0
-175 -176 0
-175 -177 0
-175 -178 0
-175 -179 0
-175 -180 0
-176 -177 0
-176 -178 0
-176 -179 0
-176 -180 0
-177 -178 0
-177 -179 0
-177 -180 0
-178 -179 0
-178 -180 0
-179 -180 0
181 182 183 184 185 186 187 188 189 190 191 192 0
-181 -182 0
-181 -183 0
-181 -184 0
-181 -185 0
-181 -186 0
-181 -187 0
-181 -188 0
-181 -189 0
-181 -190 0
-181 -191 0
-181 -192 0
-182 -183 0
-182 -184 0
-182 -185 0
-182 -186 0
-182 -187 0
-182 -188 0
-182 -189 0
-182 -190 0
-182 -191 0
-182 -192 0
-183 -184 0
-183 -185 0
-183 -186 0
-183 -187 0
-183 -188 0
-183 -189 0
-183 -190 0
-183 -191 0
-183 -192 0
-184 -185 0
-184 -186 0
-184 -187 0
-184 -188 0
-184 -189 0
-184 -190 0
-184 -191 0
-184 -192 0
-185 -186 0
-185 -187 0
-185 -188 0
-185 -189 0
-185 -190 0
-185 -191 0
-185 -192 0
-186 -187 0
-186 -188 0
-186 -189 0
-186 -190 0
-186 -191 0
-186 -192 0
-187 -188 0
-187 -189 0
-187 -190 0
-187 -191 0
-187 -192 0
-188 -189 0
-188 -190 0
-188 -191 0
-188 -192 0
-189 -190 0
-189 -191 0
-189 -192 0
-190 -191 0
-190 -192 0
-191 -192 0
-169 -181 0
-170 -181 0
-170 -182 0
-171 -181 0
-171 -182 0
-171 -183 0
-172 -181 0
-172 -182 0
-172 -183 0
-172 -184 0
-173 -181 0
-173 -182 0
-173 -183 0
-173 -184 0
-173 -185 0
-174 -181 0
-174 -182 0
-174 -183 0
-174 -184 0
-174 -185 0
-174 -186 0
-175 -181 0
-175 -182 0
-175 -183 0
-175 -184 0
-175 -185 0
-175 -186 0
-175 -187 0
-176 -181 0
-176 -182 0
-176 -183 0
-176 -184 0
-176 -185 0
-176 -186 0
-176 -187 0
-176 -188 0
-177 -181 0
-177 -182 0
-177 -183 0
-177 -184 0
-177 -185 0
-177 -186 0
-177 -187 0
-177 -188 0
-177 -189 0
-178 -181 0
-178 -182 0
-178 -183 0
-178 -184 0
-178 -185 0
-178 -186 0
-178 -187 0
-178 -188 0
-178 -189 0
-178 -190 0
-179 -181 0
-179 -182 0
-179 -183 0
-179 -184 0
-179 -185 0
-179 -186 0
-179 -187 0
-179 -188 0
-179 -189 0
-179 -190 0
-179 -191 0
-180 -181 0
-180 -182 0
-180 -183 0
-180 -184 0
-180 -185 0
-180 -186 0
-180 -187 0
-180 -188 0
-180 -189 0
-180 -190 0
-180 -191 0
-180 -192 0
-169 -182 -1 -10 -193 0
-169 -182 -1 10 193 0
-169 -182 1 -10 193 0
-169 -182 1 10 -193 0
-169 -182 -2 -11 -194 0
-169 -182 -2 11 194 0
-169 -182 2 -11 194 0
-169 -182 2 11 -194 0
-169 -182 -3 -12 -195 0
-169 -182 -3 12 195 0
-169 -182 3 -12 195 0
-169 -182 3 12 -195 0
-169 -182 -4 -13 -196 0
-169 -182 -4 13 196 0
-169 -182 4 -13 196 0
-169 -182 4 13 -196 0
-169 -182 -5 -14 -197 0
-169 -182 -5 14 197 0
-169 -182 5 -14 197 0
-169 -182 5 14 -197 0
-169 -182 -6 -15 -198 0
-169 -182 -6 15 198 0
-169 -182 6 -15 198 0
-169 -182 6 15 -198 0
-169 -182 -7 -16 -199 0
-169 -182 -7 16 199 0
-169 -182 7 -16 199 0
-169 -182 7 16 -199 0
-169 -182 -8 -17 -200 0
-169 -182 -8 17 200 0
-169 -182 8 -17 200 0
-169 -182 8 17 -200 0
-169 -182 -9 -18 -201 0
-169 -182 -9 18 201 0
-169 -182 9 -18 201 0
-169 -182 9 18 -201 0
-169 -183 -1 -19 -193 0
-169 -183 -1 19 193 0
-169 -183 1 -19 193 0
-169 -183 1 19 -193 0
-169 -183 -2 -20 -194 0
-169 -183 -2 20 194 0
-169 -183 2 -20 194 0
-169 -183 2 20 -194 0
-169 -183 -3 -21 -195 0
-169 -183 -3 21 195 0
-169 -183 3 -21 195 0
-169 -183 3 21 -195 0
-169 -183 -4 -22 -196 0
-169 -183 -4 22 196 0
-169 -183 4 -22 196 0
-169 -183 4 22 -196 0
-169 -183 -5 -23 -197 0
-169 -183 -5 23 197 0
-169 -183 5 -23 197 0
-169 -183 5 23 -197 0
-169 -183 -6 -24 -198 0
-169 -183 -6 24 198 0
-169 -183 6 -24 198 0
-169 -183 6 24 -198 0
-169 -183 -7 -25 -199 0
-169 -183 -7 25 199 0
-169 -183 7 -25 199 0
-169 -183 7 25 -199 0
-169 -183 -8 -26 -200 0
-169 -183 -8 26 200 0
-169 -183 8 -26 200 0
-169 -183 8 26 -200 0
-169 -183 -9 -27 -201 0
-169 -183 -9 27 201 0
-169 -183 9 -27 201 0
-169 -183 9 27 -201 0
-169 -184 -1 -28 -193 0
-169 -184 -1 28 193 0
-169 -184 1 -28 193 0
-169 -184 1 28 -193 0
-169 -184 -2 -29 -194 0
-169 -184 -2 29 194 0
-169 -184 2 -29 194 0
-169 -184 2 29 -194 0
-169 -184 -3 -30 -195 0
-169 -184 -3 30 195 0
-169 -184 3 -30 195 0
-169 -184 3 30 -195 0
-169 -184 -4 -31 -196 0
-169 -184 -4 31 196 0
-169 -184 4 -31 196 0
-169 -184 4 31 -196 0
-169 -184 -5 -32 -197 0
-169 -184 -5 32 197 0
-169 -184 5 -32 197 0
-169 -184 5 32 -197 0
-169 -184 -6 -33 -198 0
-169 -184 -6 33 198 0
-169 -184 6 -33 198 0
-169 -184 6 33 -198 0
-169 -184 -7 -34 -199 0
-169 -184 -7 34 199 0
-169 -184 7 -34 199 0
-169 -184 7 34 -199 0
-169 -184 -8 -35 -200 0
-169 -184 -8 35 200 0
-169 -184 8 -35 200 0
-169 -184 8 35 -200 0
-169 -184 -9 -36 -201 0
-169 -184 -9 36 201 0
-169 -184 9 -36 201 0
-169 -184 9 36 -201 0
-169 -185 -1 -37 -193 0
-169 -185 -1 37 193 0
-169 -185 1 -37 193 0
-169 -185 1 37 -193 0
-169 -185 -2 -38 -194 0
-169 -185 -2 38 194 0
-169 -185 2 -38 194 0
-169 -185 2 38 -194 0
-169 -185 -3 -39 -195 0
-169 -185 -3 39 195 0
-169 -185 3 -39 195 0
-169 -185 3 39 -195 0
-169 -185 -4 -40 -196 0
-169 -185 -4 40 196 0
-169 -185 4 -40 196 0
-169 -185 4 40 -196 0
-169 -185 -5 -41 -197 0
-169 -185 -5 41 197 0
-169 -185 5 -41 197 0
-169 -185 5 41 -197 0
-169 -185 -6 -42 -198 0
-169 -185 -6 42 198 0
-169 -185 6 -42 198 0
-169 -185 6 42 -198 0
-169 -185 -7 -43 -199 0
-169 -185 -7 43 199 0
-169 -185 7 -43 199 0
-169 -185 7 43 -199 0
-169 -185 -8 -44 -200 0
-169 -185 -8 44 200 0
-169 -185 8 -44 200 0
-169 -185 8 44 -200 0
-169 -185 -9 -45 -201 0
-169 -185 -9 45 201 0
-169 -185 9 -45 201 0
-169 -185 9 45 -201 0
-169 -186 -1 -46 -193 0
-169 -186 -1 46 193 0
-169 -186 1 -46 193 0
-169 -186 1 46 -193 0
-169 -186 -2 -47 -194 0
-169 -186 -2 47 194 0
-169 -186 2 -47 194 0
-169 -186 2 47 -194 0
-169 -186 -3 -48 -195 0
-169 -186 -3 48 195 0
-169 -186 3 -48 195 0
-169 -186 3 48 -195 0
-169 -186 -4 -49 -196 0
-169 -186 -4 49 196 0
-169 -186 4 -49 196 0
-169 -186 4 49 -196 0
-169 -186 -5 -50 -197 0
-169 -186 -5 50 197 0
-169 -186 5 -50 197 0
-169 -186 5 50 -197 0
-169 -186 -6 -51 -198 0
-169 -186 -6 51 198 0
-169 -186 6 -51 198 0
-169 -186 6 51 -198 0
-169 -186 -7 -52 -199 0
-169 -186 -7 52 199 0
-169 -186 7 -52 199 0
-169 -186 7 52 -199 0
-169 -186 -8 -53 -200 0
-169 -186 -8 53 200 0
-169 -186 8 -53 200 0
-169 -186 8 53 -200 0
-169 -186 -9 -54 -201 0
-169 -186 -9 54 201 0
-169 -186 9 -54 201 0
-169 -186 9 54 -201 0
-169 -187 -1 -55 -193 0
-169 -187 -1 55 193 0
-169 -187 1 -55 193 0
-169 -187 1 55 -193 0
-169 -187 -2 -56 -194 0
-169 -187 -2 56 194 0
-169 -187 2 -56 194 0
-169 -187 2 56 -194 0
-169 -187 -3 -57 -195 0
-169 -187 -3 57 195 0
-169 -187 3 -57 195 0
-169 -187 3 57 -195 0
-169 -187 -4 -58 -196 0
-169 -187 -4 58 196 0
-169 -187 4 -58 196 0
-169 -187 4 58 -196 0
-169 -187 -5 -59 -197 0
-169 -187 -5 59 197 0
-169 -187 5 -59 197 0
-169 -187 5 59 -197 0
-169 -187 -6 -60 -198 0
-169 -187 -6 60 198 0
-169 -187 6 -60 198 0
-169 -187 6 60 -198 0
-169 -187 -7 -61 -199 0
-169 -187 -7 61 199 0
-169 -187 7 -61 199 0
-169 -187 7 61 -199 0
-169 -187 -8 -62 -200 0
-169 -187 -8 62 200 0
-169 -187 8 -62 200 0
-169 -187 8 62 -200 0
-169 -187 -9 -63 -201 0
-169 -187 -9 63 201 0
-169 -187 9 -63 201 0
-169 -187 9 63 -201 0
-169 -188 -1 -64 -193 0
-169 -188 -1 64 193 0
-169 -188 1 -64 193 0
-169 -188 1 64 -193 0
-169 -188 -2 -65 -194 0
-169 -188 -2 65 194 0
-169 -188 2 -65 194 0
-169 -188 2 65 -194 0
-169 -188 -3 -66 -195 0
-169 -188 -3 66 195 0
-169 -188 3 -66 195 0
-169 -188 3 66 -195 0
-169 -188 -4 -67 -196 0
-169 -188 -4 67 196 0
-169 -188 4 -67 196 0
-169 -188 4 67 -196 0
-169 -188 -5 -68 -197 0
-169 -188 -5 68 197 0
-169 -188 5 -68 197 0
-169 -188 5 68 -197 0
-169 -188 -6 -69 -198 0
-169 -188 -6 69 198 0
-169 -188 6 -69 198 0
-169 -188 6 69 -198 0
-169 -188 -7 -70 -199 0
-169 -188 -7 70 199 0
-169 -188 7 -70 199 0
-169 -188 7 70 -199 0
-169 -188 -8 -71 -200 0
-169 -188 -8 71 200 0
-169 -188 8 -71 200 0
-169 -188 8 71 -200 0
-169 -188 -9 -72 -201 0
-169 -188 -9 72 201 0
-169 -188 9 -72 201 0
-169 -188 9 72 -201 0
-169 -189 -1 -73 -193 0
-169 -189 -1 73 193 0
-169 -189 1 -73 193 0
-169 -189 1 73 -193 0
-169 -189 -2 -74 -194 0
-169 -189 -2 74 194 0
-169 -189 2 -74 194 0
-169 -189 2 74 -194 0
-169 -189 -3 -75 -195 0
-169 -189 -3 75 195 0
-169 -189 3 -75 195 0
-169 -189 3 75 -195 0
-169 -189 -4 -76 -196 0
-169 -189 -4 76 196 0
-169 -189 4 -76 196 0
-169 -189 4 76 -196 0
-169 -189 -5 -77 -197 0
-169 -189 -5 77 197 0
-169 -189 5 -77 197 0
-169 -189 5 77 -197 0
-169 -189 -6 -78 -198 0
-169 -189 -6 78 198 0
-169 -189 6 -78 198 0
-169 -189 6 78 -198 0
-169 -189 -7 -79 -199 0
-169 -189 -7 79 199 0
-169 -189 7 -79 199 0
-169 -189 7 79 -199 0
-169 -189 -8 -80 -200 0
-169 -189 -8 80 200 0
-169 -189 8 -80 200 0
-169 -189 8 80 -200 0
-169 -189 -9 -81 -201 0
-169 -189 -9 81 201 0
-169 -189 9 -81 201 0
-169 -189 9 81 -201 0
-169 -190 -1 -100 -193 0
-169 -190 -1 100 193 0
-169 -190 1 -100 193 0
-169 -190 1 100 -193 0
-169 -190 -2 -101 -194 0
-169 -190 -2 101 194 0
-169 -190 2 -101 194 0
-169 -190 2 101 -194 0
-169 -190 -3 -102 -195 0
-169 -190 -3 102 195 0
-169 -190 3 -102 195 0
-169 -190 3 102 -195 0
-169 -190 -4 -103 -196 0
-169 -190 -4 103 196 0
-169 -190 4 -103 196 0
-169 -190 4 103 -196 0
-169 -190 -5 -104 -197 0
-169 -190 -5 104 197 0
-169 -190 5 -104 197 0
-169 -190 5 104 -197 0
-169 -190 -6 -105 -198 0
-169 -190 -6 105 198 0
-169 -190 6 -105 198 0
-169 -190 6 105 -198 0
-169 -190 -7 -106 -199 0
-169 -190 -7 106 199 0
-169 -190 7 -106 199 0
-169 -190 7 106 -199 0
-169 -190 -8 -107 -200 0
-169 -190 -8 107 200 0
-169 -190 8 -107 200 0
-169 -190 8 107 -200 0
-169 -190 -9 -108 -201 0
-169 -190 -9 108 201 0
-169 -190 9 -108 201 0
-169 -190 9 108 -201 0
-169 -191 -1 -129 -193 0
-169 -191 -1 129 193 0
-169 -191 1 -129 193 0
-169 -191 1 129 -193 0
-169 -191 -2 -130 -194 0
-169 -191 -2 130 194 0
-169 -191 2 -130 194 0
-169 -191 2 130 -194 0
-169 -191 -3 -131 -195 0
-169 -191 -3 131 195 0
-169 -191 3 -131 195 0
-169 -191 3 131 -195 0
-169 -191 -4 -132 -196 0
-169 -191 -4 132 196 0
-169 -191 4 -132 196 0
-169 -191 4 132 -196 0
-169 -191 -5 -133 -197 0
-169 -191 -5 133 197 0
-169 -191 5 -133 197 0
-169 -191 5 133 -197 0
-169 -191 -6 -134 -198 0
-169 -191 -6 134 198 0
-169 -191 6 -134 198 0
-169 -191 6 134 -198 0
-169 -191 -7 -135 -199 0
-169 -191 -7 135 199 0
-169 -191 7 -135 199 0
-169 -191 7 135 -199 0
-169 -191 -8 -136 -200 0
-169 -191 -8 136 200 0
-169 -191 8 -136 200 0
-169 -191 8 136 -200 0
-169 -191 -9 -137 -201 0
-169 -191 -9 137 201 0
-169 -191 9 -137 201 0
-169 -191 9 137 -201 0
-169 -192 -1 -160 -193 0
-169 -192 -1 160 193 0
-169 -192 1 -160 193 0
-169 -192 1 160 -193 0
-169 -192 -2 -161 -194 0
-169 -192 -2 161 194 0
-169 -192 2 -161 194 0
-169 -192 2 161 -194 0
-169 -192 -3 -162 -195 0
-169 -192 -3 162 195 0
-169 -192 3 -162 195 0
-169 -192 3 162 -195 0
-169 -192 -4 -163 -196 0
-169 -192 -4 163 196 0
-169 -192 4 -163 196 0
-169 -192 4 163 -196 0
-169 -192 -5 -164 -197 0
-169 -192 -5 164 197 0
-169 -192 5 -164 197 0
-169 -192 5 164 -197 0
-169 -192 -6 -165 -198 0
-169 -192 -6 165 198 0
-169 -192 6 -165 198 0
-169 -192 6 165 -198 0
-169 -192 -7 -166 -199 0
-169 -192 -7 166 199 0
-169 -192 7 -166 199 0
-169 -192 7 166 -199 0
-169 -192 -8 -167 -200 0
-169 -192 -8 167 200 0
-169 -192 8 -167 200 0
-169 -192 8 167 -200 0
-169 -192 -9 -168 -201 0
-169 -192 -9 168 201 0
-169 -192 9 -168 201 0
-169 -192 9 168 -201 0
-170 -183 -10 -19 -193 0
-170 -183 -10 19 193 0
-170 -183 10 -19 193 0
-170 -183 10 19 -193 0
-170 -183 -11 -20 -194 0
-170 -183 -11 20 194 0
-170 -183 11 -20 194 0
-170 -183 11 20 -194 0
-170 -183 -12 -21 -195 0
-170 -183 -12 21 195 0
-170 -183 12 -21 195 0
-170 -183 12 21 -195 0
-170 -183 -13 -22 -196 0
-170 -183 -13 22 196 0
-170 -183 13 -22 196 0
-170 -183 13 22 -196 0
-170 -183 -14 -23 -197 0
-170 -183 -14 23 197 0
-170 -183 14 -23 197 0
-170 -183 14 23 -197 0
-170 -183 -15 -24 -198 0
-170 -183 -15 24 198 0
-170 -183 15 -24 198 0
-170 -183 15 24 -198 0
-170 -183 -16 -25 -199 0
-170 -183 -16 25 199 0
-170 -183 16 -25 199 0
-170 -183 16 25 -199 0
-170 -183 -17 -26 -200 0
-170 -183 -17 26 200 0
-170 -183 17 -26 200 0
-170 -183 17 26 -200 0
-170 -183 -18 -27 -201 0
-170 -183 -18 27 201 0
-170 -183 18 -27 201 0
-170 -183 18 27 -201 0
-170 -184 -10 -28 -193 0
-170 -184 -10 28 193 0
-170 -184 10 -28 193 0
-170 -184 10 28 -193 0
-170 -184 -11 -29 -194 0
-170 -184 -11 29 194 0
-170 -184 11 -29 194 0
-170 -184 11 29 -194 0
-170 -184 -12 -30 -195 0
-170 -184 -12 30 195 0
-170 -184 12 -30 195 0
-170 -184 12 30 -195 0
-170 -184 -13 -31 -196 0
-170 -184 -13 31 196 0
-170 -184 13 -31 196 0
-170 -184 13 31 -196 0
-170 -184 -14 -32 -197 0
-170 -184 -14 32 197 0
-170 -184 14 -32 197 0
-170 -184 14 32 -197 0
-170 -184 -15 -33 -198 0
-170 -184 -15 33 198 0
-170 -184 15 -33 198 0
-170 -184 15 33 -198 0
-170 -184 -16 -34 -199 0
-170 -184 -16 34 199 0
-170 -184 16 -34 199 0
-170 -184 16 34 -199 0
-170 -184 -17 -35 -200 0
-170 -184 -17 35 200 0
-170 -184 17 -35 200 0
-170 -184 17 35 -200 0
-170 -184 -18 -36 -201 0
-170 -184 -18 36 201 0
-170 -184 18 -36 201 0
-170 -184 18 36 -201 0
-170 -185 -10 -37 -193 0
-170 -185 -10 37 193 0
-170 -185 10 -37 193 0
-170 -185 10 37 -193 0
-170 -185 -11 -38 -194 0
-170 -185 -11 38 194 0
-170 -185 11 -38 194 0
-170 -185 11 38 -194 0
-170 -185 -12 -39 -195 0
-170 -185 -12 39 195 0
-170 -185 12 -39 195 0
-170 -185 12 39 -195 0
-170 -185 -13 -40 -196 0
-170 -185 -13 40 196 0
-170 -185 13 -40 196 0
-170 -185 13 40 -196 0
-170 -185 -14 -41 -197 0
-170 -185 -14 41 197 0
-170 -185 14 -41 197 0
-170 -185 14 41 -197 0
-170 -185 -15 -42 -198 0
-170 -185 -15 42 198 0
-170 -185 15 -42 198 0
-170 -185 15 42 -198 0
-170 -185 -16 -43 -199 0
-170 -185 -16 43 199 0
-170 -185 16 -43 199 0
-170 -185 16 43 -199 0
-170 -185 -17 -44 -200 0
-170 -185 -17 44 200 0
-170 -185 17 -44 200 0
-170 -185 17 44 -200 0
-170 -185 -18 -45 -201 0
-170 -185 -18 45 201 0
-170 -185 18 -45 201 0
-170 -185 18 45 -201 0
-170 -186 -10 -46 -193 0
-170 -186 -10 46 193 0
-170 -186 10 -46 193 0
-170 -186 10 46 -193 0
-170 -186 -11 -47 -194 0
-170 -186 -11 47 194 0
-170 -186 11 -47 194 0
-170 -186 11 47 -194 0
-170 -186 -12 -48 -195 0
-170 -186 -12 48 195 0
-170 -186 12 -48 195 0
-170 -186 12 48 -195 0
-170 -186 -13 -49 -196 0
-170 -186 -13 49 196 0
-170 -186 13 -49 196 0
-170 -186 13 49 -196 0
-170 -186 -14 -50 -197 0
-170 -186 -14 50 197 0
-170 -186 14 -50 197 0
-170 -186 14 50 -197 0
-170 -186 -15 -51 -198 0
-170 -186 -15 51 198 0
-170 -186 15 -51 198 0
-170 -186 15 51 -198 0
-170 -186 -16 -52 -199 0
-170 -186 -16 52 199 0
-170 -186 16 -52 199 0
-170 -186 16 52 -199 0
-170 -186 -17 -53 -200 0
-170 -186 -17 53 200 0
-170 -186 17 -53 200 0
-170 -186 17 53 -200 0
-170 -186 -18 -54 -201 0
-170 -186 -18 54 201 0
-170 -186 18 -54 201 0
-170 -186 18 54 -201 0
-170 -187 -10 -55 -193 0
-170 -187 -10 55 193 0
-170 -187 10 -55 193 0
-170 -187 10 55 -193 0
-170 -187 -11 -56 -194 0
-170 -187 -11 56 194 0
-170 -187 11 -56 194 0
-170 -187 11 56 -194 0
-170 -187 -12 -57 -195 0
-170 -187 -12 57 195 0
-170 -187 12 -57 195 0
-170 -187 12 57 -195 0
-170 -187 -13 -58 -196 0
-170 -187 -13 58 196 0
-170 -187 13 -58 196 0
-170 -187 13 58 -196 0
-170 -187 -14 -59 -197 0
-170 -187 -14 59 197 0
-170 -187 14 -59 197 0
-170 -187 14 59 -197 0
-170 -187 -15 -60 -198 0
-170 -187 -15 60 198 0
-170 -187 15 -60 198 0
-170 -187 15 60 -198 0
-170 -187 -16 -61 -199 0
-170 -187 -16 61 199 0
-170 -187 16 -61 199 0
-170 -187 16 61 -199 0
-170 -187 -17 -62 -200 0
-170 -187 -17 62 200 0
-170 -187 17 -62 200 0
-170 -187 17 62 -200 0
-170 -187 -18 -63 -201 0
-170 -187 -18 63 201 0
-170 -187 18 -63 201 0
-170 -187 18 63 -201 0
-170 -188 -10 -64 -193 0
-170 -188 -10 64 193 0
-170 -188 10 -64 193 0
-170 -188 10 64 -193 0
-170 -188 -11 -65 -194 0
-170 -188 -11 65 194 0
-170 -188 11 -65 194 0
-170 -188 11 65 -194 0
-170 -188 -12 -66 -195 0
-170 -188 -12 66 195 0
-170 -188 12 -66 195 0
-170 -188 12 66 -195 0
-170 -188 -13 -67 -196 0
-170 -188 -13 67 196 0
-170 -188 13 -67 196 0
-170 -188 13 67 -196 0
-170 -188 -14 -68 -197 0
-170 -188 -14 68 197 0
-170 -188 14 -68 197 0
-170 -188 14 68 -197 0
-170 -188 -15 -69 -198 0
-170 -188 -15 69 198 0
-170 -188 15 -69 198 0
-170 -188 15 69 -198 0
-170 -188 -16 -70 -199 0
-170 -188 -16 70 199 0
-170 -188 16 -70 199 0
-170 -188 16 70 -199 0
-170 -188 -17 -71 -200 0
-170 -188 -17 71 200 0
-170 -188 17 -71 200 0
-170 -188 17 71 -200 0
-170 -188 -18 -72 -201 0
-170 -188 -18 72 201 0
-170 -188 18 -72 201 0
-170 -188 18 72 -201 0
-170 -189 -10 -73 -193 0
-170 -189 -10 73 193 0
-170 -189 10 -73 193 0
-170 -189 10 73 -193 0
-170 -189 -11 -74 -194 0
-170 -189 -11 74 194 0
-170 -189 11 -74 194 0
-170 -189 11 74 -194 0
-170 -189 -12 -75 -195 0
-170 -189 -12 75 195 0
-170 -189 12 -75 195 0
-170 -189 12 75 -195 0
-170 -189 -13 -76 -196 0
-170 -189 -13 76 196 0
-170 -189 13 -76 196 0
-170 -189 13 76 -196 0
-170 -189 -14 -77 -197 0
-170 -189 -14 77 197 0
-170 -189 14 -77 197 0
-170 -189 14 77 -197 0
-170 -189 -15 -78 -198 0
-170 -189 -15 78 198 0
-170 -189 15 -78 198 0
-170 -189 15 78 -198 0
-170 -189 -16 -79 -199 0
-170 -189 -16 79 199 0
-170 -189 16 -79 199 0
-170 -189 16 79 -199 0
-170 -189 -17 -80 -200 0
-170 -189 -17 80 200 0
-170 -189 17 -80 200 0
-170 -189 17 80 -200 0
-170 -189 -18 -81 -201 0
-170 -189 -18 81 201 0
-170 -189 18 -81 201 0
-170 -189 18 81 -201 0
-170 -190 -10 -100 -193 0
-170 -190 -10 100 193 0
-170 -190 10 -100 193 0
-170 -190 10 100 -193 0
-170 -190 -11 -101 -194 0
-170 -190 -11 101 194 0
-170 -190 11 -101 194 0
-170 -190 11 101 -194 0
-170 -190 -12 -102 -195 0
-170 -190 -12 102 195 0
-170 -190 12 -102 195 0
-170 -190 12 102 -195 0
-170 -190 -13 -103 -196 0
-170 -190 -13 103 196 0
-170 -190 13 -103 196 0
-170 -190 13 103 -196 0
-170 -190 -14 -104 -197 0
-170 -190 -14 104 197 0
-170 -190 14 -104 197 0
-170 -190 14 104 -197 0
-170 -190 -15 -105 -198 0
-170 -190 -15 105 198 0
-170 -190 15 -105 198 0
-170 -190 15 105 -198 0
-170 -190 -16 -106 -199 0
-170 -190 -16 106 199 0
-170 -190 16 -106 199 0
-170 -190 16 106 -199 0
-170 -190 -17 -107 -200 0
-170 -190 -17 107 200 0
-170 -190 17 -107 200 0
-170 -190 17 107 -200 0
-170 -190 -18 -108 -201 0
-170 -190 -18 108 201 0
-170 -190 18 -108 201 0
-170 -190 18 108 -201 0
-170 -191 -10 -129 -193 0
-170 -191 -10 129 193 0
-170 -191 10 -129 193 0
-170 -191 10 129 -193 0
-170 -191 -11 -130 -194 0
-170 -191 -11 130 194 0
-170 -191 11 -130 194 0
-170 -191 11 130 -194 0
-170 -191 -12 -131 -195 0
-170 -191 -12 131 195 0
-170 -191 12 -131 195 0
-170 -191 12 131 -195 0
-170 -191 -13 -132 -196 0
-170 -191 -13 132 196 0
-170 -191 13 -132 196 0
-170 -191 13 132 -196 0
-170 -191 -14 -133 -197 0
-170 -191 -14 133 197 0
-170 -191 14 -133 197 0
-170 -191 14 133 -197 0
-170 -191 -15 -134 -198 0
-170 -191 -15 134 198 0
-170 -191 15 -134 198 0
-170 -191 15 134 -198 0
-170 -191 -16 -135 -199 0
-170 -191 -16 135 199 0
-170 -191 16 -135 199 0
-170 -191 16 135 -199 0
-170 -191 -17 -136 -200 0
-170 -191 -17 136 200 0
-170 -191 17 -136 200 0
-170 -191 17 136 -200 0
-170 -191 -18 -137 -201 0
-170 -191 -18 137 201 0
-170 -191 18 -137 201 0
-170 -191 18 137 -201 0
-170 -192 -10 -160 -193 0
-170 -192 -10 160 193 0
-170 -192 10 -160 193 0
-170 -192 10 160 -193 0
-170 -192 -11 -161 -194 0
-170 -192 -11 161 194 0
-170 -192 11 -161 194 0
-170 -192 11 161 -194 0
-170 -192 -12 -162 -195 0
-170 -192 -12 162 195 0
-170 -192 12 -162 195 0
-170 -192 12 162 -195 0
-170 -192 -13 -163 -196 0
-170 -192 -13 163 196 0
-170 -192 13 -163 196 0
-170 -192 13 163 -196 0
-170 -192 -14 -164 -197 0
-170 -192 -14 164 197 0
-170 -192 14 -164 197 0
-170 -192 14 164 -197 0
-170 -192 -15 -165 -198 0
-170 -192 -15 165 198 0
-170 -192 15 -165 198 0
-170 -192 15 165 -198 0
-170 -192 -16 -166 -199 0
-170 -192 -16 166 199 0
-170 -192 16 -166 199 0
-170 -192 16 166 -199 0
-170 -192 -17 -167 -200 0
-170 -192 -17 167 200 0
-170 -192 17 -167 200 0
-170 -192 17 167 -200 0
-170 -192 -18 -168 -201 0
-170 -192 -18 168 201 0
-170 -192 18 -168 201 0
-170 -192 18 168 -201 0
-171 -184 -19 -28 -193 0
-171 -184 -19 28 193 0
-171 -184 19 -28 193 0
-171 -184 19 28 -193 0
-171 -184 -20 -29 -194 0
-171 -184 -20 29 194 0
-171 -184 20 -29 194 0
-171 -184 20 29 -194 0
-171 -184 -21 -30 -195 0
-171 -184 -21 30 195 0
-171 -184 21 -30 195 0
-171 -184 21 30 -195 0
-171 -184 -22 -31 -196 0
-171 -184 -22 31 196 0
-171 -184 22 -31 196 0
-171 -184 22 31 -196 0
-171 -184 -23 -32 -197 0
-171 -184 -23 32 197 0
-171 -184 23 -32 197 0
-171 -184 23 32 -197 0
-171 -184 -24 -33 -198 0
-171 -184 -24 33 198 0
-171 -184 24 -33 198 0
-171 -184 24 33 -198 0
-171 -184 -25 -34 -199 0
-171 -184 -25 34 199 0
-171 -184 25 -34 199 0
-171 -184 25 34 -199 0
-171 -184 -26 -35 -200 0
-171 -184 -26 35 200 0
-171 -184 26 -35 200 0
-171 -184 26 35 -200 0
-171 -184 -27 -36 -201 0
-171 -184 -27 36 201 0
-171 -184 27 -36 201 0
-171 -184 27 36 -201 0
-171 -185 -19 -37 -193 0
-171 -185 -19 37 193 0
-171 -185 19 -37 193 0
-171 -185 19 37 -193 0
-171 -185 -20 -38 -194 0
-171 -185 -20 38 194 0
-171 -185 20 -38 194 0
-171 -185 20 38 -194 0
-171 -185 -21 -39 -195 0
-171 -185 -21 39 195 0
-171 -185 21 -39 195 0
-171 -185 21 39 -195 0
-171 -185 -22 -40 -196 0
-171 -185 -22 40 196 0
-171 -185 22 -40 196 0
-171 -185 22 40 -196 0
-171 -185 -23 -41 -197 0
-171 -185 -23 41 197 0
-171 -185 23 -41 197 0
-171 -185 23 41 -197 0
-171 -185 -24 -42 -198 0
-171 -185 -24 42 198 0
-171 -185 24 -42 198 0
-171 -185 24 42 -198 0
-171 -185 -25 -43 -199 0
-171 -185 -25 43 199 0
-171 -185 25 -43 199 0
-171 -185 25 43 -199 0
-171 -185 -26 -44 -200 0
-171 -185 -26 44 200 0
-171 -185 26 -44 200 0
-171 -185 26 44 -200 0
-171 -185 -27 -45 -201 0
-171 -185 -27 45 201 0
-171 -185 27 -45 201 0
-171 -185 27 45 -201 0
-171 -186 -19 -46 -193 0
-171 -186 -19 46 193 0
-171 -186 19 -46 193 0
-171 -186 19 46 -193 0
-171 -186 -20 -47 -194 0
-171 -186 -20 47 194 0
-171 -186 20 -47 194 0
-171 -186 20 47 -194 0
-171 -186 -21 -48 -195 0
-171 -186 -21 48 195 0
-171 -186 21 -48 195 0
-171 -186 21 48 -195 0
-171 -186 -22 -49 -196 0
-171 -186 -22 49 196 0
-171 -186 22 -49 196 0
-171 -186 22 49 -196 0
-171 -186 -23 -50 -197 0
-171 -186 -23 50 197 0
-171 -186 23 -50 197 0
-171 -186 23 50 -197 0
-171 -186 -24 -51 -198 0
-171 -186 -24 51 198 0
-171 -186 24 -51 198 0
-171 -186 24 51 -198 0
-171 -186 -25 -52 -199 0
-171 -186 -25 52 199 0
-171 -186 25 -52 199 0
-171 -186 25 52 -199 0
-171 -186 -26 -53 -200 0
-171 -186 -26 53 200 0
-171 -186 26 -53 200 0
-171 -186 26 53 -200 0
-171 -186 -27 -54 -201 0
-171 -186 -27 54 201 0
-171 -186 27 -54 201 0
-171 -186 27 54 -201 0
-171 -187 -19 -55 -193 0
-171 -187 -19 55 193 0
-171 -187 19 -55 193 0
-171 -187 19 55 -193 0
-171 -187 -20 -56 -194 0
-171 -187 -20 56 194 0
-171 -187 20 -56 194 0
-171 -187 20 56 -194 0
-171 -187 -21 -57 -195 0
-171 -187 -21 57 195 0
-171 -187 21 -57 195 0
-171 -187 21 57 -195 0
-171 -187 -22 -58 -196 0
-171 -187 -22 58 196 0
-171 -187 22 -58 196 0
-171 -187 22 58 -196 0
-171 -187 -23 -59 -197 0
-171 -187 -23 59 197 0
-171 -187 23 -59 197 0
-171 -187 23 59 -197 0
-171 -187 -24 -60 -198 0
-171 -187 -24 60 198 0
-171 -187 24 -60 198 0
-171 -187 24 60 -198 0
-171 -187 -25 -61 -199 0
-171 -187 -25 61 199 0
-171 -187 25 -61 199 0
-171 -187 25 61 -199 0
-171 -187 -26 -62 -200 0
-171 -187 -26 62 200 0
-171 -187 26 -62 200 0
-171 -187 26 62 -200 0
-171 -187 -27 -63 -201 0
-171 -187 -27 63 201 0
-171 -187 27 -63 201 0
-171 -187 27 63 -201 0
-171 -188 -19 -64 -193 0
-171 -188 -19 64 193 0
-171 -188 19 -64 193 0
-171 -188 19 64 -193 0
-171 -188 -20 -65 -194 0
-171 -188 -20 65 194 0
-171 -188 20 -65 194 0
-171 -188 20 65 -194 0
-171 -188 -21 -66 -195 0
-171 -188 -21 66 195 0
-171 -188 21 -66 195 0
-171 -188 21 66 -195 0
-171 -188 -22 -67 -196 0
-171 -188 -22 67 196 0
-171 -188 22 -67 196 0
-171 -188 22 67 -196 0
-171 -188 -23 -68 -197 0
-171 -188 -23 68 197 0
-171 -188 23 -68 197 0
-171 -188 23 68 -197 0
-171 -188 -24 -69 -198 0
-171 -188 -24 69 198 0
-171 -188 24 -69 198 0
-171 -188 24 69 -198 0
-171 -188 -25 -70 -199 0
-171 -188 -25 70 199 0
-171 -188 25 -70 199 0
-171 -188 25 70 -199 0
-171 -188 -26 -71 -200 0
-171 -188 -26 71 200 0
-171 -188 26 -71 200 0
-171 -188 26 71 -200 0
-171 -188 -27 -72 -201 0
-171 -188 -27 72 201 0
-171 -188 27 -72 201 0
-171 -188 27 72 -201 0
-171 -189 -19 -73 -193 0
-171 -189 -19 73 193 0
-171 -189 19 -73 193 0
-171 -189 19 73 -193 0
-171 -189 -20 -74 -194 0
-171 -189 -20 74 194 0
-171 -189 20 -74 194 0
-171 -189 20 74 -194 0
-171 -189 -21 -75 -195 0
-171 -189 -21 75 195 0
-171 -189 21 -75 195 0
-171 -189 21 75 -195 0
-171 -189 -22 -76 -196 0
-171 -189 -22 76 196 0
-171 -189 22 -76 196 0
-171 -189 22 76 -196 0
-171 -189 -23 -77 -197 0
-171 -189 -23 77 197 0
-171 -189 23 -77 197 0
-171 -189 23 77 -197 0
-171 -189 -24 -78 -198 0
-171 -189 -24 78 198 0
-171 -189 24 -78 198 0
-171 -189 24 78 -198 0
-171 -189 -25 -79 -199 0
-171 -189 -25 79 199 0
-171 -189 25 -79 199 0
-171 -189 25 79 -199 0
-171 -189 -26 -80 -200 0
-171 -189 -26 80 200 0
-171 -189 26 -80 200 0
-171 -189 26 80 -200 0
-171 -189 -27 -81 -201 0
-171 -189 -27 81 201 0
-171 -189 27 -81 201 0
-171 -189 27 81 -201 0
-171 -190 -19 -100 -193 0
-171 -190 -19 100 193 0
-171 -190 19 -100 193 0
-171 -190 19 100 -193 0
-171 -190 -20 -101 -194 0
-171 -190 -20 101 194 0
-171 -190 20 -101 194 0
-171 -190 20 101 -194 0
-171 -190 -21 -102 -195 0
-171 -190 -21 102 195 0
-171 -190 21 -102 195 0
-171 -190 21 102 -195 0
-171 -190 -22 -103 -196 0
-171 -190 -22 103 196 0
-171 -190 22 -103 196 0
-171 -190 22 103 -196 0
-171 -190 -23 -104 -197 0
-171 -190 -23 104 197 0
-171 -190 23 -104 197 0
-171 -190 23 104 -197 0
-171 -190 -24 -105 -198 0
-171 -190 -24 105 198 0
-171 -190 24 -105 198 0
-171 -190 24 105 -198 0
-171 -190 -25 -106 -199 0
-171 -190 -25 106 199 0
-171 -190 25 -106 199 0
-171 -190 25 106 -199 0
-171 -190 -26 -107 -200 0
-171 -190 -26 107 200 0
-171 -190 26 -107 200 0
-171 -190 26 107 -200 0
-171 -190 -27 -108 -201 0
-171 -190 -27 108 201 0
-171 -190 27 -108 201 0
-171 -190 27 108 -201 0
-171 -191 -19 -129 -193 0
-171 -191 -19 129 193 0
-171 -191 19 -129 193 0
-171 -191 19 129 -193 0
-171 -191 -20 -130 -194 0
-171 -191 -20 130 194 0
-171 -191 20 -130 194 0
-171 -191 20 130 -194 0
-171 -191 -21 -131 -195 0
-171 -191 -21 131 195 0
-171 -191 21 -131 195 0
-171 -191 21 131 -195 0
-171 -191 -22 -132 -196 0
-171 -191 -22 132 196 0
-171 -191 22 -132 196 0
-171 -191 22 132 -196 0
-171 -191 -23 -133 -197 0
-171 -191 -23 133 197 0
-171 -191 23 -133 197 0
-171 -191 23 133 -197 0
-171 -191 -24 -134 -198 0
-171 -191 -24 134 198 0
-171 -191 24 -134 198 0
-171 -191 24 134 -198 0
-171 -191 -25 -135 -199 0
-171 -191 -25 135 199 0
-171 -191 25 -135 199 0
-171 -191 25 135 -199 0
-171 -191 -26 -136 -200 0
-171 -191 -26 136 200 0
-171 -191 26 -136 200 0
-171 -191 26 136 -200 0
-171 -191 -27 -137 -201 0
-171 -191 -27 137 201 0
-171 -191 27 -137 201 0
-171 -191 27 137 -201 0
-171 -192 -19 -160 -193 0
-171 -192 -19 160 193 0
-171 -192 19 -160 193 0
-171 -192 19 160 -193 0
-171 -192 -20 -161 -194 0
-171 -192 -20 161 194 0
-171 -192 20 -161 194 0
-171 -192 20 161 -194 0
-171 -192 -21 -162 -195 0
-171 -192 -21 162 195 0
-171 -192 21 -162 195 0
-171 -192 21 162 -195 0
-171 -192 -22 -163 -196 0
-171 -192 -22 163 196 0
-171 -192 22 -163 196 0
-171 -192 22 163 -196 0
-171 -192 -23 -164 -197 0
-171 -192 -23 164 197 0
-171 -192 23 -164 197 0
-171 -192 23 164 -197 0
-171 -192 -24 -165 -198 0
-171 -192 -24 165 198 0
-171 -192 24 -165 198 0
-171 -192 24 165 -198 0
-171 -192 -25 -166 -199 0
-171 -192 -25 166 199 0
-171 -192 25 -166 199 0
-171 -192 25 166 -199 0
-171 -192 -26 -167 -200 0
-171 -192 -26 167 200 0
-171 -192 26 -167 200 0
-171 -192 26 167 -200 0
-171 -192 -27 -168 -201 0
-171 -192 -27 168 201 0
-171 -192 27 -168 201 0
-171 -192 27 168 -201 0
-172 -185 -28 -37 -193 0
-172 -185 -28 37 193 0
-172 -185 28 -37 193 0
-172 -185 28 37 -193 0
-172 -185 -29 -38 -194 0
-172 -185 -29 38 194 0
-172 -185 29 -38 194 0
-172 -185 29 38 -194 0
-172 -185 -30 -39 -195 0
-172 -185 -30 39 195 0
-172 -185 30 -39 195 0
-172 -185 30 39 -195 0
-172 -185 -31 -40 -196 0
-172 -185 -31 40 196 0
-172 -185 31 -40 196 0
-172 -185 31 40 -196 0
-172 -185 -32 -41 -197 0
-172 -185 -32 41 197 0
-172 -185 32 -41 197 0
-172 -185 32 41 -197 0
-172 -185 -33 -42 -198 0
-172 -185 -33 42 198 0
-172 -185 33 -42 198 0
-172 -185 33 42 -198 0
-172 -185 -34 -43 -199 0
-172 -185 -34 43 199 0
-172 -185 34 -43 199 0
-172 -185 34 43 -199 0
-172 -185 -35 -44 -200 0
-172 -185 -35 44 200 0
-172 -185 35 -44 200 0
-172 -185 35 44 -200 0
-172 -185 -36 -45 -201 0
-172 -185 -36 45 201 0
-172 -185 36 -45 201 0
-172 -185 36 45 -201 0
-172 -186 -28 -46 -193 0
-172 -186 -28 46 193 0
-172 -186 28 -46 193 0
-172 -186 28 46 -193 0
-172 -186 -29 -47 -194 0
-172 -186 -29 47 194 0
-172 -186 29 -47 194 0
-172 -186 29 47 -194 0
-172 -186 -30 -48 -195 0
-172 -186 -30 48 195 0
-172 -186 30 -48 195 0
-172 -186 30 48 -195 0
-172 -186 -31 -49 -196 0
-172 -186 -31 49 196 0
-172 -186 31 -49 196 0
-172 -186 31 49 -196 0
-172 -186 -32 -50 -197 0
-172 -186 -32 50 197 0
-172 -186 32 -50 197 0
-172 -186 32 50 -197 0
-172 -186 -33 -51 -198 0
-172 -186 -33 51 198 0
-172 -186 33 -51 198 0
-172 -186 33 51 -198 0
-172 -186 -34 -52 -199 0
-172 -186 -34 52 199 0
-172 -186 34 -52 199 0
-172 -186 34 52 -199 0
-172 -186 -35 -53 -200 0
-172 -186 -35 53 200 0
-172 -186 35 -53 200 0
-172 -186 35 53 -200 0
-172 -186 -36 -54 -201 0
-172 -186 -36 54 201 0
-172 -186 36 -54 201 0
-172 -186 36 54 -201 0
-172 -187 -28 -55 -193 0
-172 -187 -28 55 193 0
-172 -187 28 -55 193 0
-172 -187 28 55 -193 0
-172 -187 -29 -56 -194 0
-172 -187 -29 56 194 0
-172 -187 29 -56 194 0
-172 -187 29 56 -194 0
-172 -187 -30 -57 -195 0
-172 -187 -30 57 195 0
-172 -187 30 -57 195 0
-172 -187 30 57 -195 0
-172 -187 -31 -58 -196 0
-172 -187 -31 58 196 0
-172 -187 31 -58 196 0
-172 -187 31 58 -196 0
-172 -187 -32 -59 -197 0
-172 -187 -32 59 197 0
-172 -187 32 -59 197 0
-172 -187 32 59 -197 0
-172 -187 -33 -60 -198 0
-172 -187 -33 60 198 0
-172 -187 33 -60 198 0
-172 -187 33 60 -198 0
-172 -187 -34 -61 -199 0
-172 -187 -34 61 199 0
-172 -187 34 -61 199 0
-172 -187 34 61 -199 0
-172 -187 -35 -62 -200 0
-172 -187 -35 62 200 0
-172 -187 35 -62 200 0
-172 -187 35 62 -200 0
-172 -187 -36 -63 -201 0
-172 -187 -36 63 201 0
-172 -187 36 -63 201 0
-172 -187 36 63 -201 0
-172 -188 -28 -64 -193 0
-172 -188 -28 64 193 0
-172 -188 28 -64 193 0
-172 -188 28 64 -193 0
-172 -188 -29 -65 -194 0
-172 -188 -29 65 194 0
-172 -188 29 -65 194 0
-172 -188 29 65 -194 0
-172 -188 -30 -66 -195 0
-172 -188 -30 66 195 0
-172 -188 30 -66 195 0
-172 -188 30 66 -195 0
-172 -188 -31 -67 -196 0
-172 -188 -31 67 196 0
-172 -188 31 -67 196 0
-172 -188 31 67 -196 0
-172 -188 -32 -68 -197 0
-172 -188 -32 68 197 0
-172 -188 32 -68 197 0
-172 -188 32 68 -197 0
-172 -188 -33 -69 -198 0
-172 -188 -33 69 198 0
-172 -188 33 -69 198 0
-172 -188 33 69 -198 0
-172 -188 -34 -70 -199 0
-172 -188 -34 70 199 0
-172 -188 34 -70 199 0
-172 -188 34 70 -199 0
-172 -188 -35 -71 -200 0
-172 -188 -35 71 200 0
-172 -188 35 -71 200 0
-172 -188 35 71 -200 0
-172 -188 -36 -72 -201 0
-172 -188 -36 72 201 0
-172 -188 36 -72 201 0
-172 -188 36 72 -201 0
-172 -189 -28 -73 -193 0
-172 -189 -28 73 193 0
-172 -189 28 -73 193 0
-172 -189 28 73 -193 0
-172 -189 -29 -74 -194 0
-172 -189 -29 74 194 0
-172 -189 29 -74 194 0
-172 -189 29 74 -194 0
-172 -189 -30 -75 -195 0
-172 -189 -30 75 195 0
-172 -189 30 -75 195 0
-172 -189 30 75 -195 0
-172 -189 -31 -76 -196 0
-172 -189 -31 76 196 0
-172 -189 31 -76 196 0
-172 -189 31 76 -196 0
-172 -189 -32 -77 -197 0
-172 -189 -32 77 197 0
-172 -189 32 -77 197 0
-172 -189 32 77 -197 0
-172 -189 -33 -78 -198 0
-172 -189 -33 78 198 0
-172 -189 33 -78 198 0
-172 -189 33 78 -198 0
-172 -189 -34 -79 -199 0
-172 -189 -34 79 199 0
-172 -189 34 -79 199 0
-172 -189 34 79 -199 0
-172 -189 -35 -80 -200 0
-172 -189 -35 80 200 0
-172 -189 35 -80 200 0
-172 -189 35 80 -200 0
-172 -189 -36 -81 -201 0
-172 -189 -36 81 201 0
-172 -189 36 -81 201 0
-172 -189 36 81 -201 0
-172 -190 -28 -100 -193 0
-172 -190 -28 100 193 0
-172 -190 28 -100 193 0
-172 -190 28 100 -193 0
-172 -190 -29 -101 -194 0
-172 -190 -29 101 194 0
-172 -190 29 -101 194 0
-172 -190 29 101 -194 0
-172 -190 -30 -102 -195 0
-172 -190 -30 102 195 0
-172 -190 30 -102 195 0
-172 -190 30 102 -195 0
-172 -190 -31 -103 -196 0
-172 -190 -31 103 196 0
-172 -190 31 -103 196 0
-172 -190 31 103 -196 0
-172 -190 -32 -104 -197 0
-172 -190 -32 104 197 0
-172 -190 32 -104 197 0
-172 -190 32 104 -197 0
-172 -190 -33 -105 -198 0
-172 -190 -33 105 198 0
-172 -190 33 -105 198 0
-172 -190 33 105 -198 0
-172 -190 -34 -106 -199 0
-172 -190 -34 106 199 0
-172 -190 34 -106 199 0
-172 -190 34 106 -199 0
-172 -190 -35 -107 -200 0
-172 -190 -35 107 200 0
-172 -190 35 -107 200 0
-172 -190 35 107 -200 0
-172 -190 -36 -108 -201 0
-172 -190 -36 108 201 0
-172 -190 36 -108 201 0
-172 -190 36 108 -201 0
-172 -191 -28 -129 -193 0
-172 -191 -28 129 193 0
-172 -191 28 -129 193 0
-172 -191 28 129 -193 0
-172 -191 -29 -130 -194 0
-172 -191 -29 130 194 0
-172 -191 29 -130 194 0
-172 -191 29 130 -194 0
-172 -191 -30 -131 -195 0
-172 -191 -30 131 195 0
-172 -191 30 -131 195 0
-172 -191 30 131 -195 0
-172 -191 -31 -132 -196 0
-172 -191 -31 132 196 0
-172 -191 31 -132 196 0
-172 -191 31 132 -196 0
-172 -191 -32 -133 -197 0
-172 -191 -32 133 197 0
-172 -191 32 -133 197 0
-172 -191 32 133 -197 0
-172 -191 -33 -134 -198 0
-172 -191 -33 134 198 0
-172 -191 33 -134 198 0
-172 -191 33 134 -198 0
-172 -191 -34 -135 -199 0
-172 -191 -34 135 199 0
-172 -191 34 -135 199 0
-172 -191 34 135 -199 0
-172 -191 -35 -136 -200 0
-172 -191 -35 136 200 0
-172 -191 35 -136 200 0
-172 -191 35 136 -200 0
-172 -191 -36 -137 -201 0
-172 -191 -36 137 201 0
-172 -191 36 -137 201 0
-172 -191 36 137 -201 0
-172 -192 -28 -160 -193 0
-172 -192 -28 160 193 0
-172 -192 28 -160 193 0
-172 -192 28 160 -193 0
-172 -192 -29 -161 -194 0
-172 -192 -29 161 194 0
-172 -192 29 -161 194 0
-172 -192 29 161 -194 0
-172 -192 -30 -162 -195 0
-172 -192 -30 162 195 0
-172 -192 30 -162 195 0
-172 -192 30 162 -195 0
-172 -192 -31 -163 -196 0
-172 -192 -31 163 196 0
-172 -192 31 -163 196 0
-172 -192 31 163 -196 0
-172 -192 -32 -164 -197 0
-172 -192 -32 164 197 0
-172 -192 32 -164 197 0
-172 -192 32 164 -197 0
-172 -192 -33 -165 -198 0
-172 -192 -33 165 198 0
-172 -192 33 -165 198 0
-172 -192 33 165 -198 0
-172 -192 -34 -166 -199 0
-172 -192 -34 166 199 0
-172 -192 34 -166 199 0
-172 -192 34 166 -199 0
-172 -192 -35 -167 -200 0
-172 -192 -35 167 200 0
-172 -192 35 -167 200 0
-172 -192 35 167 -200 0
-172 -192 -36 -168 -201 0
-172 -192 -36 168 201 0
-172 -192 36 -168 201 0
-172 -192 36 168 -201 0
-173 -186 -37 -46 -193 0
-173 -186 -37 46 193 0
-173 -186 37 -46 193 0
-173 -186 37 46 -193 0
-173 -186 -38 -47 -194 0
-173 -186 -38 47 194 0
-173 -186 38 -47 194 0
-173 -186 38 47 -194 0
-173 -186 -39 -48 -195 0
-173 -186 -39 48 195 0
-173 -186 39 -48 195 0
-173 -186 39 48 -195 0
-173 -186 -40 -49 -196 0
-173 -186 -40 49 196 0
-173 -186 40 -49 196 0
-173 -186 40 49 -196 0
-173 -186 -41 -50 -197 0
-173 -186 -41 50 197 0
-173 -186 41 -50 197 0
-173 -186 41 50 -197 0
-173 -186 -42 -51 -198 0
-173 -186 -42 51 198 0
-173 -186 42 -51 198 0
-173 -186 42 51 -198 0
-173 -186 -43 -52 -199 0
-173 -186 -43 52 199 0
-173 -186 43 -52 199 0
-173 -186 43 52 -199 0
-173 -186 -44 -53 -200 0
-173 -186 -44 53 200 0
-173 -186 44 -53 200 0
-173 -186 44 53 -200 0
-173 -186 -45 -54 -201 0
-173 -186 -45 54 201 0
-173 -186 45 -54 201 0
-173 -186 45 54 -201 0
-173 -187 -37 -55 -193 0
-173 -187 -37 55 193 0
-173 -187 37 -55 193 0
-173 -187 37 55 -193 0
-173 -187 -38 -56 -194 0
-173 -187 -38 56 194 0
-173 -187 38 -56 194 0
-173 -187 38 56 -194 0
-173 -187 -39 -57 -195 0
-173 -187 -39 57 195 0
-173 -187 39 -57 195 0
-173 -187 39 57 -195 0
-173 -187 -40 -58 -196 0
-173 -187 -40 58 196 0
-173 -187 40 -58 196 0
-173 -187 40 58 -196 0
-173 -187 -41 -59 -197 0
-173 -187 -41 59 197 0
-173 -187 41 -59 197 0
-173 -187 41 59 -197 0
-173 -187 -42 -60 -198 0
-173 -187 -42 60 198 0
-173 -187 42 -60 198 0
-173 -187 42 60 -198 0
-173 -187 -43 -61 -199 0
-173 -187 -43 61 199 0
-173 -187 43 -61 199 0
-173 -187 43 61 -199 0
-173 -187 -44 -62 -200 0
-173 -187 -44 62 200 0
-173 -187 44 -62 200 0
-173 -187 44 62 -200 0
-173 -187 -45 -63 -201 0
-173 -187 -45 63 201 0
-173 -187 45 -63 201 0
-173 -187 45 63 -201 0
-173 -188 -37 -64 -193 0
-173 -188 -37 64 193 0
-173 -188 37 -64 193 0
-173 -188 37 64 -193 0
-173 -188 -38 -65 -194 0
-173 -188 -38 65 194 0
-173 -188 38 -65 194 0
-173 -188 38 65 -194 0
-173 -188 -39 -66 -195 0
-173 -188 -39 66 195 0
-173 -188 39 -66 195 0
-173 -188 39 66 -195 0
-173 -188 -40 -67 -196 0
-173 -188 -40 67 196 0
-173 -188 40 -67 196 0
-173 -188 40 67 -196 0
-173 -188 -41 -68 -197 0
-173 -188 -41 68 197 0
-173 -188 41 -68 197 0
-173 -188 41 68 -197 0
-173 -188 -42 -69 -198 0
-173 -188 -42 69 198 0
-173 -188 42 -69 198 0
-173 -188 42 69 -198 0
-173 -188 -43 -70 -199 0
-173 -188 -43 70 199 0
-173 -188 43 -70 199 0
-173 -188 43 70 -199 0
-173 -188 -44 -71 -200 0
-173 -188 -44 71 200 0
-173 -188 44 -71 200 0
-173 -188 44 71 -200 0
-173 -188 -45 -72 -201 0
-173 -188 -45 72 201 0
-173 -188 45 -72 201 0
-173 -188 45 72 -201 0
-173 -189 -37 -73 -193 0
-173 -189 -37 73 193 0
-173 -189 37 -73 193 0
-173 -189 37 73 -193 0
-173 -189 -38 -74 -194 0
-173 -189 -38 74 194 0
-173 -189 38 -74 194 0
-173 -189 38 74 -194 0
-173 -189 -39 -75 -195 0
-173 -189 -39 75 195 0
-173 -189 39 -75 195 0
-173 -189 39 75 -195 0
-173 -189 -40 -76 -196 0
-173 -189 -40 76 196 0
-173 -189 40 -76 196 0
-173 -189 40 76 -196 0
-173 -189 -41 -77 -197 0
-173 -189 -41 77 197 0
-173 -189 41 -77 197 0
-173 -189 41 77 -197 0
-173 -189 -42 -78 -198 0
-173 -189 -42 78 198 0
-173 -189 42 -78 198 0
-173 -189 42 78 -198 0
-173 -189 -43 -79 -199 0
-173 -189 -43 79 199 0
-173 -189 43 -79 199 0
-173 -189 43 79 -199 0
-173 -189 -44 -80 -200 0
-173 -189 -44 80 200 0
-173 -189 44 -80 200 0
-173 -189 44 80 -200 0
-173 -189 -45 -81 -201 0
-173 -189 -45 81 201 0
-173 -189 45 -81 201 0
-173 -189 45 81 -201 0
-173 -190 -37 -100 -193 0
-173 -190 -37 100 193 0
-173 -190 37 -100 193 0
-173 -190 37 100 -193 0
-173 -190 -38 -101 -194 0
-173 -190 -38 101 194 0
-173 -190 38 -101 194 0
-173 -190 38 101 -194 0
-173 -190 -39 -102 -195 0
-173 -190 -39 102 195 0
-173 -190 39 -102 195 0
-173 -190 39 102 -195 0
-173 -190 -40 -103 -196 0
-173 -190 -40 103 196 0
-173 -190 40 -103 196 0
-173 -190 40 103 -196 0
-173 -190 -41 -104 -197 0
-173 -190 -41 104 197 0
-173 -190 41 -104 197 0
-173 -190 41 104 -197 0
-173 -190 -42 -105 -198 0
-173 -190 -42 105 198 0
-173 -190 42 -105 198 0
-173 -190 42 105 -198 0
-173 -190 -43 -106 -199 0
-173 -190 -43 106 199 0
-173 -190 43 -106 199 0
-173 -190 43 106 -199 0
-173 -190 -44 -107 -200 0
-173 -190 -44 107 200 0
-173 -190 44 -107 200 0
-173 -190 44 107 -200 0
-173 -190 -45 -108 -201 0
-173 -190 -45 108 201 0
-173 -190 45 -108 201 0
-173 -190 45 108 -201 0
-173 -191 -37 -129 -193 0
-173 -191 -37 129 193 0
-173 -191 37 -129 193 0
-173 -191 37 129 -193 0
-173 -191 -38 -130 -194 0
-173 -191 -38 130 194 0
-173 -191 38 -130 194 0
-173 -191 38 130 -194 0
-173 -191 -39 -131 -195 0
-173 -191 -39 131 195 0
-173 -191 39 -131 195 0
-173 -191 39 131 -195 0
-173 -191 -40 -132 -196 0
-173 -191 -40 132 196 0
-173 -191 40 -132 196 0
-173 -191 40 132 -196 0
-173 -191 -41 -133 -197 0
-173 -191 -41 133 197 0
-173 -191 41 -133 197 0
-173 -191 41 133 -197 0
-173 -191 -42 -134 -198 0
-173 -191 -42 134 198 0
-173 -191 42 -134 198 0
-173 -191 42 134 -198 0
-173 -191 -43 -135 -199 0
-173 -191 -43 135 199 0
-173 -191 43 -135 199 0
-173 -191 43 135 -199 0
-173 -191 -44 -136 -200 0
-173 -191 -44 136 200 0
-173 -191 44 -136 200 0
-173 -191 44 136 -200 0
-173 -191 -45 -137 -201 0
-173 -191 -45 137 201 0
-173 -191 45 -137 201 0
-173 -191 45 137 -201 0
-173 -192 -37 -160 -193 0
-173 -192 -37 160 193 0
-173 -192 37 -160 193 0
-173 -192 37 160 -193 0
-173 -192 -38 -161 -194 0
-173 -192 -38 161 194 0
-173 -192 38 -161 194 0
-173 -192 38 161 -194 0
-173 -192 -39 -162 -195 0
-173 -192 -39 162 195 0
-173 -192 39 -162 195 0
-173 -192 39 162 -195 0
-173 -192 -40 -163 -196 0
-173 -192 -40 163 196 0
-173 -192 40 -163 196 0
-173 -192 40 163 -196 0
-173 -192 -41 -164 -197 0
-173 -192 -41 164 197 0
-173 -192 41 -164 197 0
-173 -192 41 164 -197 0
-173 -192 -42 -165 -198 0
-173 -192 -42 165 198 0
-173 -192 42 -165 198 0
-173 -192 42 165 -198 0
-173 -192 -43 -166 -199 0
-173 -192 -43 166 199 0
-173 -192 43 -166 199 0
-173 -192 43 166 -199 0
-173 -192 -44 -167 -200 0
-173 -192 -44 167 200 0
-173 -192 44 -167 200 0
-173 -192 44 167 -200 0
-173 -192 -45 -168 -201 0
-173 -192 -45 168 201 0
-173 -192 45 -168 201 0
-173 -192 45 168 -201 0
-174 -187 -46 -55 -193 0
-174 -187 -46 55 193 0
-174 -187 46 -55 193 0
-174 -187 46 55 -193 0
-174 -187 -47 -56 -194 0
-174 -187 -47 56 194 0
-174 -187 47 -56 194 0
-174 -187 47 56 -194 0
-174 -187 -48 -57 -195 0
-174 -187 -48 57 195 0
-174 -187 48 -57 195 0
-174 -187 48 57 -195 0
-174 -187 -49 -58 -196 0
-174 -187 -49 58 196 0
-174 -187 49 -58 196 0
-174 -187 49 58 -196 0
-174 -187 -50 -59 -197 0
-174 -187 -50 59 197 0
-174 -187 50 -59 197 0
-174 -187 50 59 -197 0
-174 -187 -51 -60 -198 0
-174 -187 -51 60 198 0
-174 -187 51 -60 198 0
-174 -187 51 60 -198 0
-174 -187 -52 -61 -199 0
-174 -187 -52 61 199 0
-174 -187 52 -61 199 0
-174 -187 52 61 -199 0
-174 -187 -53 -62 -200 0
-174 -187 -53 62 200 0
-174 -187 53 -62 200 0
-174 -187 53 62 -200 0
-174 -187 -54 -63 -201 0
-174 -187 -54 63 201 0
-174 -187 54 -63 201 0
-174 -187 54 63 -201 0
-174 -188 -46 -64 -193 0
-174 -188 -46 64 193 0
-174 -188 46 -64 193 0
-174 -188 46 64 -193 0
-174 -188 -47 -65 -194 0
-174 -188 -47 65 194 0
-174 -188 47 -65 194 0
-174 -188 47 65 -194 0
-174 -188 -48 -66 -195 0
-174 -188 -48 66 195 0
-174 -188 48 -66 195 0
-174 -188 48 66 -195 0
-174 -188 -49 -67 -196 0
-174 -188 -49 67 196 0
-174 -188 49 -67 196 0
-174 -188 49 67 -196 0
-174 -188 -50 -68 -197 0
-174 -188 -50 68 197 0
-174 -188 50 -68 197 0
-174 -188 50 68 -197 0
-174 -188 -51 -69 -198 0
-174 -188 -51 69 198 0
-174 -188 51 -69 198 0
-174 -188 51 69 -198 0
-174 -188 -52 -70 -199 0
-174 -188 -52 70 199 0
-174 -188 52 -70 199 0
-174 -188 52 70 -199 0
-174 -188 -53 -71 -200 0
-174 -188 -53 71 200 0
-174 -188 53 -71 200 0
-174 -188 53 71 -200 0
-174 -188 -54 -72 -201 0
-174 -188 -54 72 201 0
-174 -188 54 -72 201 0
-174 -188 54 72 -201 0
-174 -189 -46 -73 -193 0
-174 -189 -46 73 193 0
-174 -189 46 -73 193 0
-174 -189 46 73 -193 0
-174 -189 -47 -74 -194 0
-174 -189 -47 74 194 0
-174 -189 47 -74 194 0
-174 -189 47 74 -194 0
-174 -189 -48 -75 -195 0
-174 -189 -48 75 195 0
-174 -189 48 -75 195 0
-174 -189 48 75 -195 0
-174 -189 -49 -76 -196 0
-174 -189 -49 76 196 0
-174 -189 49 -76 196 0
-174 -189 49 76 -196 0
-174 -189 -50 -77 -197 0
-174 -189 -50 77 197 0
-174 -189 50 -77 197 0
-174 -189 50 77 -197 0
-174 -189 -51 -78 -198 0
-174 -189 -51 78 198 0
-174 -189 51 -78 198 0
-174 -189 51 78 -198 0
-174 -189 -52 -79 -199 0
-174 -189 -52 79 199 0
-174 -189 52 -79 199 0
-174 -189 52 79 -199 0
-174 -189 -53 -80 -200 0
-174 -189 -53 80 200 0
-174 -189 53 -80 200 0
-174 -189 53 80 -200 0
-174 -189 -54 -81 -201 0
-174 -189 -54 81 201 0
-174 -189 54 -81 201 0
-174 -189 54 81 -201 0
-174 -190 -46 -100 -193 0
-174 -190 -46 100 193 0
-174 -190 46 -100 193 0
-174 -190 46 100 -193 0
-174 -190 -47 -101 -194 0
-174 -190 -47 101 194 0
-174 -190 47 -101 194 0
-174 -190 47 101 -194 0
-174 -190 -48 -102 -195 0
-174 -190 -48 102 195 0
-174 -190 48 -102 195 0
-174 -190 48 102 -195 0
-174 -190 -49 -103 -196 0
-174 -190 -49 103 196 0
-174 -190 49 -103 196 0
-174 -190 49 103 -196 0
-174 -190 -50 -104 -197 0
-174 -190 -50 104 197 0
-174 -190 50 -104 197 0
-174 -190 50 104 -197 0
-174 -190 -51 -105 -198 0
-174 -190 -51 105 198 0
-174 -190 51 -105 198 0
-174 -190 51 105 -198 0
-174 -190 -52 -106 -199 0
-174 -190 -52 106 199 0
-174 -190 52 -106 199 0
-174 -190 52 106 -199 0
-174 -190 -53 -107 -200 0
-174 -190 -53 107 200 0
-174 -190 53 -107 200 0
-174 -190 53 107 -200 0
-174 -190 -54 -108 -201 0
-174 -190 -54 108 201 0
-174 -190 54 -108 201 0
-174 -190 54 108 -201 0
-174 -191 -46 -129 -193 0
-174 -191 -46 129 193 0
-174 -191 46 -129 193 0
-174 -191 46 129 -193 0
-174 -191 -47 -130 -194 0
-174 -191 -47 130 194 0
-174 -191 47 -130 194 0
-174 -191 47 130 -194 0
-174 -191 -48 -131 -195 0
-174 -191 -48 131 195 0
-174 -191 48 -131 195 0
-174 -191 48 131 -195 0
-174 -191 -49 -132 -196 0
-174 -191 -49 132 196 0
-174 -191 49 -132 196 0
-174 -191 49 132 -196 0
-174 -191 -50 -133 -197 0
-174 -191 -50 133 197 0
-174 -191 50 -133 197 0
-174 -191 50 133 -197 0
-174 -191 -51 -134 -198 0
-174 -191 -51 134 198 0
-174 -191 51 -134 198 0
-174 -191 51 134 -198 0
-174 -191 -52 -135 -199 0
-174 -191 -52 135 199 0
-174 -191 52 -135 199 0
-174 -191 52 135 -199 0
-174 -191 -53 -136 -200 0
-174 -191 -53 136 200 0
-174 -191 53 -136 200 0
-174 -191 53 136 -200 0
-174 -191 -54 -137 -201 0
-174 -191 -54 137 201 0
-174 -191 54 -137 201 0
-174 -191 54 137 -201 0
-174 -192 -46 -160 -193 0
-174 -192 -46 160 193 0
-174 -192 46 -160 193 0
-174 -192 46 160 -193 0
-174 -192 -47 -161 -194 0
-174 -192 -47 161 194 0
-174 -192 47 -161 194 0
-174 -192 47 161 -194 0
-174 -192 -48 -162 -195 0
-174 -192 -48 162 195 0
-174 -192 48 -162 195 0
-174 -192 48 162 -195 0
-174 -192 -49 -163 -196 0
-174 -192 -49 163 196 0
-174 -192 49 -163 196 0
-174 -192 49 163 -196 0
-174 -192 -50 -164 -197 0
-174 -192 -50 164 197 0
-174 -192 50 -164 197 0
-174 -192 50 164 -197 0
-174 -192 -51 -165 -198 0
-174 -192 -51 165 198 0
-174 -192 51 -165 198 0
-174 -192 51 165 -198 0
-174 -192 -52 -166 -199 0
-174 -192 -52 166 199 0
-174 -192 52 -166 199 0
-174 -192 52 166 -199 0
-174 -192 -53 -167 -200 0
-174 -192 -53 167 200 0
-174 -192 53 -167 200 0
-174 -192 53 167 -200 0
-174 -192 -54 -168 -201 0
-174 -192 -54 168 201 0
-174 -192 54 -168 201 0
-174 -192 54 168 -201 0
-175 -188 -55 -64 -193 0
-175 -188 -55 64 193 0
-175 -188 55 -64 193 0
-175 -188 55 64 -193 0
-175 -188 -56 -65 -194 0
-175 -188 -56 65 194 0
-175 -188 56 -65 194 0
-175 -188 56 65 -194 0
-175 -188 -57 -66 -195 0
-175 -188 -57 66 195 0
-175 -188 57 -66 195 0
-175 -188 57 66 -195 0
-175 -188 -58 -67 -196 0
-175 -188 -58 67 196 0
-175 -188 58 -67 196 0
-175 -188 58 67 -196 0
-175 -188 -59 -68 -197 0
-175 -188 -59 68 197 0
-175 -188 59 -68 197 0
-175 -188 59 68 -197 0
-175 -188 -60 -69 -198 0
-175 -188 -60 69 198 0
-175 -188 60 -69 198 0
-175 -188 60 69 -198 0
-175 -188 -61 -70 -199 0
-175 -188 -61 70 199 0
-175 -188 61 -70 199 0
-175 -188 61 70 -199 0
-175 -188 -62 -71 -200 0
-175 -188 -62 71 200 0
-175 -188 62 -71 200 0
-175 -188 62 71 -200 0
-175 -188 -63 -72 -201 0
-175 -188 -63 72 201 0
-175 -188 63 -72 201 0
-175 -188 63 72 -201 0
-175 -189 -55 -73 -193 0
-175 -189 -55 73 193 0
-175 -189 55 -73 193 0
-175 -189 55 73 -193 0
-175 -189 -56 -74 -194 0
-175 -189 -56 74 194 0
-175 -189 56 -74 194 0
-175 -189 56 74 -194 0
-175 -189 -57 -75 -195 0
-175 -189 -57 75 195 0
-175 -189 57 -75 195 0
-175 -189 57 75 -195 0
-175 -189 -58 -76 -196 0
-175 -189 -58 76 196 0
-175 -189 58 -76 196 0
-175 -189 58 76 -196 0
-175 -189 -59 -77 -197 0
-175 -189 -59 77 197 0
-175 -189 59 -77 197 0
-175 -189 59 77 -197 0
-175 -189 -60 -78 -198 0
-175 -189 -60 78 198 0
-175 -189 60 -78 198 0
-175 -189 60 78 -198 0
-175 -189 -61 -79 -199 0
-175 -189 -61 79 199 0
-175 -189 61 -79 199 0
-175 -189 61 79 -199 0
-175 -189 -62 -80 -200 0
-175 -189 -62 80 200 0
-175 -189 62 -80 200 0
-175 -189 62 80 -200 0
-175 -189 -63 -81 -201 0
-175 -189 -63 81 201 0
-175 -189 63 -81 201 0
-175 -189 63 81 -201 0
-175 -190 -55 -100 -193 0
-175 -190 -55 100 193 0
-175 -190 55 -100 193 0
-175 -190 55 100 -193 0
-175 -190 -56 -101 -194 0
-175 -190 -56 101 194 0
-175 -190 56 -101 194 0
-175 -190 56 101 -194 0
-175 -190 -57 -102 -195 0
-175 -190 -57 102 195 0
-175 -190 57 -102 195 0
-175 -190 57 102 -195 0
-175 -190 -58 -103 -196 0
-175 -190 -58 103 196 0
-175 -190 58 -103 196 0
-175 -190 58 103 -196 0
-175 -190 -59 -104 -197 0
-175 -190 -59 104 197 0
-175 -190 59 -104 197 0
-175 -190 59 104 -197 0
-175 -190 -60 -105 -198 0
-175 -190 -60 105 198 0
-175 -190 60 -105 198 0
-175 -190 60 105 -198 0
-175 -190 -61 -106 -199 0
-175 -190 -61 106 199 0
-175 -190 61 -106 199 0
-175 -190 61 106 -199 0
-175 -190 -62 -107 -200 0
-175 -190 -62 107 200 0
-175 -190 62 -107 200 0
-175 -190 62 107 -200 0
-175 -190 -63 -108 -201 0
-175 -190 -63 108 201 0
-175 -190 63 -108 201 0
-175 -190 63 108 -201 0
-175 -191 -55 -129 -193 0
-175 -191 -55 129 193 0
-175 -191 55 -129 193 0
-175 -191 55 129 -193 0
-175 -191 -56 -130 -194 0
-175 -191 -56 130 194 0
-175 -191 56 -130 194 0
-175 -191 56 130 -194 0
-175 -191 -57 -131 -195 0
-175 -191 -57 131 195 0
-175 -191 57 -131 195 0
-175 -191 57 131 -195 0
-175 -191 -58 -132 -196 0
-175 -191 -58 132 196 0
-175 -191 58 -132 196 0
-175 -191 58 132 -196 0
-175 -191 -59 -133 -197 0
-175 -191 -59 133 197 0
-175 -191 59 -133 197 0
-175 -191 59 133 -197 0
-175 -191 -60 -134 -198 0
-175 -191 -60 134 198 0
-175 -191 60 -134 198 0
-175 -191 60 134 -198 0
-175 -191 -61 -135 -199 0
-175 -191 -61 135 199 0
-175 -191 61 -135 199 0
-175 -191 61 135 -199 0
-175 -191 -62 -136 -200 0
-175 -191 -62 136 200 0
-175 -191 62 -136 200 0
-175 -191 62 136 -200 0
-175 -191 -63 -137 -201 0
-175 -191 -63 137 201 0
-175 -191 63 -137 201 0
-175 -191 63 137 -201 0
-175 -192 -55 -160 -193 0
-175 -192 -55 160 193 0
-175 -192 55 -160 193 0
-175 -192 55 160 -193 0
-175 -192 -56 -161 -194 0
-175 -192 -56 161 194 0
-175 -192 56 -161 194 0
-175 -192 56 161 -194 0
-175 -192 -57 -162 -195 0
-175 -192 -57 162 195 0
-175 -192 57 -162 195 0
-175 -192 57 162 -195 0
-175 -192 -58 -163 -196 0
-175 -192 -58 163 196 0
-175 -192 58 -163 196 0
-175 -192 58 163 -196 0
-175 -192 -59 -164 -197 0
-175 -192 -59 164 197 0
-175 -192 59 -164 197 0
-175 -192 59 164 -197 0
-175 -192 -60 -165 -198 0
-175 -192 -60 165 198 0
-175 -192 60 -165 198 0
-175 -192 60 165 -198 0
-175 -192 -61 -166 -199 0
-175 -192 -61 166 199 0
-175 -192 61 -166 199 0
-175 -192 61 166 -199 0
-175 -192 -62 -167 -200 0
-175 -192 -62 167 200 0
-175 -192 62 -167 200 0
-175 -192 62 167 -200 0
-175 -192 -63 -168 -201 0
-175 -192 -63 168 201 0
-175 -192 63 -168 201 0
-175 -192 63 168 -201 0
-176 -189 -64 -73 -193 0
-176 -189 -64 73 193 0
-176 -189 64 -73 193 0
-176 -189 64 73 -193 0
-176 -189 -65 -74 -194 0
-176 -189 -65 74 194 0
-176 -189 65 -74 194 0
-176 -189 65 74 -194 0
-176 -189 -66 -75 -195 0
-176 -189 -66 75 195 0
-176 -189 66 -75 195 0
-176 -189 66 75 -195 0
-176 -189 -67 -76 -196 0
-176 -189 -67 76 196 0
-176 -189 67 -76 196 0
-176 -189 67 76 -196 0
-176 -189 -68 -77 -197 0
-176 -189 -68 77 197 0
-176 -189 68 -77 197 0
-176 -189 68 77 -197 0
-176 -189 -69 -78 -198 0
-176 -189 -69 78 198 0
-176 -189 69 -78 198 0
-176 -189 69 78 -198 0
-176 -189 -70 -79 -199 0
-176 -189 -70 79 199 0
-176 -189 70 -79 199 0
-176 -189 70 79 -199 0
-176 -189 -71 -80 -200 0
-176 -189 -71 80 200 0
-176 -189 71 -80 200 0
-176 -189 71 80 -200 0
-176 -189 -72 -81 -201 0
-176 -189 -72 81 201 0
-176 -189 72 -81 201 0
-176 -189 72 81 -201 0
-176 -190 -64 -100 -193 0
-176 -190 -64 100 193 0
-176 -190 64 -100 193 0
-176 -190 64 100 -193 0
-176 -190 -65 -101 -194 0
-176 -190 -65 101 194 0
-176 -190 65 -101 194 0
-176 -190 65 101 -194 0
-176 -190 -66 -102 -195 0
-176 -190 -66 102 195 0
-176 -190 66 -102 195 0
-176 -190 66 102 -195 0
-176 -190 -67 -103 -196 0
-176 -190 -67 103 196 0
-176 -190 67 -103 196 0
-176 -190 67 103 -196 0
-176 -190 -68 -104 -197 0
-176 -190 -68 104 197 0
-176 -190 68 -104 197 0
-176 -190 68 104 -197 0
-176 -190 -69 -105 -198 0
-176 -190 -69 105 198 0
-176 -190 69 -105 198 0
-176 -190 69 105 -198 0
-176 -190 -70 -106 -199 0
-176 -190 -70 106 199 0
-176 -190 70 -106 199 0
-176 -190 70 106 -199 0
-176 -190 -71 -107 -200 0
-176 -190 -71 107 200 0
-176 -190 71 -107 200 0
-176 -190 71 107 -200 0
-176 -190 -72 -108 -201 0
-176 -190 -72 108 201 0
-176 -190 72 -108 201 0
-176 -190 72 108 -201 0
-176 -191 -64 -129 -193 0
-176 -191 -64 129 193 0
-176 -191 64 -129 193 0
-176 -191 64 129 -193 0
-176 -191 -65 -130 -194 0
-176 -191 -65 130 194 0
-176 -191 65 -130 194 0
-176 -191 65 130 -194 0
-176 -191 -66 -131 -195 0
-176 -191 -66 131 195 0
-176 -191 66 -131 195 0
-176 -191 66 131 -195 0
-176 -191 -67 -132 -196 0
-176 -191 -67 132 196 0
-176 -191 67 -132 196 0
-176 -191 67 132 -196 0
-176 -191 -68 -133 -197 0
-176 -191 -68 133 197 0
-176 -191 68 -133 197 0
-176 -191 68 133 -197 0
-176 -191 -69 -134 -198 0
-176 -191 -69 134 198 0
-176 -191 69 -134 198 0
-176 -191 69 134 -198 0
-176 -191 -70 -135 -199 0
-176 -191 -70 135 199 0
-176 -191 70 -135 199 0
-176 -191 70 135 -199 0
-176 -191 -71 -136 -200 0
-176 -191 -71 136 200 0
-176 -191 71 -136 200 0
-176 -191 71 136 -200 0
-176 -191 -72 -137 -201 0
-176 -191 -72 137 201 0
-176 -191 72 -137 201 0
-176 -191 72 137 -201 0
-176 -192 -64 -160 -193 0
-176 -192 -64 160 193 0
-176 -192 64 -160 193 0
-176 -192 64 160 -193 0
-176 -192 -65 -161 -194 0
-176 -192 -65 161 194 0
-176 -192 65 -161 194 0
-176 -192 65 161 -194 0
-176 -192 -66 -162 -195 0
-176 -192 -66 162 195 0
-176 -192 66 -162 195 0
-176 -192 66 162 -195 0
-176 -192 -67 -163 -196 0
-176 -192 -67 163 196 0
-176 -192 67 -163 196 0
-176 -192 67 163 -196 0
-176 -192 -68 -164 -197 0
-176 -192 -68 164 197 0
-176 -192 68 -164 197 0
-176 -192 68 164 -197 0
-176 -192 -69 -165 -198 0
-176 -192 -69 165 198 0
-176 -192 69 -165 198 0
-176 -192 69 165 -198 0
-176 -192 -70 -166 -199 0
-176 -192 -70 166 199 0
-176 -192 70 -166 199 0
-176 -192 70 166 -199 0
-176 -192 -71 -167 -200 0
-176 -192 -71 167 200 0
-176 -192 71 -167 200 0
-176 -192 71 167 -200 0
-176 -192 -72 -168 -201 0
-176 -192 -72 168 201 0
-176 -192 72 -168 201 0
-176 -192 72 168 -201 0
-177 -190 -73 -100 -193 0
-177 -190 -73 100 193 0
-177 -190 73 -100 193 0
-177 -190 73 100 -193 0
-177 -190 -74 -101 -194 0
-177 -190 -74 101 194 0
-177 -190 74 -101 194 0
-177 -190 74 101 -194 0
-177 -190 -75 -102 -195 0
-177 -190 -75 102 195 0
-177 -190 75 -102 195 0
-177 -190 75 102 -195 0
-177 -190 -76 -103 -196 0
-177 -190 -76 103 196 0
-177 -190 76 -103 196 0
-177 -190 76 103 -196 0
-177 -190 -77 -104 -197 0
-177 -190 -77 104 197 0
-177 -190 77 -104 197 0
-177 -190 77 104 -197 0
-177 -190 -78 -105 -198 0
-177 -190 -78 105 198 0
-177 -190 78 -105 198 0
-177 -190 78 105 -198 0
-177 -190 -79 -106 -199 0
-177 -190 -79 106 199 0
-177 -190 79 -106 199 0
-177 -190 79 106 -199 0
-177 -190 -80 -107 -200 0
-177 -190 -80 107 200 0
-177 -190 80 -107 200 0
-177 -190 80 107 -200 0
-177 -190 -81 -108 -201 0
-177 -190 -81 108 201 0
-177 -190 81 -108 201 0
-177 -190 81 108 -201 0
-177 -191 -73 -129 -193 0
-177 -191 -73 129 193 0
-177 -191 73 -129 193 0
-177 -191 73 129 -193 0
-177 -191 -74 -130 -194 0
-177 -191 -74 130 194 0
-177 -191 74 -130 194 0
-177 -191 74 130 -194 0
-177 -191 -75 -131 -195 0
-177 -191 -75 131 195 0
-177 -191 75 -131 195 0
-177 -191 75 131 -195 0
-177 -191 -76 -132 -196 0
-177 -191 -76 132 196 0
-177 -191 76 -132 196 0
-177 -191 76 132 -196 0
-177 -191 -77 -133 -197 0
-177 -191 -77 133 197 0
-177 -191 77 -133 197 0
-177 -191 77 133 -197 0
-177 -191 -78 -134 -198 0
-177 -191 -78 134 198 0
-177 -191 78 -134 198 0
-177 -191 78 134 -198 0
-177 -191 -79 -135 -199 0
-177 -191 -79 135 199 0
-177 -191 79 -135 199 0
-177 -191 79 135 -199 0
-177 -191 -80 -136 -200 0
-177 -191 -80 136 200 0
-177 -191 80 -136 200 0
-177 -191 80 136 -200 0
-177 -191 -81 -137 -201 0
-177 -191 -81 137 201 0
-177 -191 81 -137 201 0
-177 -191 81 137 -201 0
-177 -192 -73 -160 -193 0
-177 -192 -73 160 193 0
-177 -192 73 -160 193 0
-177 -192 73 160 -193 0
-177 -192 -74 -161 -194 0
-177 -192 -74 161 194 0
-177 -192 74 -161 194 0
-177 -192 74 161 -194 0
-177 -192 -75 -162 -195 0
-177 -192 -75 162 195 0
-177 -192 75 -162 195 0
-177 -192 75 162 -195 0
-177 -192 -76 -163 -196 0
-177 -192 -76 163 196 0
-177 -192 76 -163 196 0
-177 -192 76 163 -196 0
-177 -192 -77 -164 -197 0
-177 -192 -77 164 197 0
-177 -192 77 -164 197 0
-177 -192 77 164 -197 0
-177 -192 -78 -165 -198 0
-177 -192 -78 165 198 0
-177 -192 78 -165 198 0
-177 -192 78 165 -198 0
-177 -192 -79 -166 -199 0
-177 -192 -79 166 199 0
-177 -192 79 -166 199 0
-177 -192 79 166 -199 0
-177 -192 -80 -167 -200 0
-177 -192 -80 167 200 0
-177 -192 80 -167 200 0
-177 -192 80 167 -200 0
-177 -192 -81 -168 -201 0
-177 -192 -81 168 201 0
-177 -192 81 -168 201 0
-177 -192 81 168 -201 0
-178 -191 -100 -129 -193 0
-178 -191 -100 129 193 0
-178 -191 100 -129 193 0
-178 -191 100 129 -193 0
-178 -191 -101 -130 -194 0
-178 -191 -101 130 194 0
-178 -191 101 -130 194 0
-178 -191 101 130 -194 0
-178 -191 -102 -131 -195 0
-178 -191 -102 131 195 0
-178 -191 102 -131 195 0
-178 -191 102 131 -195 0
-178 -191 -103 -132 -196 0
-178 -191 -103 132 196 0
-178 -191 103 -132 196 0
-178 -191 103 132 -196 0
-178 -191 -104 -133 -197 0
-178 -191 -104 133 197 0
-178 -191 104 -133 197 0
-178 -191 104 133 -197 0
-178 -191 -105 -134 -198 0
-178 -191 -105 134 198 0
-178 -191 105 -134 198 0
-178 -191 105 134 -198 0
-178 -191 -106 -135 -199 0
-178 -191 -106 135 199 0
-178 -191 106 -135 199 0
-178 -191 106 135 -199 0
-178 -191 -107 -136 -200 0
-178 -191 -107 136 200 0
-178 -191 107 -136 200 0
-178 -191 107 136 -200 0
-178 -191 -108 -137 -201 0
-178 -191 -108 137 201 0
-178 -191 108 -137 201 0
-178 -191 108 137 -201 0
-178 -192 -100 -160 -193 0
-178 -192 -100 160 193 0
-178 -192 100 -160 193 0
-178 -192 100 160 -193 0
-178 -192 -101 -161 -194 0
-178 -192 -101 161 194 0
-178 -192 101 -161 194 0
-178 -192 101 161 -194 0
-178 -192 -102 -162 -195 0
-178 -192 -102 162 195 0
-178 -192 102 -162 195 0
-178 -192 102 162 -195 0
-178 -192 -103 -163 -196 0
-178 -192 -103 163 196 0
-178 -192 103 -163 196 0
-178 -192 103 163 -196 0
-178 -192 -104 -164 -197 0
-178 -192 -104 164 197 0
-178 -192 104 -164 197 0
-178 -192 104 164 -197 0
-178 -192 -105 -165 -198 0
-178 -192 -105 165 198 0
-178 -192 105 -165 198 0
-178 -192 105 165 -198 0
-178 -192 -106 -166 -199 0
-178 -192 -106 166 199 0
-178 -192 106 -166 199 0
-178 -192 106 166 -199 0
-178 -192 -107 -167 -200 0
-178 -192 -107 167 200 0
-178 -192 107 -167 200 0
-178 -192 107 167 -200 0
-178 -192 -108 -168 -201 0
-178 -192 -108 168 201 0
-178 -192 108 -168 201 0
-178 -192 108 168 -201 0
-179 -192 -129 -160 -193 0
-179 -192 -129 160 193 0
-179 -192 129 -160 193 0
-179 -192 129 160 -193 0
-179 -192 -130 -161 -194 0
-179 -192 -130 161 194 0
-179 -192 130 -161 194 0
-179 -192 130 161 -194 0
-179 -192 -131 -162 -195 0
-179 -192 -131 162 195 0
-179 -192 131 -162 195 0
-179 -192 131 162 -195 0
-179 -192 -132 -163 -196 0
-179 -192 -132 163 196 0
-179 -192 132 -163 196 0
-179 -192 132 163 -196 0
-179 -192 -133 -164 -197 0
-179 -192 -133 164 197 0
-179 -192 133 -164 197 0
-179 -192 133 164 -197 0
-179 -192 -134 -165 -198 0
-179 -192 -134 165 198 0
-179 -192 134 -165 198 0
-179 -192 134 165 -198 0
-179 -192 -135 -166 -199 0
-179 -192 -135 166 199 0
-179 -192 135 -166 199 0
-179 -192 135 166 -199 0
-179 -192 -136 -167 -200 0
-179 -192 -136 167 200 0
-179 -192 136 -167 200 0
-179 -192 136 167 -200 0
-179 -192 -137 -168 -201 0
-179 -192 -137 168 201 0
-179 -192 137 -168 201 0
-179 -192 137 168 -201 0
193 194 195 196 197 198 199 200 201 0
202 203 204 205 206 207 208 209 210 211 212 213 214 0
-202 -203 0
-202 -204 0
-202 -205 0
-202 -206 0
-202 -207 0
-202 -208 0
-202 -209 0
-202 -210 0
-202 -211 0
-202 -212 0
-202 -213 0
-202 -214 0
-203 -204 0
-203 -205 0
-203 -206 0
-203 -207 0
-203 -208 0
-203 -209 0
-203 -210 0
-203 -211 0
-203 -212 0
-203 -213 0
-203 -214 0
-204 -205 0
-204 -206 0
-204 -207 0
-204 -208 0
-204 -209 0
-204 -210 0
-204 -211 0
-204 -212 0
-204 -213 0
-204 -214 0
-205 -206 0
-205 -207 0
-205 -208 0
-205 -209 0
-205 -210 0
-205 -211 0
-205 -212 0
-205 -213 0
-205 -214 0
-206 -207 0
-206 -208 0
-206 -209 0
-206 -210 0
-206 -211 0
-206 -212 0
-206 -213 0
-206 -214 0
-207 -208 0
-207 -209 0
-207 -210 0
-207 -211 0
-207 -212 0
-207 -213 0
-207 -214 0
-208 -209 0
-208 -210 0
-208 -211 0
-208 -212 0
-208 -213 0
-208 -214 0
-209 -210 0
-209 -211 0
-209 -212 0
-209 -213 0
-209 -214 0
-210 -211 0
-210 -212 0
-210 -213 0
-210 -214 0
-211 -212 0
-211 -213 0
-211 -214 0
-212 -213 0
-212 -214 0
-213 -214 0
215 216 217 218 219 220 221 222 223 224 225 226 227 0
-215 -216 0
-215 -217 0
-215 -218 0
-215 -219 0
-215 -220 0
-215 -221 0
-215 -222 0
-215 -223 0
-215 -224 0
-215 -225 0
-215 -226 0
-215 -227 0
-216 -217 0
-216 -218 0
-216 -219 0
-216 -220 0
-216 -221 0
-216 -222 0
-216 -223 0
-216 -224 0
-216 -225 0
-216 -226 0
-216 -227 0
-217 -218 0
-217 -219 0
-217 -220 0
-217 -221 0
-217 -222 0
-217 -223 0
-217 -224 0
-217 -225 0
-217 -226 0
-217 -227 0
-218 -219 0
-218 -220 0
-218 -221 0
-218 -222 0
-218 -223 0
-218 -224 0
-218 -225 0
-218 -226 0
-218 -227 0
-219 -220 0
-219 -221 0
-219 -222 0
-219 -223 0
-219 -224 0
-219 -225 0
-219 -226 0
-219 -227 0
-220 -221 0
-220 -222 0
-220 -223 0
-220 -224 0
-220 -225 0
-220 -226 0
-220 -227 0
-221 -222 0
-221 -223 0
-221 -224 0
-221 -225 0
-221 -226 0
-221 -227 0
-222 -223 0
-222 -224 0
-222 -225 0
-222 -226 0
-222 -227 0
-223 -224 0
-223 -225 0
-223 -226 0
-223 -227 0
-224 -225 0
-224 -226 0
-224 -227 0
-225 -226 0
-225 -227 0
-226 -227 0
-202 -215 0
-203 -215 0
-203 -216 0
-204 -215 0
-204 -216 0
-204 -217 0
-205 -215 0
-205 -216 0
-205 -217 0
-205 -218 0
-206 -215 0
-206 -216 0
-206 -217 0
-206 -218 0
-206 -219 0
-207 -215 0
-207 -216 0
-207 -217 0
-207 -218 0
-207 -219 0
-207 -220 0
-208 -215 0
-208 -216 0
-208 -217 0
-208 -218 0
-208 -219 0
-208 -220 0
-208 -221 0
-209 -215 0
-209 -216 0
-209 -217 0
-209 -218 0
-209 -219 0
-209 -220 0
-209 -221 0
-209 -222 0
-210 -215 0
-210 -216 0
-210 -217 0
-210 -218 0
-210 -219 0
-210 -220 0
-210 -221 0
-210 -222 0
-210 -223 0
-211 -215 0
-211 -216 0
-211 -217 0
-211 -218 0
-211 -219 0
-211 -220 0
-211 -221 0
-211 -222 0
-211 -223 0
-211 -224 0
-212 -215 0
-212 -216 0
-212 -217 0
-212 -218 0
-212 -219 0
-212 -220 0
-212 -221 0
-212 -222 0
-212 -223 0
-212 -224 0
-212 -225 0
-213 -215 0
-213 -216 0
-213 -217 0
-213 -218 0
-213 -219 0
-213 -220 0
-213 -221 0
-213 -222 0
-213 -223 0
-213 -224 0
-213 -225 0
-213 -226 0
-214 -215 0
-214 -216 0
-214 -217 0
-214 -218 0
-214 -219 0
-214 -220 0
-214 -221 0
-214 -222 0
-214 -223 0
-214 -224 0
-214 -225 0
-214 -226 0
-214 -227 0
-202 -216 -1 -10 -228 0
-202 -216 -1 10 228 0
-202 -216 1 -10 228 0
-202 -216 1 10 -228 0
-202 -216 -2 -11 -229 0
-202 -216 -2 11 229 0
-202 -216 2 -11 229 0
-202 -216 2 11 -229 0
-202 -216 -3 -12 -230 0
-202 -216 -3 12 230 0
-202 -216 3 -12 230 0
-202 -216 3 12 -230 0
-202 -216 -4 -13 -231 0
-202 -216 -4 13 231 0
-202 -216 4 -13 231 0
-202 -216 4 13 -231 0
-202 -216 -5 -14 -232 0
-202 -216 -5 14 232 0
-202 -216 5 -14 232 0
-202 -216 5 14 -232 0
-202 -216 -6 -15 -233 0
-202 -216 -6 15 233 0
-202 -216 6 -15 233 0
-202 -216 6 15 -233 0
-202 -216 -7 -16 -234 0
-202 -216 -7 16 234 0
-202 -216 7 -16 234 0
-202 -216 7 16 -234 0
-202 -216 -8 -17 -235 0
-202 -216 -8 17 235 0
-202 -216 8 -17 235 0
-202 -216 8 17 -235 0
-202 -216 -9 -18 -236 0
-202 -216 -9 18 236 0
-202 -216 9 -18 236 0
-202 -216 9 18 -236 0
-202 -217 -1 -19 -228 0
-202 -217 -1 19 228 0
-202 -217 1 -19 228 0
-202 -217 1 19 -228 0
-202 -217 -2 -20 -229 0
-202 -217 -2 20 229 0
-202 -217 2 -20 229 0
-202 -217 2 20 -229 0
-202 -217 -3 -21 -230 0
-202 -217 -3 21 230 0
-202 -217 3 -21 230 0
-202 -217 3 21 -230 0
-202 -217 -4 -22 -231 0
-202 -217 -4 22 231 0
-202 -217 4 -22 231 0
-202 -217 4 22 -231 0
-202 -217 -5 -23 -232 0
-202 -217 -5 23 232 0
-202 -217 5 -23 232 0
-202 -217 5 23 -232 0
-202 -217 -6 -24 -233 0
-202 -217 -6 24 233 0
-202 -217 6 -24 233 0
-202 -217 6 24 -233 0
-202 -217 -7 -25 -234 0
-202 -217 -7 25 234 0
-202 -217 7 -25 234 0
-202 -217 7 25 -234 0
-202 -217 -8 -26 -235 0
-202 -217 -8 26 235 0
-202 -217 8 -26 235 0
-202 -217 8 26 -235 0
-202 -217 -9 -27 -236 0
-202 -217 -9 27 236 0
-202 -217 9 -27 236 0
-202 -217 9 27 -236 0
-202 -218 -1 -28 -228 0
-202 -218 -1 28 228 0
-202 -218 1 -28 228 0
-202 -218 1 28 -228 0
-202 -218 -2 -29 -229 0
-202 -218 -2 29 229 0
-202 -218 2 -29 229 0
-202 -218 2 29 -229 0
-202 -218 -3 -30 -230 0
-202 -218 -3 30 230 0
-202 -218 3 -30 230 0
-202 -218 3 30 -230 0
-202 -218 -4 -31 -231 0
-202 -218 -4 31 231 0
-202 -218 4 -31 231 0
-202 -218 4 31 -231 0
-202 -218 -5 -32 -232 0
-202 -218 -5 32 232 0
-202 -218 5 -32 232 0
-202 -218 5 32 -232 0
-202 -218 -6 -33 -233 0
-202 -218 -6 33 233 0
-202 -218 6 -33 233 0
-202 -218 6 33 -233 0
-202 -218 -7 -34 -234 0
-202 -218 -7 34 234 0
-202 -218 7 -34 234 0
-202 -218 7 34 -234 0
-202 -218 -8 -35 -235 0
-202 -218 -8 35 235 0
-202 -218 8 -35 235 0
-202 -218 8 35 -235 0
-202 -218 -9 -36 -236 0
-202 -218 -9 36 236 0
-202 -218 9 -36 236 0
-202 -218 9 36 -236 0
-202 -219 -1 -37 -228 0
-202 -219 -1 37 228 0
-202 -219 1 -37 228 0
-202 -219 1 37 -228 0
-202 -219 -2 -38 -229 0
-202 -219 -2 38 229 0
-202 -219 2 -38 229 0
-202 -219 2 38 -229 0
-202 -219 -3 -39 -230 0
-202 -219 -3 39 230 0
-202 -219 3 -39 230 0
-202 -219 3 39 -230 0
-202 -219 -4 -40 -231 0
-202 -219 -4 40 231 0
-202 -219 4 -40 231 0
-202 -219 4 40 -231 0
-202 -219 -5 -41 -232 0
-202 -219 -5 41 232 0
-202 -219 5 -41 232 0
-202 -219 5 41 -232 0
-202 -219 -6 -42 -233 0
-202 -219 -6 42 233 0
-202 -219 6 -42 233 0
-202 -219 6 42 -233 0
-202 -219 -7 -43 -234 0
-202 -219 -7 43 234 0
-202 -219 7 -43 234 0
-202 -219 7 43 -234 0
-202 -219 -8 -44 -235 0
-202 -219 -8 44 235 0
-202 -219 8 -44 235 0
-202 -219 8 44 -235 0
-202 -219 -9 -45 -236 0
-202 -219 -9 45 236 0
-202 -219 9 -45 236 0
-202 -219 9 45 -236 0
-202 -220 -1 -46 -228 0
-202 -220 -1 46 228 0
-202 -220 1 -46 228 0
-202 -220 1 46 -228 0
-202 -220 -2 -47 -229 0
-202 -220 -2 47 229 0
-202 -220 2 -47 229 0
-202 -220 2 47 -229 0
-202 -220 -3 -48 -230 0
-202 -220 -3 48 230 0
-202 -220 3 -48 230 0
-202 -220 3 48 -230 0
-202 -220 -4 -49 -231 0
-202 -220 -4 49 231 0
-202 -220 4 -49 231 0
-202 -220 4 49 -231 0
-202 -220 -5 -50 -232 0
-202 -220 -5 50 232 0
-202 -220 5 -50 232 0
-202 -220 5 50 -232 0
-202 -220 -6 -51 -233 0
-202 -220 -6 51 233 0
-202 -220 6 -51 233 0
-202 -220 6 51 -233 0
-202 -220 -7 -52 -234 0
-202 -220 -7 52 234 0
-202 -220 7 -52 234 0
-202 -220 7 52 -234 0
-202 -220 -8 -53 -235 0
-202 -220 -8 53 235 0
-202 -220 8 -53 235 0
-202 -220 8 53 -235 0
-202 -220 -9 -54 -236 0
-202 -220 -9 54 236 0
-202 -220 9 -54 236 0
-202 -220 9 54 -236 0
-202 -221 -1 -55 -228 0
-202 -221 -1 55 228 0
-202 -221 1 -55 228 0
-202 -221 1 55 -228 0
-202 -221 -2 -56 -229 0
-202 -221 -2 56 229 0
-202 -221 2 -56 229 0
-202 -221 2 56 -229 0
-202 -221 -3 -57 -230 0
-202 -221 -3 57 230 0
-202 -221 3 -57 230 0
-202 -221 3 57 -230 0
-202 -221 -4 -58 -231 0
-202 -221 -4 58 231 0
-202 -221 4 -58 231 0
-202 -221 4 58 -231 0
-202 -221 -5 -59 -232 0
-202 -221 -5 59 232 0
-202 -221 5 -59 232 0
-202 -221 5 59 -232 0
-202 -221 -6 -60 -233 0
-202 -221 -6 60 233 0
-202 -221 6 -60 233 0
-202 -221 6 60 -233 0
-202 -221 -7 -61 -234 0
-202 -221 -7 61 234 0
-202 -221 7 -61 234 0
-202 -221 7 61 -234 0
-202 -221 -8 -62 -235 0
-202 -221 -8 62 235 0
-202 -221 8 -62 235 0
-202 -221 8 62 -235 0
-202 -221 -9 -63 -236 0
-202 -221 -9 63 236 0
-202 -221 9 -63 236 0
-202 -221 9 63 -236 0
-202 -222 -1 -64 -228 0
-202 -222 -1 64 228 0
-202 -222 1 -64 228 0
-202 -222 1 64 -228 0
-202 -222 -2 -65 -229 0
-202 -222 -2 65 229 0
-202 -222 2 -65 229 0
-202 -222 2 65 -229 0
-202 -222 -3 -66 -230 0
-202 -222 -3 66 230 0
-202 -222 3 -66 230 0
-202 -222 3 66 -230 0
-202 -222 -4 -67 -231 0
-202 -222 -4 67 231 0
-202 -222 4 -67 231 0
-202 -222 4 67 -231 0
-202 -222 -5 -68 -232 0
-202 -222 -5 68 232 0
-202 -222 5 -68 232 0
-202 -222 5 68 -232 0
-202 -222 -6 -69 -233 0
-202 -222 -6 69 233 0
-202 -222 6 -69 233 0
-202 -222 6 69 -233 0
-202 -222 -7 -70 -234 0
-202 -222 -7 70 234 0
-202 -222 7 -70 234 0
-202 -222 7 70 -234 0
-202 -222 -8 -71 -235 0
-202 -222 -8 71 235 0
-202 -222 8 -71 235 0
-202 -222 8 71 -235 0
-202 -222 -9 -72 -236 0
-202 -222 -9 72 236 0
-202 -222 9 -72 236 0
-202 -222 9 72 -236 0
-202 -223 -1 -73 -228 0
-202 -223 -1 73 228 0
-202 -223 1 -73 228 0
-202 -223 1 73 -228 0
-202 -223 -2 -74 -229 0
-202 -223 -2 74 229 0
-202 -223 2 -74 229 0
-202 -223 2 74 -229 0
-202 -223 -3 -75 -230 0
-202 -223 -3 75 230 0
-202 -223 3 -75 230 0
-202 -223 3 75 -230 0
-202 -223 -4 -76 -231 0
-202 -223 -4 76 231 0
-202 -223 4 -76 231 0
-202 -223 4 76 -231 0
-202 -223 -5 -77 -232 0
-202 -223 -5 77 232 0
-202 -223 5 -77 232 0
-202 -223 5 77 -232 0
-202 -223 -6 -78 -233 0
-202 -223 -6 78 233 0
-202 -223 6 -78 233 0
-202 -223 6 78 -233 0
-202 -223 -7 -79 -234 0
-202 -223 -7 79 234 0
-202 -223 7 -79 234 0
-202 -223 7 79 -234 0
-202 -223 -8 -80 -235 0
-202 -223 -8 80 235 0
-202 -223 8 -80 235 0
-202 -223 8 80 -235 0
-202 -223 -9 -81 -236 0
-202 -223 -9 81 236 0
-202 -223 9 -81 236 0
-202 -223 9 81 -236 0
-202 -224 -1 -100 -228 0
-202 -224 -1 100 228 0
-202 -224 1 -100 228 0
-202 -224 1 100 -228 0
-202 -224 -2 -101 -229 0
-202 -224 -2 101 229 0
-202 -224 2 -101 229 0
-202 -224 2 101 -229 0
-202 -224 -3 -102 -230 0
-202 -224 -3 102 230 0
-202 -224 3 -102 230 0
-202 -224 3 102 -230 0
-202 -224 -4 -103 -231 0
-202 -224 -4 103 231 0
-202 -224 4 -103 231 0
-202 -224 4 103 -231 0
-202 -224 -5 -104 -232 0
-202 -224 -5 104 232 0
-202 -224 5 -104 232 0
-202 -224 5 104 -232 0
-202 -224 -6 -105 -233 0
-202 -224 -6 105 233 0
-202 -224 6 -105 233 0
-202 -224 6 105 -233 0
-202 -224 -7 -106 -234 0
-202 -224 -7 106 234 0
-202 -224 7 -106 234 0
-202 -224 7 106 -234 0
-202 -224 -8 -107 -235 0
-202 -224 -8 107 235 0
-202 -224 8 -107 235 0
-202 -224 8 107 -235 0
-202 -224 -9 -108 -236 0
-202 -224 -9 108 236 0
-202 -224 9 -108 236 0
-202 -224 9 108 -236 0
-202 -225 -1 -129 -228 0
-202 -225 -1 129 228 0
-202 -225 1 -129 228 0
-202 -225 1 129 -228 0
-202 -225 -2 -130 -229 0
-202 -225 -2 130 229 0
-202 -225 2 -130 229 0
-202 -225 2 130 -229 0
-202 -225 -3 -131 -230 0
-202 -225 -3 131 230 0
-202 -225 3 -131 230 0
-202 -225 3 131 -230 0
-202 -225 -4 -132 -231 0
-202 -225 -4 132 231 0
-202 -225 4 -132 231 0
-202 -225 4 132 -231 0
-202 -225 -5 -133 -232 0
-202 -225 -5 133 232 0
-202 -225 5 -133 232 0
-202 -225 5 133 -232 0
-202 -225 -6 -134 -233 0
-202 -225 -6 134 233 0
-202 -225 6 -134 233 0
-202 -225 6 134 -233 0
-202 -225 -7 -135 -234 0
-202 -225 -7 135 234 0
-202 -225 7 -135 234 0
-202 -225 7 135 -234 0
-202 -225 -8 -136 -235 0
-202 -225 -8 136 235 0
-202 -225 8 -136 235 0
-202 -225 8 136 -235 0
-202 -225 -9 -137 -236 0
-202 -225 -9 137 236 0
-202 -225 9 -137 236 0
-202 -225 9 137 -236 0
-202 -226 -1 -160 -228 0
-202 -226 -1 160 228 0
-202 -226 1 -160 228 0
-202 -226 1 160 -228 0
-202 -226 -2 -161 -229 0
-202 -226 -2 161 229 0
-202 -226 2 -161 229 0
-202 -226 2 161 -229 0
-202 -226 -3 -162 -230 0
-202 -226 -3 162 230 0
-202 -226 3 -162 230 0
-202 -226 3 162 -230 0
-202 -226 -4 -163 -231 0
-202 -226 -4 163 231 0
-202 -226 4 -163 231 0
-202 -226 4 163 -231 0
-202 -226 -5 -164 -232 0
-202 -226 -5 164 232 0
-202 -226 5 -164 232 0
-202 -226 5 164 -232 0
-202 -226 -6 -165 -233 0
-202 -226 -6 165 233 0
-202 -226 6 -165 233 0
-202 -226 6 165 -233 0
-202 -226 -7 -166 -234 0
-202 -226 -7 166 234 0
-202 -226 7 -166 234 0
-202 -226 7 166 -234 0
-202 -226 -8 -167 -235 0
-202 -226 -8 167 235 0
-202 -226 8 -167 235 0
-202 -226 8 167 -235 0
-202 -226 -9 -168 -236 0
-202 -226 -9 168 236 0
-202 -226 9 -168 236 0
-202 -226 9 168 -236 0
-202 -227 -1 -193 -228 0
-202 -227 -1 193 228 0
-202 -227 1 -193 228 0
-202 -227 1 193 -228 0
-202 -227 -2 -194 -229 0
-202 -227 -2 194 229 0
-202 -227 2 -194 229 0
-202 -227 2 194 -229 0
-202 -227 -3 -195 -230 0
-202 -227 -3 195 230 0
-202 -227 3 -195 230 0
-202 -227 3 195 -230 0
-202 -227 -4 -196 -231 0
-202 -227 -4 196 231 0
-202 -227 4 -196 231 0
-202 -227 4 196 -231 0
-202 -227 -5 -197 -232 0
-202 -227 -5 197 232 0
-202 -227 5 -197 232 0
-202 -227 5 197 -232 0
-202 -227 -6 -198 -233 0
-202 -227 -6 198 233 0
-202 -227 6 -198 233 0
-202 -227 6 198 -233 0
-202 -227 -7 -199 -234 0
-202 -227 -7 199 234 0
-202 -227 7 -199 234 0
-202 -227 7 199 -234 0
-202 -227 -8 -200 -235 0
-202 -227 -8 200 235 0
-202 -227 8 -200 235 0
-202 -227 8 200 -235 0
-202 -227 -9 -201 -236 0
-202 -227 -9 201 236 0
-202 -227 9 -201 236 0
-202 -227 9 201 -236 0
-203 -217 -10 -19 -228 0
-203 -217 -10 19 228 0
-203 -217 10 -19 228 0
-203 -217 10 19 -228 0
-203 -217 -11 -20 -229 0
-203 -217 -11 20 229 0
-203 -217 11 -20 229 0
-203 -217 11 20 -229 0
-203 -217 -12 -21 -230 0
-203 -217 -12 21 230 0
-203 -217 12 -21 230 0
-203 -217 12 21 -230 0
-203 -217 -13 -22 -231 0
-203 -217 -13 22 231 0
-203 -217 13 -22 231 0
-203 -217 13 22 -231 0
-203 -217 -14 -23 -232 0
-203 -217 -14 23 232 0
-203 -217 14 -23 232 0
-203 -217 14 23 -232 0
-203 -217 -15 -24 -233 0
-203 -217 -15 24 233 0
-203 -217 15 -24 233 0
-203 -217 15 24 -233 0
-203 -217 -16 -25 -234 0
-203 -217 -16 25 234 0
-203 -217 16 -25 234 0
-203 -217 16 25 -234 0
-203 -217 -17 -26 -235 0
-203 -217 -17 26 235 0
-203 -217 17 -26 235 0
-203 -217 17 26 -235 0
-203 -217 -18 -27 -236 0
-203 -217 -18 27 236 0
-203 -217 18 -27 236 0
-203 -217 18 27 -236 0
-203 -218 -10 -28 -228 0
-203 -218 -10 28 228 0
-203 -218 10 -28 228 0
-203 -218 10 28 -228 0
-203 -218 -11 -29 -229 0
-203 -218 -11 29 229 0
-203 -218 11 -29 229 0
-203 -218 11 29 -229 0
-203 -218 -12 -30 -230 0
-203 -218 -12 30 230 0
-203 -218 12 -30 230 0
-203 -218 12 30 -230 0
-203 -218 -13 -31 -231 0
-203 -218 -13 31 231 0
-203 -218 13 -31 231 0
-203 -218 13 31 -231 0
-203 -218 -14 -32 -232 0
-203 -218 -14 32 232 0
-203 -218 14 -32 232 0
-203 -218 14 32 -232 0
-203 -218 -15 -33 -233 0
-203 -218 -15 33 233 0
-203 -218 15 -33 233 0
-203 -218 15 33 -233 0
-203 -218 -16 -34 -234 0
-203 -218 -16 34 234 0
-203 -218 16 -34 234 0
-203 -218 16 34 -234 0
-203 -218 -17 -35 -235 0
-203 -218 -17 35 235 0
-203 -218 17 -35 235 0
-203 -218 17 35 -235 0
-203 -218 -18 -36 -236 0
-203 -218 -18 36 236 0
-203 -218 18 -36 236 0
-203 -218 18 36 -236 0
-203 -219 -10 -37 -228 0
-203 -219 -10 37 228 0
-203 -219 10 -37 228 0
-203 -219 10 37 -228 0
-203 -219 -11 -38 -229 0
-203 -219 -11 38 229 0
-203 -219 11 -38 229 0
-203 -219 11 38 -229 0
-203 -219 -12 -39 -230 0
-203 -219 -12 39 230 0
-203 -219 12 -39 230 0
-203 -219 12 39 -230 0
-203 -219 -13 -40 -231 0
-203 -219 -13 40 231 0
-203 -219 13 -40 231 0
-203 -219 13 40 -231 0
-203 -219 -14 -41 -232 0
-203 -219 -14 41 232 0
-203 -219 14 -41 232 0
-203 -219 14 41 -232 0
-203 -219 -15 -42 -233 0
-203 -219 -15 42 233 0
-203 -219 15 -42 233 0
-203 -219 15 42 -233 0
-203 -219 -16 -43 -234 0
-203 -219 -16 43 234 0
-203 -219 16 -43 234 0
-203 -219 16 43 -234 0
-203 -219 -17 -44 -235 0
-203 -219 -17 44 235 0
-203 -219 17 -44 235 0
-203 -219 17 44 -235 0
-203 -219 -18 -45 -236 0
-203 -219 -18 45 236 0
-203 -219 18 -45 236 0
-203 -219 18 45 -236 0
-203 -220 -10 -46 -228 0
-203 -220 -10 46 228 0
-203 -220 10 -46 228 0
-203 -220 10 46 -228 0
-203 -220 -11 -47 -229 0
-203 -220 -11 47 229 0
-203 -220 11 -47 229 0
-203 -220 11 47 -229 0
-203 -220 -12 -48 -230 0
-203 -220 -12 48 230 0
-203 -220 12 -48 230 0
-203 -220 12 48 -230 0
-203 -220 -13 -49 -231 0
-203 -220 -13 49 231 0
-203 -220 13 -49 231 0
-203 -220 13 49 -231 0
-203 -220 -14 -50 -232 0
-203 -220 -14 50 232 0
-203 -220 14 -50 232 0
-203 -220 14 50 -232 0
-203 -220 -15 -51 -233 0
-203 -220 -15 51 233 0
-203 -220 15 -51 233 0
-203 -220 15 51 -233 0
-203 -220 -16 -52 -234 0
-203 -220 -16 52 234 0
-203 -220 16 -52 234 0
-203 -220 16 52 -234 0
-203 -220 -17 -53 -235 0
-203 -220 -17 53 235 0
-203 -220 17 -53 235 0
-203 -220 17 53 -235 0
-203 -220 -18 -54 -236 0
-203 -220 -18 54 236 0
-203 -220 18 -54 236 0
-203 -220 18 54 -236 0
-203 -221 -10 -55 -228 0
-203 -221 -10 55 228 0
-203 -221 10 -55 228 0
-203 -221 10 55 -228 0
-203 -221 -11 -56 -229 0
-203 -221 -11 56 229 0
-203 -221 11 -56 229 0
-203 -221 11 56 -229 0
-203 -221 -12 -57 -230 0
-203 -221 -12 57 230 0
-203 -221 12 -57 230 0
-203 -221 12 57 -230 0
-203 -221 -13 -58 -231 0
-203 -221 -13 58 231 0
-203 -221 13 -58 231 0
-203 -221 13 58 -231 0
-203 -221 -14 -59 -232 0
-203 -221 -14 59 232 0
-203 -221 14 -59 232 0
-203 -221 14 59 -232 0
-203 -221 -15 -60 -233 0
-203 -221 -15 60 233 0
-203 -221 15 -60 233 0
-203 -221 15 60 -233 0
-203 -221 -16 -61 -234 0
-203 -221 -16 61 234 0
-203 -221 16 -61 234 0
-203 -221 16 61 -234 0
-203 -221 -17 -62 -235 0
-203 -221 -17 62 235 0
-203 -221 17 -62 235 0
-203 -221 17 62 -235 0
-203 -221 -18 -63 -236 0
-203 -221 -18 63 236 0
-203 -221 18 -63 236 0
-203 -221 18 63 -236 0
-203 -222 -10 -64 -228 0
-203 -222 -10 64 228 0
-203 -222 10 -64 228 0
-203 -222 10 64 -228 0
-203 -222 -11 -65 -229 0
-203 -222 -11 65 229 0
-203 -222 11 -65 229 0
-203 -222 11 65 -229 0
-203 -222 -12 -66 -230 0
-203 -222 -12 66 230 0
-203 -222 12 -66 230 0
-203 -222 12 66 -230 0
-203 -222 -13 -67 -231 0
-203 -222 -13 67 231 0
-203 -222 13 -67 231 0
-203 -222 13 67 -231 0
-203 -222 -14 -68 -232 0
-203 -222 -14 68 232 0
-203 -222 14 -68 232 0
-203 -222 14 68 -232 0
-203 -222 -15 -69 -233 0
-203 -222 -15 69 233 0
-203 -222 15 -69 233 0
-203 -222 15 69 -233 0
-203 -222 -16 -70 -234 0
-203 -222 -16 70 234 0
-203 -222 16 -70 234 0
-203 -222 16 70 -234 0
-203 -222 -17 -71 -235 0
-203 -222 -17 71 235 0
-203 -222 17 -71 235 0
-203 -222 17 71 -235 0
-203 -222 -18 -72 -236 0
-203 -222 -18 72 236 0
-203 -222 18 -72 236 0
-203 -222 18 72 -236 0
-203 -223 -10 -73 -228 0
-203 -223 -10 73 228 0
-203 -223 10 -73 228 0
-203 -223 10 73 -228 0
-203 -223 -11 -74 -229 0
-203 -223 -11 74 229 0
-203 -223 11 -74 229 0
-203 -223 11 74 -229 0
-203 -223 -12 -75 -230 0
-203 -223 -12 75 230 0
-203 -223 12 -75 230 0
-203 -223 12 75 -230 0
-203 -223 -13 -76 -231 0
-203 -223 -13 76 231 0
-203 -223 13 -76 231 0
-203 -223 13 76 -231 0
-203 -223 -14 -77 -232 0
-203 -223 -14 77 232 0
-203 -223 14 -77 232 0
-203 -223 14 77 -232 0
-203 -223 -15 -78 -233 0
-203 -223 -15 78 233 0
-203 -223 15 -78 233 0
-203 -223 15 78 -233 0
-203 -223 -16 -79 -234 0
-203 -223 -16 79 234 0
-203 -223 16 -79 234 0
-203 -223 16 79 -234 0
-203 -223 -17 -80 -235 0
-203 -223 -17 80 235 0
-203 -223 17 -80 235 0
-203 -223 17 80 -235 0
-203 -223 -18 -81 -236 0
-203 -223 -18 81 236 0
-203 -223 18 -81 236 0
-203 -223 18 81 -236 0
-203 -224 -10 -100 -228 0
-203 -224 -10 100 228 0
-203 -224 10 -100 228 0
-203 -224 10 100 -228 0
-203 -224 -11 -101 -229 0
-203 -224 -11 101 229 0
-203 -224 11 -101 229 0
-203 -224 11 101 -229 0
-203 -224 -12 -102 -230 0
-203 -224 -12 102 230 0
-203 -224 12 -102 230 0
-203 -224 12 102 -230 0
-203 -224 -13 -103 -231 0
-203 -224 -13 103 231 0
-203 -224 13 -103 231 0
-203 -224 13 103 -231 0
-203 -224 -14 -104 -232 0
-203 -224 -14 104 232 0
-203 -224 14 -104 232 0
-203 -224 14 104 -232 0
-203 -224 -15 -105 -233 0
-203 -224 -15 105 233 0
-203 -224 15 -105 233 0
-203 -224 15 105 -233 0
-203 -224 -16 -106 -234 0
-203 -224 -16 106 234 0
-203 -224 16 -106 234 0
-203 -224 16 106 -234 0
-203 -224 -17 -107 -235 0
-203 -224 -17 107 235 0
-203 -224 17 -107 235 0
-203 -224 17 107 -235 0
-203 -224 -18 -108 -236 0
-203 -224 -18 108 236 0
-203 -224 18 -108 236 0
-203 -224 18 108 -236 0
-203 -225 -10 -129 -228 0
-203 -225 -10 129 228 0
-203 -225 10 -129 228 0
-203 -225 10 129 -228 0
-203 -225 -11 -130 -229 0
-203 -225 -11 130 229 0
-203 -225 11 -130 229 0
-203 -225 11 130 -229 0
-203 -225 -12 -131 -230 0
-203 -225 -12 131 230 0
-203 -225 12 -131 230 0
-203 -225 12 131 -230 0
-203 -225 -13 -132 -231 0
-203 -225 -13 132 231 0
-203 -225 13 -132 231 0
-203 -225 13 132 -231 0
-203 -225 -14 -133 -232 0
-203 -225 -14 133 232 0
-203 -225 14 -133 232 0
-203 -225 14 133 -232 0
-203 -225 -15 -134 -233 0
-203 -225 -15 134 233 0
-203 -225 15 -134 233 0
-203 -225 15 134 -233 0
-203 -225 -16 -135 -234 0
-203 -225 -16 135 234 0
-203 -225 16 -135 234 0
-203 -225 16 135 -234 0
-203 -225 -17 -136 -235 0
-203 -225 -17 136 235 0
-203 -225 17 -136 235 0
-203 -225 17 136 -235 0
-203 -225 -18 -137 -236 0
-203 -225 -18 137 236 0
-203 -225 18 -137 236 0
-203 -225 18 137 -236 0
-203 -226 -10 -160 -228 0
-203 -226 -10 160 228 0
-203 -226 10 -160 228 0
-203 -226 10 160 -228 0
-203 -226 -11 -161 -229 0
-203 -226 -11 161 229 0
-203 -226 11 -161 229 0
-203 -226 11 161 -229 0
-203 -226 -12 -162 -230 0
-203 -226 -12 162 230 0
-203 -226 12 -162 230 0
-203 -226 12 162 -230 0
-203 -226 -13 -163 -231 0
-203 -226 -13 163 231 0
-203 -226 13 -163 231 0
-203 -226 13 163 -231 0
-203 -226 -14 -164 -232 0
-203 -226 -14 164 232 0
-203 -226 14 -164 232 0
-203 -226 14 164 -232 0
-203 -226 -15 -165 -233 0
-203 -226 -15 165 233 0
-203 -226 15 -165 233 0
-203 -226 15 165 -233 0
-203 -226 -16 -166 -234 0
-203 -226 -16 166 234 0
-203 -226 16 -166 234 0
-203 -226 16 166 -234 0
-203 -226 -17 -167 -235 0
-203 -226 -17 167 235 0
-203 -226 17 -167 235 0
-203 -226 17 167 -235 0
-203 -226 -18 -168 -236 0
-203 -226 -18 168 236 0
-203 -226 18 -168 236 0
-203 -226 18 168 -236 0
-203 -227 -10 -193 -228 0
-203 -227 -10 193 228 0
-203 -227 10 -193 228 0
-203 -227 10 193 -228 0
-203 -227 -11 -194 -229 0
-203 -227 -11 194 229 0
-203 -227 11 -194 229 0
-203 -227 11 194 -229 0
-203 -227 -12 -195 -230 0
-203 -227 -12 195 230 0
-203 -227 12 -195 230 0
-203 -227 12 195 -230 0
-203 -227 -13 -196 -231 0
-203 -227 -13 196 231 0
-203 -227 13 -196 231 0
-203 -227 13 196 -231 0
-203 -227 -14 -197 -232 0
-203 -227 -14 197 232 0
-203 -227 14 -197 232 0
-203 -227 14 197 -232 0
-203 -227 -15 -198 -233 0
-203 -227 -15 198 233 0
-203 -227 15 -198 233 0
-203 -227 15 198 -233 0
-203 -227 -16 -199 -234 0
-203 -227 -16 199 234 0
-203 -227 16 -199 234 0
-203 -227 16 199 -234 0
-203 -227 -17 -200 -235 0
-203 -227 -17 200 235 0
-203 -227 17 -200 235 0
-203 -227 17 200 -235 0
-203 -227 -18 -201 -236 0
-203 -227 -18 201 236 0
-203 -227 18 -201 236 0
-203 -227 18 201 -236 0
-204 -218 -19 -28 -228 0
-204 -218 -19 28 228 0
-204 -218 19 -28 228 0
-204 -218 19 28 -228 0
-204 -218 -20 -29 -229 0
-204 -218 -20 29 229 0
-204 -218 20 -29 229 0
-204 -218 20 29 -229 0
-204 -218 -21 -30 -230 0
-204 -218 -21 30 230 0
-204 -218 21 -30 230 0
-204 -218 21 30 -230 0
-204 -218 -22 -31 -231 0
-204 -218 -22 31 231 0
-204 -218 22 -31 231 0
-204 -218 22 31 -231 0
-204 -218 -23 -32 -232 0
-204 -218 -23 32 232 0
-204 -218 23 -32 232 0
-204 -218 23 32 -232 0
-204 -218 -24 -33 -233 0
-204 -218 -24 33 233 0
-204 -218 24 -33 233 0
-204 -218 24 33 -233 0
-204 -218 -25 -34 -234 0
-204 -218 -25 34 234 0
-204 -218 25 -34 234 0
-204 -218 25 34 -234 0
-204 -218 -26 -35 -235 0
-204 -218 -26 35 235 0
-204 -218 26 -35 235 0
-204 -218 26 35 -235 0
-204 -218 -27 -36 -236 0
-204 -218 -27 36 236 0
-204 -218 27 -36 236 0
-204 -218 27 36 -236 0
-204 -219 -19 -37 -228 0
-204 -219 -19 37 228 0
-204 -219 19 -37 228 0
-204 -219 19 37 -228 0
-204 -219 -20 -38 -229 0
-204 -219 -20 38 229 0
-204 -219 20 -38 229 0
-204 -219 20 38 -229 0
-204 -219 -21 -39 -230 0
-204 -219 -21 39 230 0
-204 -219 21 -39 230 0
-204 -219 21 39 -230 0
-204 -219 -22 -40 -231 0
-204 -219 -22 40 231 0
-204 -219 22 -40 231 0
-204 -219 22 40 -231 0
-204 -219 -23 -41 -232 0
-204 -219 -23 41 232 0
-204 -219 23 -41 232 0
-204 -219 23 41 -232 0
-204 -219 -24 -42 -233 0
-204 -219 -24 42 233 0
-204 -219 24 -42 233 0
-204 -219 24 42 -233 0
-204 -219 -25 -43 -234 0
-204 -219 -25 43 234 0
-204 -219 25 -43 234 0
-204 -219 25 43 -234 0
-204 -219 -26 -44 -235 0
-204 -219 -26 44 235 0
-204 -219 26 -44 235 0
-204 -219 26 44 -235 0
-204 -219 -27 -45 -236 0
-204 -219 -27 45 236 0
-204 -219 27 -45 236 0
-204 -219 27 45 -236 0
-204 -220 -19 -46 -228 0
-204 -220 -19 46 228 0
-204 -220 19 -46 228 0
-204 -220 19 46 -228 0
-204 -220 -20 -47 -229 0
-204 -220 -20 47 229 0
-204 -220 20 -47 229 0
-204 -220 20 47 -229 0
-204 -220 -21 -48 -230 0
-204 -220 -21 48 230 0
-204 -220 21 -48 230 0
-204 -220 21 48 -230 0
-204 -220 -22 -49 -231 0
-204 -220 -22 49 231 0
-204 -220 22 -49 231 0
-204 -220 22 49 -231 0
-204 -220 -23 -50 -232 0
-204 -220 -23 50 232 0
-204 -220 23 -50 232 0
-204 -220 23 50 -232 0
-204 -220 -24 -51 -233 0
-204 -220 -24 51 233 0
-204 -220 24 -51 233 0
-204 -220 24 51 -233 0
-204 -220 -25 -52 -234 0
-204 -220 -25 52 234 0
-204 -220 25 -52 234 0
-204 -220 25 52 -234 0
-204 -220 -26 -53 -235 0
-204 -220 -26 53 235 0
-204 -220 26 -53 235 0
-204 -220 26 53 -235 0
-204 -220 -27 -54 -236 0
-204 -220 -27 54 236 0
-204 -220 27 -54 236 0
-204 -220 27 54 -236 0
-204 -221 -19 -55 -228 0
-204 -221 -19 55 228 0
-204 -221 19 -55 228 0
-204 -221 19 55 -228 0
-204 -221 -20 -56 -229 0
-204 -221 -20 56 229 0
-204 -221 20 -56 229 0
-204 -221 20 56 -229 0
-204 -221 -21 -57 -230 0
-204 -221 -21 57 230 0
-204 -221 21 -57 230 0
-204 -221 21 57 -230 0
-204 -221 -22 -58 -231 0
-204 -221 -22 58 231 0
-204 -221 22 -58 231 0
-204 -221 22 58 -231 0
-204 -221 -23 -59 -232 0
-204 -221 -23 59 232 0
-204 -221 23 -59 232 0
-204 -221 23 59 -232 0
-204 -221 -24 -60 -233 0
-204 -221 -24 60 233 0
-204 -221 24 -60 233 0
-204 -221 24 60 -233 0
-204 -221 -25 -61 -234 0
-204 -221 -25 61 234 0
-204 -221 25 -61 234 0
-204 -221 25 61 -234 0
-204 -221 -26 -62 -235 0
-204 -221 -26 62 235 0
-204 -221 26 -62 235 0
-204 -221 26 62 -235 0
-204 -221 -27 -63 -236 0
-204 -221 -27 63 236 0
-204 -221 27 -63 236 0
-204 -221 27 63 -236 0
-204 -222 -19 -64 -228 0
-204 -222 -19 64 228 0
-204 -222 19 -64 228 0
-204 -222 19 64 -228 0
-204 -222 -20 -65 -229 0
-204 -222 -20 65 229 0
-204 -222 20 -65 229 0
-204 -222 20 65 -229 0
-204 -222 -21 -66 -230 0
-204 -222 -21 66 230 0
-204 -222 21 -66 230 0
-204 -222 21 66 -230 0
-204 -222 -22 -67 -231 0
-204 -222 -22 67 231 0
-204 -222 22 -67 231 0
-204 -222 22 67 -231 0
-204 -222 -23 -68 -232 0
-204 -222 -23 68 232 0
-204 -222 23 -68 232 0
-204 -222 23 68 -232 0
-204 -222 -24 -69 -233 0
-204 -222 -24 69 233 0
-204 -222 24 -69 233 0
-204 -222 24 69 -233 0
-204 -222 -25 -70 -234 0
-204 -222 -25 70 234 0
-204 -222 25 -70 234 0
-204 -222 25 70 -234 0
-204 -222 -26 -71 -235 0
-204 -222 -26 71 235 0
-204 -222 26 -71 235 0
-204 -222 26 71 -235 0
-204 -222 -27 -72 -236 0
-204 -222 -27 72 236 0
-204 -222 27 -72 236 0
-204 -222 27 72 -236 0
-204 -223 -19 -73 -228 0
-204 -223 -19 73 228 0
-204 -223 19 -73 228 0
-204 -223 19 73 -228 0
-204 -223 -20 -74 -229 0
-204 -223 -20 74 229 0
-204 -223 20 -74 229 0
-204 -223 20 74 -229 0
-204 -223 -21 -75 -230 0
-204 -223 -21 75 230 0
-204 -223 21 -75 230 0
-204 -223 21 75 -230 0
-204 -223 -22 -76 -231 0
-204 -223 -22 76 231 0
-204 -223 22 -76 231 0
-204 -223 22 76 -231 0
-204 -223 -23 -77 -232 0
-204 -223 -23 77 232 0
-204 -223 23 -77 232 0
-204 -223 23 77 -232 0
-204 -223 -24 -78 -233 0
-204 -223 -24 78 233 0
-204 -223 24 -78 233 0
-204 -223 24 78 -233 0
-204 -223 -25 -79 -234 0
-204 -223 -25 79 234 0
-204 -223 25 -79 234 0
-204 -223 25 79 -234 0
-204 -223 -26 -80 -235 0
-204 -223 -26 80 235 0
-204 -223 26 -80 235 0
-204 -223 26 80 -235 0
-204 -223 -27 -81 -236 0
-204 -223 -27 81 236 0
-204 -223 27 -81 236 0
-204 -223 27 81 -236 0
-204 -224 -19 -100 -228 0
-204 -224 -19 100 228 0
-204 -224 19 -100 228 0
-204 -224 19 100 -228 0
-204 -224 -20 -101 -229 0
-204 -224 -20 101 229 0
-204 -224 20 -101 229 0
-204 -224 20 101 -229 0
-204 -224 -21 -102 -230 0
-204 -224 -21 102 230 0
-204 -224 21 -102 230 0
-204 -224 21 102 -230 0
-204 -224 -22 -103 -231 0
-204 -224 -22 103 231 0
-204 -224 22 -103 231 0
-204 -224 22 103 -231 0
-204 -224 -23 -104 -232 0
-204 -224 -23 104 232 0
-204 -224 23 -104 232 0
-204 -224 23 104 -232 0
-204 -224 -24 -105 -233 0
-204 -224 -24 105 233 0
-204 -224 24 -105 233 0
-204 -224 24 105 -233 0
-204 -224 -25 -106 -234 0
-204 -224 -25 106 234 0
-204 -224 25 -106 234 0
-204 -224 25 106 -234 0
-204 -224 -26 -107 -235 0
-204 -224 -26 107 235 0
-204 -224 26 -107 235 0
-204 -224 26 107 -235 0
-204 -224 -27 -108 -236 0
-204 -224 -27 108 236 0
-204 -224 27 -108 236 0
-204 -224 27 108 -236 0
-204 -225 -19 -129 -228 0
-204 -225 -19 129 228 0
-204 -225 19 -129 228 0
-204 -225 19 129 -228 0
-204 -225 -20 -130 -229 0
-204 -225 -20 130 229 0
-204 -225 20 -130 229 0
-204 -225 20 130 -229 0
-204 -225 -21 -131 -230 0
-204 -225 -21 131 230 0
-204 -225 21 -131 230 0
-204 -225 21 131 -230 0
-204 -225 -22 -132 -231 0
-204 -225 -22 132 231 0
-204 -225 22 -132 231 0
-204 -225 22 132 -231 0
-204 -225 -23 -133 -232 0
-204 -225 -23 133 232 0
-204 -225 23 -133 232 0
-204 -225 23 133 -232 0
-204 -225 -24 -134 -233 0
-204 -225 -24 134 233 0
-204 -225 24 -134 233 0
-204 -225 24 134 -233 0
-204 -225 -25 -135 -234 0
-204 -225 -25 135 234 0
-204 -225 25 -135 234 0
-204 -225 25 135 -234 0
-204 -225 -26 -136 -235 0
-204 -225 -26 136 235 0
-204 -225 26 -136 235 0
-204 -225 26 136 -235 0
-204 -225 -27 -137 -236 0
-204 -225 -27 137 236 0
-204 -225 27 -137 236 0
-204 -225 27 137 -236 0
-204 -226 -19 -160 -228 0
-204 -226 -19 160 228 0
-204 -226 19 -160 228 0
-204 -226 19 160 -228 0
-204 -226 -20 -161 -229 0
-204 -226 -20 161 229 0
-204 -226 20 -161 229 0
-204 -226 20 161 -229 0
-204 -226 -21 -162 -230 0
-204 -226 -21 162 230 0
-204 -226 21 -162 230 0
-204 -226 21 162 -230 0
-204 -226 -22 -163 -231 0
-204 -226 -22 163 231 0
-204 -226 22 -163 231 0
-204 -226 22 163 -231 0
-204 -226 -23 -164 -232 0
-204 -226 -23 164 232 0
-204 -226 23 -164 232 0
-204 -226 23 164 -232 0
-204 -226 -24 -165 -233 0
-204 -226 -24 165 233 0
-204 -226 24 -165 233 0
-204 -226 24 165 -233 0
-204 -226 -25 -166 -234 0
-204 -226 -25 166 234 0
-204 -226 25 -166 234 0
-204 -226 25 166 -234 0
-204 -226 -26 -167 -235 0
-204 -226 -26 167 235 0
-204 -226 26 -167 235 0
-204 -226 26 167 -235 0
-204 -226 -27 -168 -236 0
-204 -226 -27 168 236 0
-204 -226 27 -168 236 0
-204 -226 27 168 -236 0
-204 -227 -19 -193 -228 0
-204 -227 -19 193 228 0
-204 -227 19 -193 228 0
-204 -227 19 193 -228 0
-204 -227 -20 -194 -229 0
-204 -227 -20 194 229 0
-204 -227 20 -194 229 0
-204 -227 20 194 -229 0
-204 -227 -21 -195 -230 0
-204 -227 -21 195 230 0
-204 -227 21 -195 230 0
-204 -227 21 195 -230 0
-204 -227 -22 -196 -231 0
-204 -227 -22 196 231 0
-204 -227 22 -196 231 0
-204 -227 22 196 -231 0
-204 -227 -23 -197 -232 0
-204 -227 -23 197 232 0
-204 -227 23 -197 232 0
-204 -227 23 197 -232 0
-204 -227 -24 -198 -233 0
-204 -227 -24 198 233 0
-204 -227 24 -198 233 0
-204 -227 24 198 -233 0
-204 -227 -25 -199 -234 0
-204 -227 -25 199 234 0
-204 -227 25 -199 234 0
-204 -227 25 199 -234 0
-204 -227 -26 -200 -235 0
-204 -227 -26 200 235 0
-204 -227 26 -200 235 0
-204 -227 26 200 -235 0
-204 -227 -27 -201 -236 0
-204 -227 -27 201 236 0
-204 -227 27 -201 236 0
-204 -227 27 201 -236 0
-205 -219 -28 -37 -228 0
-205 -219 -28 37 228 0
-205 -219 28 -37 228 0
-205 -219 28 37 -228 0
-205 -219 -29 -38 -229 0
-205 -219 -29 38 229 0
-205 -219 29 -38 229 0
-205 -219 29 38 -229 0
-205 -219 -30 -39 -230 0
-205 -219 -30 39 230 0
-205 -219 30 -39 230 0
-205 -219 30 39 -230 0
-205 -219 -31 -40 -231 0
-205 -219 -31 40 231 0
-205 -219 31 -40 231 0
-205 -219 31 40 -231 0
-205 -219 -32 -41 -232 0
-205 -219 -32 41 232 0
-205 -219 32 -41 232 0
-205 -219 32 41 -232 0
-205 -219 -33 -42 -233 0
-205 -219 -33 42 233 0
-205 -219 33 -42 233 0
-205 -219 33 42 -233 0
-205 -219 -34 -43 -234 0
-205 -219 -34 43 234 0
-205 -219 34 -43 234 0
-205 -219 34 43 -234 0
-205 -219 -35 -44 -235 0
-205 -219 -35 44 235 0
-205 -219 35 -44 235 0
-205 -219 35 44 -235 0
-205 -219 -36 -45 -236 0
-205 -219 -36 45 236 0
-205 -219 36 -45 236 0
-205 -219 36 45 -236 0
-205 -220 -28 -46 -228 0
-205 -220 -28 46 228 0
-205 -220 28 -46 228 0
-205 -220 28 46 -228 0
-205 -220 -29 -47 -229 0
-205 -220 -29 47 229 0
-205 -220 29 -47 229 0
-205 -220 29 47 -229 0
-205 -220 -30 -48 -230 0
-205 -220 -30 48 230 0
-205 -220 30 -48 230 0
-205 -220 30 48 -230 0
-205 -220 -31 -49 -231 0
-205 -220 -31 49 231 0
-205 -220 31 -49 231 0
-205 -220 31 49 -231 0
-205 -220 -32 -50 -232 0
-205 -220 -32 50 232 0
-205 -220 32 -50 232 0
-205 -220 32 50 -232 0
-205 -220 -33 -51 -233 0
-205 -220 -33 51 233 0
-205 -220 33 -51 233 0
-205 -220 33 51 -233 0
-205 -220 -34 -52 -234 0
-205 -220 -34 52 234 0
-205 -220 34 -52 234 0
-205 -220 34 52 -234 0
-205 -220 -35 -53 -235 0
-205 -220 -35 53 235 0
-205 -220 35 -53 235 0
-205 -220 35 53 -235 0
-205 -220 -36 -54 -236 0
-205 -220 -36 54 236 0
-205 -220 36 -54 236 0
-205 -220 36 54 -236 0
-205 -221 -28 -55 -228 0
-205 -221 -28 55 228 0
-205 -221 28 -55 228 0
-205 -221 28 55 -228 0
-205 -221 -29 -56 -229 0
-205 -221 -29 56 229 0
-205 -221 29 -56 229 0
-205 -221 29 56 -229 0
-205 -221 -30 -57 -230 0
-205 -221 -30 57 230 0
-205 -221 30 -57 230 0
-205 -221 30 57 -230 0
-205 -221 -31 -58 -231 0
-205 -221 -31 58 231 0
-205 -221 31 -58 231 0
-205 -221 31 58 -231 0
-205 -221 -32 -59 -232 0
-205 -221 -32 59 232 0
-205 -221 32 -59 232 0
-205 -221 32 59 -232 0
-205 -221 -33 -60 -233 0
-205 -221 -33 60 233 0
-205 -221 33 -60 233 0
-205 -221 33 60 -233 0
-205 -221 -34 -61 -234 0
-205 -221 -34 61 234 0
-205 -221 34 -61 234 0
-205 -221 34 61 -234 0
-205 -221 -35 -62 -235 0
-205 -221 -35 62 235 0
-205 -221 35 -62 235 0
-205 -221 35 62 -235 0
-205 -221 -36 -63 -236 0
-205 -221 -36 63 236 0
-205 -221 36 -63 236 0
-205 -221 36 63 -236 0
-205 -222 -28 -64 -228 0
-205 -222 -28 64 228 0
-205 -222 28 -64 228 0
-205 -222 28 64 -228 0
-205 -222 -29 -65 -229 0
-205 -222 -29 65 229 0
-205 -222 29 -65 229 0
-205 -222 29 65 -229 0
-205 -222 -30 -66 -230 0
-205 -222 -30 66 230 0
-205 -222 30 -66 230 0
-205 -222 30 66 -230 0
-205 -222 -31 -67 -231 0
-205 -222 -31 67 231 0
-205 -222 31 -67 231 0
-205 -222 31 67 -231 0
-205 -222 -32 -68 -232 0
-205 -222 -32 68 232 0
-205 -222 32 -68 232 0
-205 -222 32 68 -232 0
-205 -222 -33 -69 -233 0
-205 -222 -33 69 233 0
-205 -222 33 -69 233 0
-205 -222 33 69 -233 0
-205 -222 -34 -70 -234 0
-205 -222 -34 70 234 0
-205 -222 34 -70 234 0
-205 -222 34 70 -234 0
-205 -222 -35 -71 -235 0
-205 -222 -35 71 235 0
-205 -222 35 -71 235 0
-205 -222 35 71 -235 0
-205 -222 -36 -72 -236 0
-205 -222 -36 72 236 0
-205 -222 36 -72 236 0
-205 -222 36 72 -236 0
-205 -223 -28 -73 -228 0
-205 -223 -28 73 228 0
-205 -223 28 -73 228 0
-205 -223 28 73 -228 0
-205 -223 -29 -74 -229 0
-205 -223 -29 74 229 0
-205 -223 29 -74 229 0
-205 -223 29 74 -229 0
-205 -223 -30 -75 -230 0
-205 -223 -30 75 230 0
-205 -223 30 -75 230 0
-205 -223 30 75 -230 0
-205 -223 -31 -76 -231 0
-205 -223 -31 76 231 0
-205 -223 31 -76 231 0
-205 -223 31 76 -231 0
-205 -223 -32 -77 -232 0
-205 -223 -32 77 232 0
-205 -223 32 -77 232 0
-205 -223 32 77 -232 0
-205 -223 -33 -78 -233 0
-205 -223 -33 78 233 0
-205 -223 33 -78 233 0
-205 -223 33 78 -233 0
-205 -223 -34 -79 -234 0
-205 -223 -34 79 234 0
-205 -223 34 -79 234 0
-205 -223 34 79 -234 0
-205 -223 -35 -80 -235 0
-205 -223 -35 80 235 0
-205 -223 35 -80 235 0
-205 -223 35 80 -235 0
-205 -223 -36 -81 -236 0
-205 -223 -36 81 236 0
-205 -223 36 -81 236 0
-205 -223 36 81 -236 0
-205 -224 -28 -100 -228 0
-205 -224 -28 100 228 0
-205 -224 28 -100 228 0
-205 -224 28 100 -228 0
-205 -224 -29 -101 -229 0
-205 -224 -29 101 229 0
-205 -224 29 -101 229 0
-205 -224 29 101 -229 0
-205 -224 -30 -102 -230 0
-205 -224 -30 102 230 0
-205 -224 30 -102 230 0
-205 -224 30 102 -230 0
-205 -224 -31 -103 -231 0
-205 -224 -31 103 231 0
-205 -224 31 -103 231 0
-205 -224 31 103 -231 0
-205 -224 -32 -104 -232 0
-205 -224 -32 104 232 0
-205 -224 32 -104 232 0
-205 -224 32 104 -232 0
-205 -224 -33 -105 -233 0
-205 -224 -33 105 233 0
-205 -224 33 -105 233 0
-205 -224 33 105 -233 0
-205 -224 -34 -106 -234 0
-205 -224 -34 106 234 0
-205 -224 34 -106 234 0
-205 -224 34 106 -234 0
-205 -224 -35 -107 -235 0
-205 -224 -35 107 235 0
-205 -224 35 -107 235 0
-205 -224 35 107 -235 0
-205 -224 -36 -108 -236 0
-205 -224 -36 108 236 0
-205 -224 36 -108 236 0
-205 -224 36 108 -236 0
-205 -225 -28 -129 -228 0
-205 -225 -28 129 228 0
-205 -225 28 -129 228 0
-205 -225 28 129 -228 0
-205 -225 -29 -130 -229 0
-205 -225 -29 130 229 0
-205 -225 29 -130 229 0
-205 -225 29 130 -229 0
-205 -225 -30 -131 -230 0
-205 -225 -30 131 230 0
-205 -225 30 -131 230 0
-205 -225 30 131 -230 0
-205 -225 -31 -132 -231 0
-205 -225 -31 132 231 0
-205 -225 31 -132 231 0
-205 -225 31 132 -231 0
-205 -225 -32 -133 -232 0
-205 -225 -32 133 232 0
-205 -225 32 -133 232 0
-205 -225 32 133 -232 0
-205 -225 -33 -134 -233 0
-205 -225 -33 134 233 0
-205 -225 33 -134 233 0
-205 -225 33 134 -233 0
-205 -225 -34 -135 -234 0
-205 -225 -34 135 234 0
-205 -225 34 -135 234 0
-205 -225 34 135 -234 0
-205 -225 -35 -136 -235 0
-205 -225 -35 136 235 0
-205 -225 35 -136 235 0
-205 -225 35 136 -235 0
-205 -225 -36 -137 -236 0
-205 -225 -36 137 236 0
-205 -225 36 -137 236 0
-205 -225 36 137 -236 0
-205 -226 -28 -160 -228 0
-205 -226 -28 160 228 0
-205 -226 28 -160 228 0
-205 -226 28 160 -228 0
-205 -226 -29 -161 -229 0
-205 -226 -29 161 229 0
-205 -226 29 -161 229 0
-205 -226 29 161 -229 0
-205 -226 -30 -162 -230 0
-205 -226 -30 162 230 0
-205 -226 30 -162 230 0
-205 -226 30 162 -230 0
-205 -226 -31 -163 -231 0
-205 -226 -31 163 231 0
-205 -226 31 -163 231 0
-205 -226 31 163 -231 0
-205 -226 -32 -164 -232 0
-205 -226 -32 164 232 0
-205 -226 32 -164 232 0
-205 -226 32 164 -232 0
-205 -226 -33 -165 -233 0
-205 -226 -33 165 233 0
-205 -226 33 -165 233 0
-205 -226 33 165 -233 0
-205 -226 -34 -166 -234 0
-205 -226 -34 166 234 0
-205 -226 34 -166 234 0
-205 -226 34 166 -234 0
-205 -226 -35 -167 -235 0
-205 -226 -35 167 235 0
-205 -226 35 -167 235 0
-205 -226 35 167 -235 0
-205 -226 -36 -168 -236 0
-205 -226 -36 168 236 0
-205 -226 36 -168 236 0
-205 -226 36 168 -236 0
-205 -227 -28 -193 -228 0
-205 -227 -28 193 228 0
-205 -227 28 -193 228 0
-205 -227 28 193 -228 0
-205 -227 -29 -194 -229 0
-205 -227 -29 194 229 0
-205 -227 29 -194 229 0
-205 -227 29 194 -229 0
-205 -227 -30 -195 -230 0
-205 -227 -30 195 230 0
-205 -227 30 -195 230 0
-205 -227 30 195 -230 0
-205 -227 -31 -196 -231 0
-205 -227 -31 196 231 0
-205 -227 31 -196 231 0
-205 -227 31 196 -231 0
-205 -227 -32 -197 -232 0
-205 -227 -32 197 232 0
-205 -227 32 -197 232 0
-205 -227 32 197 -232 0
-205 -227 -33 -198 -233 0
-205 -227 -33 198 233 0
-205 -227 33 -198 233 0
-205 -227 33 198 -233 0
-205 -227 -34 -199 -234 0
-205 -227 -34 199 234 0
-205 -227 34 -199 234 0
-205 -227 34 199 -234 0
-205 -227 -35 -200 -235 0
-205 -227 -35 200 235 0
-205 -227 35 -200 235 0
-205 -227 35 200 -235 0
-205 -227 -36 -201 -236 0
-205 -227 -36 201 236 0
-205 -227 36 -201 236 0
-205 -227 36 201 -236 0
-206 -220 -37 -46 -228 0
-206 -220 -37 46 228 0
-206 -220 37 -46 228 0
-206 -220 37 46 -228 0
-206 -220 -38 -47 -229 0
-206 -220 -38 47 229 0
-206 -220 38 -47 229 0
-206 -220 38 47 -229 0
-206 -220 -39 -48 -230 0
-206 -220 -39 48 230 0
-206 -220 39 -48 230 0
-206 -220 39 48 -230 0
-206 -220 -40 -49 -231 0
-206 -220 -40 49 231 0
-206 -220 40 -49 231 0
-206 -220 40 49 -231 0
-206 -220 -41 -50 -232 0
-206 -220 -41 50 232 0
-206 -220 41 -50 232 0
-206 -220 41 50 -232 0
-206 -220 -42 -51 -233 0
-206 -220 -42 51 233 0
-206 -220 42 -51 233 0
-206 -220 42 51 -233 0
-206 -220 -43 -52 -234 0
-206 -220 -43 52 234 0
-206 -220 43 -52 234 0
-206 -220 43 52 -234 0
-206 -220 -44 -53 -235 0
-206 -220 -44 53 235 0
-206 -220 44 -53 235 0
-206 -220 44 53 -235 0
-206 -220 -45 -54 -236 0
-206 -220 -45 54 236 0
-206 -220 45 -54 236 0
-206 -220 45 54 -236 0
-206 -221 -37 -55 -228 0
-206 -221 -37 55 228 0
-206 -221 37 -55 228 0
-206 -221 37 55 -228 0
-206 -221 -38 -56 -229 0
-206 -221 -38 56 229 0
-206 -221 38 -56 229 0
-206 -221 38 56 -229 0
-206 -221 -39 -57 -230 0
-206 -221 -39 57 230 0
-206 -221 39 -57 230 0
-206 -221 39 57 -230 0
-206 -221 -40 -58 -231 0
-206 -221 -40 58 231 0
-206 -221 40 -58 231 0
-206 -221 40 58 -231 0
-206 -221 -41 -59 -232 0
-206 -221 -41 59 232 0
-206 -221 41 -59 232 0
-206 -221 41 59 -232 0
-206 -221 -42 -60 -233 0
-206 -221 -42 60 233 0
-206 -221 42 -60 233 0
-206 -221 42 60 -233 0
-206 -221 -43 -61 -234 0
-206 -221 -43 61 234 0
-206 -221 43 -61 234 0
-206 -221 43 61 -234 0
-206 -221 -44 -62 -235 0
-206 -221 -44 62 235 0
-206 -221 44 -62 235 0
-206 -221 44 62 -235 0
-206 -221 -45 -63 -236 0
-206 -221 -45 63 236 0
-206 -221 45 -63 236 0
-206 -221 45 63 -236 0
-206 -222 -37 -64 -228 0
-206 -222 -37 64 228 0
-206 -222 37 -64 228 0
-206 -222 37 64 -228 0
-206 -222 -38 -65 -229 0
-206 -222 -38 65 229 0
-206 -222 38 -65 229 0
-206 -222 38 65 -229 0
-206 -222 -39 -66 -230 0
-206 -222 -39 66 230 0
-206 -222 39 -66 230 0
-206 -222 39 66 -230 0
-206 -222 -40 -67 -231 0
-206 -222 -40 67 231 0
-206 -222 40 -67 231 0
-206 -222 40 67 -231 0
-206 -222 -41 -68 -232 0
-206 -222 -41 68 232 0
-206 -222 41 -68 232 0
-206 -222 41 68 -232 0
-206 -222 -42 -69 -233 0
-206 -222 -42 69 233 0
-206 -222 42 -69 233 0
-206 -222 42 69 -233 0
-206 -222 -43 -70 -234 0
-206 -222 -43 70 234 0
-206 -222 43 -70 234 0
-206 -222 43 70 -234 0
-206 -222 -44 -71 -235 0
-206 -222 -44 71 235 0
-206 -222 44 -71 235 0
-206 -222 44 71 -235 0
-206 -222 -45 -72 -236 0
-206 -222 -45 72 236 0
-206 -222 45 -72 236 0
-206 -222 45 72 -236 0
-206 -223 -37 -73 -228 0
-206 -223 -37 73 228 0
-206 -223 37 -73 228 0
-206 -223 37 73 -228 0
-206 -223 -38 -74 -229 0
-206 -223 -38 74 229 0
-206 -223 38 -74 229 0
-206 -223 38 74 -229 0
-206 -223 -39 -75 -230 0
-206 -223 -39 75 230 0
-206 -223 39 -75 230 0
-206 -223 39 75 -230 0
-206 -223 -40 -76 -231 0
-206 -223 -40 76 231 0
-206 -223 40 -76 231 0
-206 -223 40 76 -231 0
-206 -223 -41 -77 -232 0
-206 -223 -41 77 232 0
-206 -223 41 -77 232 0
-206 -223 41 77 -232 0
-206 -223 -42 -78 -233 0
-206 -223 -42 78 233 0
-206 -223 42 -78 233 0
-206 -223 42 78 -233 0
-206 -223 -43 -79 -234 0
-206 -223 -43 79 234 0
-206 -223 43 -79 234 0
-206 -223 43 79 -234 0
-206 -223 -44 -80 -235 0
-206 -223 -44 80 235 0
-206 -223 44 -80 235 0
-206 -223 44 80 -235 0
-206 -223 -45 -81 -236 0
-206 -223 -45 81 236 0
-206 -223 45 -81 236 0
-206 -223 45 81 -236 0
-206 -224 -37 -100 -228 0
-206 -224 -37 100 228 0
-206 -224 37 -100 228 0
-206 -224 37 100 -228 0
-206 -224 -38 -101 -229 0
-206 -224 -38 101 229 0
-206 -224 38 -101 229 0
-206 -224 38 101 -229 0
-206 -224 -39 -102 -230 0
-206 -224 -39 102 230 0
-206 -224 39 -102 230 0
-206 -224 39 102 -230 0
-206 -224 -40 -103 -231 0
-206 -224 -40 103 231 0
-206 -224 40 -103 231 0
-206 -224 40 103 -231 0
-206 -224 -41 -104 -232 0
-206 -224 -41 104 232 0
-206 -224 41 -104 232 0
-206 -224 41 104 -232 0
-206 -224 -42 -105 -233 0
-206 -224 -42 105 233 0
-206 -224 42 -105 233 0
-206 -224 42 105 -233 0
-206 -224 -43 -106 -234 0
-206 -224 -43 106 234 0
-206 -224 43 -106 234 0
-206 -224 43 106 -234 0
-206 -224 -44 -107 -235 0
-206 -224 -44 107 235 0
-206 -224 44 -107 235 0
-206 -224 44 107 -235 0
-206 -224 -45 -108 -236 0
-206 -224 -45 108 236 0
-206 -224 45 -108 236 0
-206 -224 45 108 -236 0
-206 -225 -37 -129 -228 0
-206 -225 -37 129 228 0
-206 -225 37 -129 228 0
-206 -225 37 129 -228 0
-206 -225 -38 -130 -229 0
-206 -225 -38 130 229 0
-206 -225 38 -130 229 0
-206 -225 38 130 -229 0
-206 -225 -39 -131 -230 0
-206 -225 -39 131 230 0
-206 -225 39 -131 230 0
-206 -225 39 131 -230 0
-206 -225 -40 -132 -231 0
-206 -225 -40 132 231 0
-206 -225 40 -132 231 0
-206 -225 40 132 -231 0
-206 -225 -41 -133 -232 0
-206 -225 -41 133 232 0
-206 -225 41 -133 232 0
-206 -225 41 133 -232 0
-206 -225 -42 -134 -233 0
-206 -225 -42 134 233 0
-206 -225 42 -134 233 0
-206 -225 42 134 -233 0
-206 -225 -43 -135 -234 0
-206 -225 -43 135 234 0
-206 -225 43 -135 234 0
-206 -225 43 135 -234 0
-206 -225 -44 -136 -235 0
-206 -225 -44 136 235 0
-206 -225 44 -136 235 0
-206 -225 44 136 -235 0
-206 -225 -45 -137 -236 0
-206 -225 -45 137 236 0
-206 -225 45 -137 236 0
-206 -225 45 137 -236 0
-206 -226 -37 -160 -228 0
-206 -226 -37 160 228 0
-206 -226 37 -160 228 0
-206 -226 37 160 -228 0
-206 -226 -38 -161 -229 0
-206 -226 -38 161 229 0
-206 -226 38 -161 229 0
-206 -226 38 161 -229 0
-206 -226 -39 -162 -230 0
-206 -226 -39 162 230 0
-206 -226 39 -162 230 0
-206 -226 39 162 -230 0
-206 -226 -40 -163 -231 0
-206 -226 -40 163 231 0
-206 -226 40 -163 231 0
-206 -226 40 163 -231 0
-206 -226 -41 -164 -232 0
-206 -226 -41 164 232 0
-206 -226 41 -164 232 0
-206 -226 41 164 -232 0
-206 -226 -42 -165 -233 0
-206 -226 -42 165 233 0
-206 -226 42 -165 233 0
-206 -226 42 165 -233 0
-206 -226 -43 -166 -234 0
-206 -226 -43 166 234 0
-206 -226 43 -166 234 0
-206 -226 43 166 -234 0
-206 -226 -44 -167 -235 0
-206 -226 -44 167 235 0
-206 -226 44 -167 235 0
-206 -226 44 167 -235 0
-206 -226 -45 -168 -236 0
-206 -226 -45 168 236 0
-206 -226 45 -168 236 0
-206 -226 45 168 -236 0
-206 -227 -37 -193 -228 0
-206 -227 -37 193 228 0
-206 -227 37 -193 228 0
-206 -227 37 193 -228 0
-206 -227 -38 -194 -229 0
-206 -227 -38 194 229 0
-206 -227 38 -194 229 0
-206 -227 38 194 -229 0
-206 -227 -39 -195 -230 0
-206 -227 -39 195 230 0
-206 -227 39 -195 230 0
-206 -227 39 195 -230 0
-206 -227 -40 -196 -231 0
-206 -227 -40 196 231 0
-206 -227 40 -196 231 0
-206 -227 40 196 -231 0
-206 -227 -41 -197 -232 0
-206 -227 -41 197 232 0
-206 -227 41 -197 232 0
-206 -227 41 197 -232 0
-206 -227 -42 -198 -233 0
-206 -227 -42 198 233 0
-206 -227 42 -198 233 0
-206 -227 42 198 -233 0
-206 -227 -43 -199 -234 0
-206 -227 -43 199 234 0
-206 -227 43 -199 234 0
-206 -227 43 199 -234 0
-206 -227 -44 -200 -235 0
-206 -227 -44 200 235 0
-206 -227 44 -200 235 0
-206 -227 44 200 -235 0
-206 -227 -45 -201 -236 0
-206 -227 -45 201 236 0
-206 -227 45 -201 236 0
-206 -227 45 201 -236 0
-207 -221 -46 -55 -228 0
-207 -221 -46 55 228 0
-207 -221 46 -55 228 0
-207 -221 46 55 -228 0
-207 -221 -47 -56 -229 0
-207 -221 -47 56 229 0
-207 -221 47 -56 229 0
-207 -221 47 56 -229 0
-207 -221 -48 -57 -230 0
-207 -221 -48 57 230 0
-207 -221 48 -57 230 0
-207 -221 48 57 -230 0
-207 -221 -49 -58 -231 0
-207 -221 -49 58 231 0
-207 -221 49 -58 231 0
-207 -221 49 58 -231 0
-207 -221 -50 -59 -232 0
-207 -221 -50 59 232 0
-207 -221 50 -59 232 0
-207 -221 50 59 -232 0
-207 -221 -51 -60 -233 0
-207 -221 -51 60 233 0
-207 -221 51 -60 233 0
-207 -221 51 60 -233 0
-207 -221 -52 -61 -234 0
-207 -221 -52 61 234 0
-207 -221 52 -61 234 0
-207 -221 52 61 -234 0
-207 -221 -53 -62 -235 0
-207 -221 -53 62 235 0
-207 -221 53 -62 235 0
-207 -221 53 62 -235 0
-207 -221 -54 -63 -236 0
-207 -221 -54 63 236 0
-207 -221 54 -63 236 0
-207 -221 54 63 -236 0
-207 -222 -46 -64 -228 0
-207 -222 -46 64 228 0
-207 -222 46 -64 228 0
-207 -222 46 64 -228 0
-207 -222 -47 -65 -229 0
-207 -222 -47 65 229 0
-207 -222 47 -65 229 0
-207 -222 47 65 -229 0
-207 -222 -48 -66 -230 0
-207 -222 -48 66 230 0
-207 -222 48 -66 230 0
-207 -222 48 66 -230 0
-207 -222 -49 -67 -231 0
-207 -222 -49 67 231 0
-207 -222 49 -67 231 0
-207 -222 49 67 -231 0
-207 -222 -50 -68 -232 0
-207 -222 -50 68 232 0
-207 -222 50 -68 232 0
-207 -222 50 68 -232 0
-207 -222 -51 -69 -233 0
-207 -222 -51 69 233 0
-207 -222 51 -69 233 0
-207 -222 51 69 -233 0
-207 -222 -52 -70 -234 0
-207 -222 -52 70 234 0
-207 -222 52 -70 234 0
-207 -222 52 70 -234 0
-207 -222 -53 -71 -235 0
-207 -222 -53 71 235 0
-207 -222 53 -71 235 0
-207 -222 53 71 -235 0
-207 -222 -54 -72 -236 0
-207 -222 -54 72 236 0
-207 -222 54 -72 236 0
-207 -222 54 72 -236 0
-207 -223 -46 -73 -228 0
-207 -223 -46 73 228 0
-207 -223 46 -73 228 0
-207 -223 46 73 -228 0
-207 -223 -47 -74 -229 0
-207 -223 -47 74 229 0
-207 -223 47 -74 229 0
-207 -223 47 74 -229 0
-207 -223 -48 -75 -230 0
-207 -223 -48 75 230 0
-207 -223 48 -75 230 0
-207 -223 48 75 -230 0
-207 -223 -49 -76 -231 0
-207 -223 -49 76 231 0
-207 -223 49 -76 231 0
-207 -223 49 76 -231 0
-207 -223 -50 -77 -232 0
-207 -223 -50 77 232 0
-207 -223 50 -77 232 0
-207 -223 50 77 -232 0
-207 -223 -51 -78 -233 0
-207 -223 -51 78 233 0
-207 -223 51 -78 233 0
-207 -223 51 78 -233 0
-207 -223 -52 -79 -234 0
-207 -223 -52 79 234 0
-207 -223 52 -79 234 0
-207 -223 52 79 -234 0
-207 -223 -53 -80 -235 0
-207 -223 -53 80 235 0
-207 -223 53 -80 235 0
-207 -223 53 80 -235 0
-207 -223 -54 -81 -236 0
-207 -223 -54 81 236 0
-207 -223 54 -81 236 0
-207 -223 54 81 -236 0
-207 -224 -46 -100 -228 0
-207 -224 -46 100 228 0
-207 -224 46 -100 228 0
-207 -224 46 100 -228 0
-207 -224 -47 -101 -229 0
-207 -224 -47 101 229 0
-207 -224 47 -101 229 0
-207 -224 47 101 -229 0
-207 -224 -48 -102 -230 0
-207 -224 -48 102 230 0
-207 -224 48 -102 230 0
-207 -224 48 102 -230 0
-207 -224 -49 -103 -231 0
-207 -224 -49 103 231 0
-207 -224 49 -103 231 0
-207 -224 49 103 -231 0
-207 -224 -50 -104 -232 0
-207 -224 -50 104 232 0
-207 -224 50 -104 232 0
-207 -224 50 104 -232 0
-207 -224 -51 -105 -233 0
-207 -224 -51 105 233 0
-207 -224 51 -105 233 0
-207 -224 51 105 -233 0
-207 -224 -52 -106 -234 0
-207 -224 -52 106 234 0
-207 -224 52 -106 234 0
-207 -224 52 106 -234 0
-207 -224 -53 -107 -235 0
-207 -224 -53 107 235 0
-207 -224 53 -107 235 0
-207 -224 53 107 -235 0
-207 -224 -54 -108 -236 0
-207 -224 -54 108 236 0
-207 -224 54 -108 236 0
-207 -224 54 108 -236 0
-207 -225 -46 -129 -228 0
-207 -225 -46 129 228 0
-207 -225 46 -129 228 0
-207 -225 46 129 -228 0
-207 -225 -47 -130 -229 0
-207 -225 -47 130 229 0
-207 -225 47 -130 229 0
-207 -225 47 130 -229 0
-207 -225 -48 -131 -230 0
-207 -225 -48 131 230 0
-207 -225 48 -131 230 0
-207 -225 48 131 -230 0
-207 -225 -49 -132 -231 0
-207 -225 -49 132 231 0
-207 -225 49 -132 231 0
-207 -225 49 132 -231 0
-207 -225 -50 -133 -232 0
-207 -225 -50 133 232 0
-207 -225 50 -133 232 0
-207 -225 50 133 -232 0
-207 -225 -51 -134 -233 0
-207 -225 -51 134 233 0
-207 -225 51 -134 233 0
-207 -225 51 134 -233 0
-207 -225 -52 -135 -234 0
-207 -225 -52 135 234 0
-207 -225 52 -135 234 0
-207 -225 52 135 -234 0
-207 -225 -53 -136 -235 0
-207 -225 -53 136 235 0
-207 -225 53 -136 235 0
-207 -225 53 136 -235 0
-207 -225 -54 -137 -236 0
-207 -225 -54 137 236 0
-207 -225 54 -137 236 0
-207 -225 54 137 -236 0
-207 -226 -46 -160 -228 0
-207 -226 -46 160 228 0
-207 -226 46 -160 228 0
-207 -226 46 160 -228 0
-207 -226 -47 -161 -229 0
-207 -226 -47 161 229 0
-207 -226 47 -161 229 0
-207 -226 47 161 -229 0
-207 -226 -48 -162 -230 0
-207 -226 -48 162 230 0
-207 -226 48 -162 230 0
-207 -226 48 162 -230 0
-207 -226 -49 -163 -231 0
-207 -226 -49 163 231 0
-207 -226 49 -163 231 0
-207 -226 49 163 -231 0
-207 -226 -50 -164 -232 0
-207 -226 -50 164 232 0
-207 -226 50 -164 232 0
-207 -226 50 164 -232 0
-207 -226 -51 -165 -233 0
-207 -226 -51 165 233 0
-207 -226 51 -165 233 0
-207 -226 51 165 -233 0
-207 -226 -52 -166 -234 0
-207 -226 -52 166 234 0
-207 -226 52 -166 234 0
-207 -226 52 166 -234 0
-207 -226 -53 -167 -235 0
-207 -226 -53 167 235 0
-207 -226 53 -167 235 0
-207 -226 53 167 -235 0
-207 -226 -54 -168 -236 0
-207 -226 -54 168 236 0
-207 -226 54 -168 236 0
-207 -226 54 168 -236 0
-207 -227 -46 -193 -228 0
-207 -227 -46 193 228 0
-207 -227 46 -193 228 0
-207 -227 46 193 -228 0
-207 -227 -47 -194 -229 0
-207 -227 -47 194 229 0
-207 -227 47 -194 229 0
-207 -227 47 194 -229 0
-207 -227 -48 -195 -230 0
-207 -227 -48 195 230 0
-207 -227 48 -195 230 0
-207 -227 48 195 -230 0
-207 -227 -49 -196 -231 0
-207 -227 -49 196 231 0
-207 -227 49 -196 231 0
-207 -227 49 196 -231 0
-207 -227 -50 -197 -232 0
-207 -227 -50 197 232 0
-207 -227 50 -197 232 0
-207 -227 50 197 -232 0
-207 -227 -51 -198 -233 0
-207 -227 -51 198 233 0
-207 -227 51 -198 233 0
-207 -227 51 198 -233 0
-207 -227 -52 -199 -234 0
-207 -227 -52 199 234 0
-207 -227 52 -199 234 0
-207 -227 52 199 -234 0
-207 -227 -53 -200 -235 0
-207 -227 -53 200 235 0
-207 -227 53 -200 235 0
-207 -227 53 200 -235 0
-207 -227 -54 -201 -236 0
-207 -227 -54 201 236 0
-207 -227 54 -201 236 0
-207 -227 54 201 -236 0
-208 -222 -55 -64 -228 0
-208 -222 -55 64 228 0
-208 -222 55 -64 228 0
-208 -222 55 64 -228 0
-208 -222 -56 -65 -229 0
-208 -222 -56 65 229 0
-208 -222 56 -65 229 0
-208 -222 56 65 -229 0
-208 -222 -57 -66 -230 0
-208 -222 -57 66 230 0
-208 -222 57 -66 230 0
-208 -222 57 66 -230 0
-208 -222 -58 -67 -231 0
-208 -222 -58 67 231 0
-208 -222 58 -67 231 0
-208 -222 58 67 -231 0
-208 -222 -59 -68 -232 0
-208 -222 -59 68 232 0
-208 -222 59 -68 232 0
-208 -222 59 68 -232 0
-208 -222 -60 -69 -233 0
-208 -222 -60 69 233 0
-208 -222 60 -69 233 0
-208 -222 60 69 -233 0
-208 -222 -61 -70 -234 0
-208 -222 -61 70 234 0
-208 -222 61 -70 234 0
-208 -222 61 70 -234 0
-208 -222 -62 -71 -235 0
-208 -222 -62 71 235 0
-208 -222 62 -71 235 0
-208 -222 62 71 -235 0
-208 -222 -63 -72 -236 0
-208 -222 -63 72 236 0
-208 -222 63 -72 236 0
-208 -222 63 72 -236 0
-208 -223 -55 -73 -228 0
-208 -223 -55 73 228 0
-208 -223 55 -73 228 0
-208 -223 55 73 -228 0
-208 -223 -56 -74 -229 0
-208 -223 -56 74 229 0
-208 -223 56 -74 229 0
-208 -223 56 74 -229 0
-208 -223 -57 -75 -230 0
-208 -223 -57 75 230 0
-208 -223 57 -75 230 0
-208 -223 57 75 -230 0
-208 -223 -58 -76 -231 0
-208 -223 -58 76 231 0
-208 -223 58 -76 231 0
-208 -223 58 76 -231 0
-208 -223 -59 -77 -232 0
-208 -223 -59 77 232 0
-208 -223 59 -77 232 0
-208 -223 59 77 -232 0
-208 -223 -60 -78 -233 0
-208 -223 -60 78 233 0
-208 -223 60 -78 233 0
-208 -223 60 78 -233 0
-208 -223 -61 -79 -234 0
-208 -223 -61 79 234 0
-208 -223 61 -79 234 0
-208 -223 61 79 -234 0
-208 -223 -62 -80 -235 0
-208 -223 -62 80 235 0
-208 -223 62 -80 235 0
-208 -223 62 80 -235 0
-208 -223 -63 -81 -236 0
-208 -223 -63 81 236 0
-208 -223 63 -81 236 0
-208 -223 63 81 -236 0
-208 -224 -55 -100 -228 0
-208 -224 -55 100 228 0
-208 -224 55 -100 228 0
-208 -224 55 100 -228 0
-208 -224 -56 -101 -229 0
-208 -224 -56 101 229 0
-208 -224 56 -101 229 0
-208 -224 56 101 -229 0
-208 -224 -57 -102 -230 0
-208 -224 -57 102 230 0
-208 -224 57 -102 230 0
-208 -224 57 102 -230 0
-208 -224 -58 -103 -231 0
-208 -224 -58 103 231 0
-208 -224 58 -103 231 0
-208 -224 58 103 -231 0
-208 -224 -59 -104 -232 0
-208 -224 -59 104 232 0
-208 -224 59 -104 232 0
-208 -224 59 104 -232 0
-208 -224 -60 -105 -233 0
-208 -224 -60 105 233 0
-208 -224 60 -105 233 0
-208 -224 60 105 -233 0
-208 -224 -61 -106 -234 0
-208 -224 -61 106 234 0
-208 -224 61 -106 234 0
-208 -224 61 106 -234 0
-208 -224 -62 -107 -235 0
-208 -224 -62 107 235 0
-208 -224 62 -107 235 0
-208 -224 62 107 -235 0
-208 -224 -63 -108 -236 0
-208 -224 -63 108 236 0
-208 -224 63 -108 236 0
-208 -224 63 108 -236 0
-208 -225 -55 -129 -228 0
-208 -225 -55 129 228 0
-208 -225 55 -129 228 0
-208 -225 55 129 -228 0
-208 -225 -56 -130 -229 0
-208 -225 -56 130 229 0
-208 -225 56 -130 229 0
-208 -225 56 130 -229 0
-208 -225 -57 -131 -230 0
-208 -225 -57 131 230 0
-208 -225 57 -131 230 0
-208 -225 57 131 -230 0
-208 -225 -58 -132 -231 0
-208 -225 -58 132 231 0
-208 -225 58 -132 231 0
-208 -225 58 132 -231 0
-208 -225 -59 -133 -232 0
-208 -225 -59 133 232 0
-208 -225 59 -133 232 0
-208 -225 59 133 -232 0
-208 -225 -60 -134 -233 0
-208 -225 -60 134 233 0
-208 -225 60 -134 233 0
-208 -225 60 134 -233 0
-208 -225 -61 -135 -234 0
-208 -225 -61 135 234 0
-208 -225 61 -135 234 0
-208 -225 61 135 -234 0
-208 -225 -62 -136 -235 0
-208 -225 -62 136 235 0
-208 -225 62 -136 235 0
-208 -225 62 136 -235 0
-208 -225 -63 -137 -236 0
-208 -225 -63 137 236 0
-208 -225 63 -137 236 0
-208 -225 63 137 -236 0
-208 -226 -55 -160 -228 0
-208 -226 -55 160 228 0
-208 -226 55 -160 228 0
-208 -226 55 160 -228 0
-208 -226 -56 -161 -229 0
-208 -226 -56 161 229 0
-208 -226 56 -161 229 0
-208 -226 56 161 -229 0
-208 -226 -57 -162 -230 0
-208 -226 -57 162 230 0
-208 -226 57 -162 230 0
-208 -226 57 162 -230 0
-208 -226 -58 -163 -231 0
-208 -226 -58 163 231 0
-208 -226 58 -163 231 0
-208 -226 58 163 -231 0
-208 -226 -59 -164 -232 0
-208 -226 -59 164 232 0
-208 -226 59 -164 232 0
-208 -226 59 164 -232 0
-208 -226 -60 -165 -233 0
-208 -226 -60 165 233 0
-208 -226 60 -165 233 0
-208 -226 60 165 -233 0
-208 -226 -61 -166 -234 0
-208 -226 -61 166 234 0
-208 -226 61 -166 234 0
-208 -226 61 166 -234 0
-208 -226 -62 -167 -235 0
-208 -226 -62 167 235 0
-208 -226 62 -167 235 0
-208 -226 62 167 -235 0
-208 -226 -63 -168 -236 0
-208 -226 -63 168 236 0
-208 -226 63 -168 236 0
-208 -226 63 168 -236 0
-208 -227 -55 -193 -228 0
-208 -227 -55 193 228 0
-208 -227 55 -193 228 0
-208 -227 55 193 -228 0
-208 -227 -56 -194 -229 0
-208 -227 -56 194 229 0
-208 -227 56 -194 229 0
-208 -227 56 194 -229 0
-208 -227 -57 -195 -230 0
-208 -227 -57 195 230 0
-208 -227 57 -195 230 0
-208 -227 57 195 -230 0
-208 -227 -58 -196 -231 0
-208 -227 -58 196 231 0
-208 -227 58 -196 231 0
-208 -227 58 196 -231 0
-208 -227 -59 -197 -232 0
-208 -227 -59 197 232 0
-208 -227 59 -197 232 0
-208 -227 59 197 -232 0
-208 -227 -60 -198 -233 0
-208 -227 -60 198 233 0
-208 -227 60 -198 233 0
-208 -227 60 198 -233 0
-208 -227 -61 -199 -234 0
-208 -227 -61 199 234 0
-208 -227 61 -199 234 0
-208 -227 61 199 -234 0
-208 -227 -62 -200 -235 0
-208 -227 -62 200 235 0
-208 -227 62 -200 235 0
-208 -227 62 200 -235 0
-208 -227 -63 -201 -236 0
-208 -227 -63 201 236 0
-208 -227 63 -201 236 0
-208 -227 63 201 -236 0
-209 -223 -64 -73 -228 0
-209 -223 -64 73 228 0
-209 -223 64 -73 228 0
-209 -223 64 73 -228 0
-209 -223 -65 -74 -229 0
-209 -223 -65 74 229 0
-209 -223 65 -74 229 0
-209 -223 65 74 -229 0
-209 -223 -66 -75 -230 0
-209 -223 -66 75 230 0
-209 -223 66 -75 230 0
-209 -223 66 75 -230 0
-209 -223 -67 -76 -231 0
-209 -223 -67 76 231 0
-209 -223 67 -76 231 0
-209 -223 67 76 -231 0
-209 -223 -68 -77 -232 0
-209 -223 -68 77 232 0
-209 -223 68 -77 232 0
-209 -223 68 77 -232 0
-209 -223 -69 -78 -233 0
-209 -223 -69 78 233 0
-209 -223 69 -78 233 0
-209 -223 69 78 -233 0
-209 -223 -70 -79 -234 0
-209 -223 -70 79 234 0
-209 -223 70 -79 234 0
-209 -223 70 79 -234 0
-209 -223 -71 -80 -235 0
-209 -223 -71 80 235 0
-209 -223 71 -80 235 0
-209 -223 71 80 -235 0
-209 -223 -72 -81 -236 0
-209 -223 -72 81 236 0
-209 -223 72 -81 236 0
-209 -223 72 81 -236 0
-209 -224 -64 -100 -228 0
-209 -224 -64 100 228 0
-209 -224 64 -100 228 0
-209 -224 64 100 -228 0
-209 -224 -65 -101 -229 0
-209 -224 -65 101 229 0
-209 -224 65 -101 229 0
-209 -224 65 101 -229 0
-209 -224 -66 -102 -230 0
-209 -224 -66 102 230 0
-209 -224 66 -102 230 0
-209 -224 66 102 -230 0
-209 -224 -67 -103 -231 0
-209 -224 -67 103 231 0
-209 -224 67 -103 231 0
-209 -224 67 103 -231 0
-209 -224 -68 -104 -232 0
-209 -224 -68 104 232 0
-209 -224 68 -104 232 0
-209 -224 68 104 -232 0
-209 -224 -69 -105 -233 0
-209 -224 -69 105 233 0
-209 -224 69 -105 233 0
-209 -224 69 105 -233 0
-209 -224 -70 -106 -234 0
-209 -224 -70 106 234 0
-209 -224 70 -106 234 0
-209 -224 70 106 -234 0
-209 -224 -71 -107 -235 0
-209 -224 -71 107 235 0
-209 -224 71 -107 235 0
-209 -224 71 107 -235 0
-209 -224 -72 -108 -236 0
-209 -224 -72 108 236 0
-209 -224 72 -108 236 0
-209 -224 72 108 -236 0
-209 -225 -64 -129 -228 0
-209 -225 -64 129 228 0
-209 -225 64 -129 228 0
-209 -225 64 129 -228 0
-209 -225 -65 -130 -229 0
-209 -225 -65 130 229 0
-209 -225 65 -130 229 0
-209 -225 65 130 -229 0
-209 -225 -66 -131 -230 0
-209 -225 -66 131 230 0
-209 -225 66 -131 230 0
-209 -225 66 131 -230 0
-209 -225 -67 -132 -231 0
-209 -225 -67 132 231 0
-209 -225 67 -132 231 0
-209 -225 67 132 -231 0
-209 -225 -68 -133 -232 0
-209 -225 -68 133 232 0
-209 -225 68 -133 232 0
-209 -225 68 133 -232 0
-209 -225 -69 -134 -233 0
-209 -225 -69 134 233 0
-209 -225 69 -134 233 0
-209 -225 69 134 -233 0
-209 -225 -70 -135 -234 0
-209 -225 -70 135 234 0
-209 -225 70 -135 234 0
-209 -225 70 135 -234 0
-209 -225 -71 -136 -235 0
-209 -225 -71 136 235 0
-209 -225 71 -136 235 0
-209 -225 71 136 -235 0
-209 -225 -72 -137 -236 0
-209 -225 -72 137 236 0
-209 -225 72 -137 236 0
-209 -225 72 137 -236 0
-209 -226 -64 -160 -228 0
-209 -226 -64 160 228 0
-209 -226 64 -160 228 0
-209 -226 64 160 -228 0
-209 -226 -65 -161 -229 0
-209 -226 -65 161 229 0
-209 -226 65 -161 229 0
-209 -226 65 161 -229 0
-209 -226 -66 -162 -230 0
-209 -226 -66 162 230 0
-209 -226 66 -162 230 0
-209 -226 66 162 -230 0
-209 -226 -67 -163 -231 0
-209 -226 -67 163 231 0
-209 -226 67 -163 231 0
-209 -226 67 163 -231 0
-209 -226 -68 -164 -232 0
-209 -226 -68 164 232 0
-209 -226 68 -164 232 0
-209 -226 68 164 -232 0
-209 -226 -69 -165 -233 0
-209 -226 -69 165 233 0
-209 -226 69 -165 233 0
-209 -226 69 165 -233 0
-209 -226 -70 -166 -234 0
-209 -226 -70 166 234 0
-209 -226 70 -166 234 0
-209 -226 70 166 -234 0
-209 -226 -71 -167 -235 0
-209 -226 -71 167 235 0
-209 -226 71 -167 235 0
-209 -226 71 167 -235 0
-209 -226 -72 -168 -236 0
-209 -226 -72 168 236 0
-209 -226 72 -168 236 0
-209 -226 72 168 -236 0
-209 -227 -64 -193 -228 0
-209 -227 -64 193 228 0
-209 -227 64 -193 228 0
-209 -227 64 193 -228 0
-209 -227 -65 -194 -229 0
-209 -227 -65 194 229 0
-209 -227 65 -194 229 0
-209 -227 65 194 -229 0
-209 -227 -66 -195 -230 0
-209 -227 -66 195 230 0
-209 -227 66 -195 230 0
-209 -227 66 195 -230 0
-209 -227 -67 -196 -231 0
-209 -227 -67 196 231 0
-209 -227 67 -196 231 0
-209 -227 67 196 -231 0
-209 -227 -68 -197 -232 0
-209 -227 -68 197 232 0
-209 -227 68 -197 232 0
-209 -227 68 197 -232 0
-209 -227 -69 -198 -233 0
-209 -227 -69 198 233 0
-209 -227 69 -198 233 0
-209 -227 69 198 -233 0
-209 -227 -70 -199 -234 0
-209 -227 -70 199 234 0
-209 -227 70 -199 234 0
-209 -227 70 199 -234 0
-209 -227 -71 -200 -235 0
-209 -227 -71 200 235 0
-209 -227 71 -200 235 0
-209 -227 71 200 -235 0
-209 -227 -72 -201 -236 0
-209 -227 -72 201 236 0
-209 -227 72 -201 236 0
-209 -227 72 201 -236 0
-210 -224 -73 -100 -228 0
-210 -224 -73 100 228 0
-210 -224 73 -100 228 0
-210 -224 73 100 -228 0
-210 -224 -74 -101 -229 0
-210 -224 -74 101 229 0
-210 -224 74 -101 229 0
-210 -224 74 101 -229 0
-210 -224 -75 -102 -230 0
-210 -224 -75 102 230 0
-210 -224 75 -102 230 0
-210 -224 75 102 -230 0
-210 -224 -76 -103 -231 0
-210 -224 -76 103 231 0
-210 -224 76 -103 231 0
-210 -224 76 103 -231 0
-210 -224 -77 -104 -232 0
-210 -224 -77 104 232 0
-210 -224 77 -104 232 0
-210 -224 77 104 -232 0
-210 -224 -78 -105 -233 0
-210 -224 -78 105 233 0
-210 -224 78 -105 233 0
-210 -224 78 105 -233 0
-210 -224 -79 -106 -234 0
-210 -224 -79 106 234 0
-210 -224 79 -106 234 0
-210 -224 79 106 -234 0
-210 -224 -80 -107 -235 0
-210 -224 -80 107 235 0
-210 -224 80 -107 235 0
-210 -224 80 107 -235 0
-210 -224 -81 -108 -236 0
-210 -224 -81 108 236 0
-210 -224 81 -108 236 0
-210 -224 81 108 -236 0
-210 -225 -73 -129 -228 0
-210 -225 -73 129 228 0
-210 -225 73 -129 228 0
-210 -225 73 129 -228 0
-210 -225 -74 -130 -229 0
-210 -225 -74 130 229 0
-210 -225 74 -130 229 0
-210 -225 74 130 -229 0
-210 -225 -75 -131 -230 0
-210 -225 -75 131 230 0
-210 -225 75 -131 230 0
-210 -225 75 131 -230 0
-210 -225 -76 -132 -231 0
-210 -225 -76 132 231 0
-210 -225 76 -132 231 0
-210 -225 76 132 -231 0
-210 -225 -77 -133 -232 0
-210 -225 -77 133 232 0
-210 -225 77 -133 232 0
-210 -225 77 133 -232 0
-210 -225 -78 -134 -233 0
-210 -225 -78 134 233 0
-210 -225 78 -134 233 0
-210 -225 78 134 -233 0
-210 -225 -79 -135 -234 0
-210 -225 -79 135 234 0
-210 -225 79 -135 234 0
-210 -225 79 135 -234 0
-210 -225 -80 -136 -235 0
-210 -225 -80 136 235 0
-210 -225 80 -136 235 0
-210 -225 80 136 -235 0
-210 -225 -81 -137 -236 0
-210 -225 -81 137 236 0
-210 -225 81 -137 236 0
-210 -225 81 137 -236 0
-210 -226 -73 -160 -228 0
-210 -226 -73 160 228 0
-210 -226 73 -160 228 0
-210 -226 73 160 -228 0
-210 -226 -74 -161 -229 0
-210 -226 -74 161 229 0
-210 -226 74 -161 229 0
-210 -226 74 161 -229 0
-210 -226 -75 -162 -230 0
-210 -226 -75 162 230 0
-210 -226 75 -162 230 0
-210 -226 75 162 -230 0
-210 -226 -76 -163 -231 0
-210 -226 -76 163 231 0
-210 -226 76 -163 231 0
-210 -226 76 163 -231 0
-210 -226 -77 -164 -232 0
-210 -226 -77 164 232 0
-210 -226 77 -164 232 0
-210 -226 77 164 -232 0
-210 -226 -78 -165 -233 0
-210 -226 -78 165 233 0
-210 -226 78 -165 233 0
-210 -226 78 165 -233 0
-210 -226 -79 -166 -234 0
-210 -226 -79 166 234 0
-210 -226 79 -166 234 0
-210 -226 79 166 -234 0
-210 -226 -80 -167 -235 0
-210 -226 -80 167 235 0
-210 -226 80 -167 235 0
-210 -226 80 167 -235 0
-210 -226 -81 -168 -236 0
-210 -226 -81 168 236 0
-210 -226 81 -168 236 0
-210 -226 81 168 -236 0
-210 -227 -73 -193 -228 0
-210 -227 -73 193 228 0
-210 -227 73 -193 228 0
-210 -227 73 193 -228 0
-210 -227 -74 -194 -229 0
-210 -227 -74 194 229 0
-210 -227 74 -194 229 0
-210 -227 74 194 -229 0
-210 -227 -75 -195 -230 0
-210 -227 -75 195 230 0
-210 -227 75 -195 230 0
-210 -227 75 195 -230 0
-210 -227 -76 -196 -231 0
-210 -227 -76 196 231 0
-210 -227 76 -196 231 0
-210 -227 76 196 -231 0
-210 -227 -77 -197 -232 0
-210 -227 -77 197 232 0
-210 -227 77 -197 232 0
-210 -227 77 197 -232 0
-210 -227 -78 -198 -233 0
-210 -227 -78 198 233 0
-210 -227 78 -198 233 0
-210 -227 78 198 -233 0
-210 -227 -79 -199 -234 0
-210 -227 -79 199 234 0
-210 -227 79 -199 234 0
-210 -227 79 199 -234 0
-210 -227 -80 -200 -235 0
-210 -227 -80 200 235 0
-210 -227 80 -200 235 0
-210 -227 80 200 -235 0
-210 -227 -81 -201 -236 0
-210 -227 -81 201 236 0
-210 -227 81 -201 236 0
-210 -227 81 201 -236 0
-211 -225 -100 -129 -228 0
-211 -225 -100 129 228 0
-211 -225 100 -129 228 0
-211 -225 100 129 -228 0
-211 -225 -101 -130 -229 0
-211 -225 -101 130 229 0
-211 -225 101 -130 229 0
-211 -225 101 130 -229 0
-211 -225 -102 -131 -230 0
-211 -225 -102 131 230 0
-211 -225 102 -131 230 0
-211 -225 102 131 -230 0
-211 -225 -103 -132 -231 0
-211 -225 -103 132 231 0
-211 -225 103 -132 231 0
-211 -225 103 132 -231 0
-211 -225 -104 -133 -232 0
-211 -225 -104 133 232 0
-211 -225 104 -133 232 0
-211 -225 104 133 -232 0
-211 -225 -105 -134 -233 0
-211 -225 -105 134 233 0
-211 -225 105 -134 233 0
-211 -225 105 134 -233 0
-211 -225 -106 -135 -234 0
-211 -225 -106 135 234 0
-211 -225 106 -135 234 0
-211 -225 106 135 -234 0
-211 -225 -107 -136 -235 0
-211 -225 -107 136 235 0
-211 -225 107 -136 235 0
-211 -225 107 136 -235 0
-211 -225 -108 -137 -236 0
-211 -225 -108 137 236 0
-211 -225 108 -137 236 0
-211 -225 108 137 -236 0
-211 -226 -100 -160 -228 0
-211 -226 -100 160 228 0
-211 -226 100 -160 228 0
-211 -226 100 160 -228 0
-211 -226 -101 -161 -229 0
-211 -226 -101 161 229 0
-211 -226 101 -161 229 0
-211 -226 101 161 -229 0
-211 -226 -102 -162 -230 0
-211 -226 -102 162 230 0
-211 -226 102 -162 230 0
-211 -226 102 162 -230 0
-211 -226 -103 -163 -231 0
-211 -226 -103 163 231 0
-211 -226 103 -163 231 0
-211 -226 103 163 -231 0
-211 -226 -104 -164 -232 0
-211 -226 -104 164 232 0
-211 -226 104 -164 232 0
-211 -226 104 164 -232 0
-211 -226 -105 -165 -233 0
-211 -226 -105 165 233 0
-211 -226 105 -165 233 0
-211 -226 105 165 -233 0
-211 -226 -106 -166 -234 0
-211 -226 -106 166 234 0
-211 -226 106 -166 234 0
-211 -226 106 166 -234 0
-211 -226 -107 -167 -235 0
-211 -226 -107 167 235 0
-211 -226 107 -167 235 0
-211 -226 107 167 -235 0
-211 -226 -108 -168 -236 0
-211 -226 -108 168 236 0
-211 -226 108 -168 236 0
-211 -226 108 168 -236 0
-211 -227 -100 -193 -228 0
-211 -227 -100 193 228 0
-211 -227 100 -193 228 0
-211 -227 100 193 -228 0
-211 -227 -101 -194 -229 0
-211 -227 -101 194 229 0
-211 -227 101 -194 229 0
-211 -227 101 194 -229 0
-211 -227 -102 -195 -230 0
-211 -227 -102 195 230 0
-211 -227 102 -195 230 0
-211 -227 102 195 -230 0
-211 -227 -103 -196 -231 0
-211 -227 -103 196 231 0
-211 -227 103 -196 231 0
-211 -227 103 196 -231 0
-211 -227 -104 -197 -232 0
-211 -227 -104 197 232 0
-211 -227 104 -197 232 0
-211 -227 104 197 -232 0
-211 -227 -105 -198 -233 0
-211 -227 -105 198 233 0
-211 -227 105 -198 233 0
-211 -227 105 198 -233 0
-211 -227 -106 -199 -234 0
-211 -227 -106 199 234 0
-211 -227 106 -199 234 0
-211 -227 106 199 -234 0
-211 -227 -107 -200 -235 0
-211 -227 -107 200 235 0
-211 -227 107 -200 235 0
-211 -227 107 200 -235 0
-211 -227 -108 -201 -236 0
-211 -227 -108 201 236 0
-211 -227 108 -201 236 0
-211 -227 108 201 -236 0
-212 -226 -129 -160 -228 0
-212 -226 -129 160 228 0
-212 -226 129 -160 228 0
-212 -226 129 160 -228 0
-212 -226 -130 -161 -229 0
-212 -226 -130 161 229 0
-212 -226 130 -161 229 0
-212 -226 130 161 -229 0
-212 -226 -131 -162 -230 0
-212 -226 -131 162 230 0
-212 -226 131 -162 230 0
-212 -226 131 162 -230 0
-212 -226 -132 -163 -231 0
-212 -226 -132 163 231 0
-212 -226 132 -163 231 0
-212 -226 132 163 -231 0
-212 -226 -133 -164 -232 0
-212 -226 -133 164 232 0
-212 -226 133 -164 232 0
-212 -226 133 164 -232 0
-212 -226 -134 -165 -233 0
-212 -226 -134 165 233 0
-212 -226 134 -165 233 0
-212 -226 134 165 -233 0
-212 -226 -135 -166 -234 0
-212 -226 -135 166 234 0
-212 -226 135 -166 234 0
-212 -226 135 166 -234 0
-212 -226 -136 -167 -235 0
-212 -226 -136 167 235 0
-212 -226 136 -167 235 0
-212 -226 136 167 -235 0
-212 -226 -137 -168 -236 0
-212 -226 -137 168 236 0
-212 -226 137 -168 236 0
-212 -226 137 168 -236 0
-212 -227 -129 -193 -228 0
-212 -227 -129 193 228 0
-212 -227 129 -193 228 0
-212 -227 129 193 -228 0
-212 -227 -130 -194 -229 0
-212 -227 -130 194 229 0
-212 -227 130 -194 229 0
-212 -227 130 194 -229 0
-212 -227 -131 -195 -230 0
-212 -227 -131 195 230 0
-212 -227 131 -195 230 0
-212 -227 131 195 -230 0
-212 -227 -132 -196 -231 0
-212 -227 -132 196 231 0
-212 -227 132 -196 231 0
-212 -227 132 196 -231 0
-212 -227 -133 -197 -232 0
-212 -227 -133 197 232 0
-212 -227 133 -197 232 0
-212 -227 133 197 -232 0
-212 -227 -134 -198 -233 0
-212 -227 -134 198 233 0
-212 -227 134 -198 233 0
-212 -227 134 198 -233 0
-212 -227 -135 -199 -234 0
-212 -227 -135 199 234 0
-212 -227 135 -199 234 0
-212 -227 135 199 -234 0
-212 -227 -136 -200 -235 0
-212 -227 -136 200 235 0
-212 -227 136 -200 235 0
-212 -227 136 200 -235 0
-212 -227 -137 -201 -236 0
-212 -227 -137 201 236 0
-212 -227 137 -201 236 0
-212 -227 137 201 -236 0
-213 -227 -160 -193 -228 0
-213 -227 -160 193 228 0
-213 -227 160 -193 228 0
-213 -227 160 193 -228 0
-213 -227 -161 -194 -229 0
-213 -227 -161 194 229 0
-213 -227 161 -194 229 0
-213 -227 161 194 -229 0
-213 -227 -162 -195 -230 0
-213 -227 -162 195 230 0
-213 -227 162 -195 230 0
-213 -227 162 195 -230 0
-213 -227 -163 -196 -231 0
-213 -227 -163 196 231 0
-213 -227 163 -196 231 0
-213 -227 163 196 -231 0
-213 -227 -164 -197 -232 0
-213 -227 -164 197 232 0
-213 -227 164 -197 232 0
-213 -227 164 197 -232 0
-213 -227 -165 -198 -233 0
-213 -227 -165 198 233 0
-213 -227 165 -198 233 0
-213 -227 165 198 -233 0
-213 -227 -166 -199 -234 0
-213 -227 -166 199 234 0
-213 -227 166 -199 234 0
-213 -227 166 199 -234 0
-213 -227 -167 -200 -235 0
-213 -227 -167 200 235 0
-213 -227 167 -200 235 0
-213 -227 167 200 -235 0
-213 -227 -168 -201 -236 0
-213 -227 -168 201 236 0
-213 -227 168 -201 236 0
-213 -227 168 201 -236 0
228 229 230 231 232 233 234 235 236 0
237 238 239 240 241 242 243 244 245 246 247 248 249 250 0
-237 -238 0
-237 -239 0
-237 -240 0
-237 -241 0
-237 -242 0
-237 -243 0
-237 -244 0
-237 -245 0
-237 -246 0
-237 -247 0
-237 -248 0
-237 -249 0
-237 -250 0
-238 -239 0
-238 -240 0
-238 -241 0
-238 -242 0
-238 -243 0
-238 -244 0
-238 -245 0
-238 -246 0
-238 -247 0
-238 -248 0
-238 -249 0
-238 -250 0
-239 -240 0
-239 -241 0
-239 -242 0
-239 -243 0
-239 -244 0
-239 -245 0
-239 -246 0
-239 -247 0
-239 -248 0
-239 -249 0
-239 -250 0
-240 -241 0
-240 -242 0
-240 -243 0
-240 -244 0
-240 -245 0
-240 -246 0
-240 -247 0
-240 -248 0
-240 -249 0
-240 -250 0
-241 -242 0
-241 -243 0
-241 -244 0
-241 -245 0
-241 -246 0
-241 -247 0
-241 -248 0
-241 -249 0
-241 -250 0
-242 -243 0
-242 -244 0
-242 -245 0
-242 -246 0
-242 -247 0
-242 -248 0
-242 -249 0
-242 -250 0
-243 -244 0
-243 -245 0
-243 -246 0
-243 -247 0
-243 -248 0
-243 -249 0
-243 -250 0
-244 -245 0
-244 -246 0
-244 -247 0
-244 -248 0
-244 -249 0
-244 -250 0
-245 -246 0
-245 -247 0
-245 -248 0
-245 -249 0
-245 -250 0
-246 -247 0
-246 -248 0
-246 -249 0
-246 -250 0
-247 -248 0
-247 -249 0
-247 -250 0
-248 -249 0
-248 -250 0
-249 -250 0
251 252 253 254 255 256 257 258 259 260 261 262 263 264 0
-251 -252 0
-251 -253 0
-251 -254 0
-251 -255 0
-251 -256 0
-251 -257 0
-251 -258 0
-251 -259 0
-251 -260 0
-251 -261 0
-251 -262 0
-251 -263 0
-251 -264 0
-252 -253 0
-252 -254 0
-252 -255 0
-252 -256 0
-252 -257 0
-252 -258 0
-252 -259 0
-252 -260 0
-252 -261 0
-252 -262 0
-252 -263 0
-252 -264 0
-253 -254 0
-253 -255 0
-253 -256 0
-253 -257 0
-253 -258 0
-253 -259 0
-253 -260 0
-253 -261 0
-253 -262 0
-253 -263 0
-253 -264 0
-254 -255 0
-254 -256 0
-254 -257 0
-254 -258 0
-254 -259 0
-254 -260 0
-254 -261 0
-254 -262 0
-254 -263 0
-254 -264 0
-255 -256 0
-255 -257 0
-255 -258 0
-255 -259 0
-255 -260 0
-255 -261 0
-255 -262 0
-255 -263 0
-255 -264 0
-256 -257 0
-256 -258 0
-256 -259 0
-256 -260 0
-256 -261 0
-256 -262 0
-256 -263 0
-256 -264 0
-257 -258 0
-257 -259 0
-257 -260 0
-257 -261 0
-257 -262 0
-257 -263 0
-257 -264 0
-258 -259 0
-258 -260 0
-258 -261 0
-258 -262 0
-258 -263 0
-258 -264 0
-259 -260 0
-259 -261 0
-259 -262 0
-259 -263 0
-259 -264 0
-260 -261 0
-260 -262 0
-260 -263 0
-260 -264 0
-261 -262 0
-261 -263 0
-261 -264 0
-262 -263 0
-262 -264 0
-263 -264 0
-237 -251 0
-238 -251 0
-238 -252 0
-239 -251 0
-239 -252 0
-239 -253 0
-240 -251 0
-240 -252 0
-240 -253 0
-240 -254 0
-241 -251 0
-241 -252 0
-241 -253 0
-241 -254 0
-241 -255 0
-242 -251 0
-242 -252 0
-242 -253 0
-242 -254 0
-242 -255 0
-242 -256 0
-243 -251 0
-243 -252 0
-243 -253 0
-243 -254 0
-243 -255 0
-243 -256 0
-243 -257 0
-244 -251 0
-244 -252 0
-244 -253 0
-244 -254 0
-244 -255 0
-244 -256 0
-244 -257 0
-244 -258 0
-245 -251 0
-245 -252 0
-245 -253 0
-245 -254 0
-245 -255 0
-245 -256 0
-245 -257 0
-245 -258 0
-245 -259 0
-246 -251 0
-246 -252 0
-246 -253 0
-246 -254 0
-246 -255 0
-246 -256 0
-246 -257 0
-246 -258 0
-246 -259 0
-246 -260 0
-247 -251 0
-247 -252 0
-247 -253 0
-247 -254 0
-247 -255 0
-247 -256 0
-247 -257 0
-247 -258 0
-247 -259 0
-247 -260 0
-247 -261 0
-248 -251 0
-248 -252 0
-248 -253 0
-248 -254 0
-248 -255 0
-248 -256 0
-248 -257 0
-248 -258 0
-248 -259 0
-248 -260 0
-248 -261 0
-248 -262 0
-249 -251 0
-249 -252 0
-249 -253 0
-249 -254 0
-249 -255 0
-249 -256 0
-249 -257 0
-249 -258 0
-249 -259 0
-249 -260 0
-249 -261 0
-249 -262 0
-249 -263 0
-250 -251 0
-250 -252 0
-250 -253 0
-250 -254 0
-250 -255 0
-250 -256 0
-250 -257 0
-250 -258 0
-250 -259 0
-250 -260 0
-250 -261 0
-250 -262 0
-250 -263 0
-250 -264 0
-237 -252 -1 -10 -265 0
-237 -252 -1 10 265 0
-237 -252 1 -10 265 0
-237 -252 1 10 -265 0
-237 -252 -2 -11 -266 0
-237 -252 -2 11 266 0
-237 -252 2 -11 266 0
-237 -252 2 11 -266 0
-237 -252 -3 -12 -267 0
-237 -252 -3 12 267 0
-237 -252 3 -12 267 0
-237 -252 3 12 -267 0
-237 -252 -4 -13 -268 0
-237 -252 -4 13 268 0
-237 -252 4 -13 268 0
-237 -252 4 13 -268 0
-237 -252 -5 -14 -269 0
-237 -252 -5 14 269 0
-237 -252 5 -14 269 0
-237 -252 5 14 -269 0
-237 -252 -6 -15 -270 0
-237 -252 -6 15 270 0
-237 -252 6 -15 270 0
-237 -252 6 15 -270 0
-237 -252 -7 -16 -271 0
-237 -252 -7 16 271 0
-237 -252 7 -16 271 0
-237 -252 7 16 -271 0
-237 -252 -8 -17 -272 0
-237 -252 -8 17 272 0
-237 -252 8 -17 272 0
-237 -252 8 17 -272 0
-237 -252 -9 -18 -273 0
-237 -252 -9 18 273 0
-237 -252 9 -18 273 0
-237 -252 9 18 -273 0
-237 -253 -1 -19 -265 0
-237 -253 -1 19 265 0
-237 -253 1 -19 265 0
-237 -253 1 19 -265 0
-237 -253 -2 -20 -266 0
-237 -253 -2 20 266 0
-237 -253 2 -20 266 0
-237 -253 2 20 -266 0
-237 -253 -3 -21 -267 0
-237 -253 -3 21 267 0
-237 -253 3 -21 267 0
-237 -253 3 21 -267 0
-237 -253 -4 -22 -268 0
-237 -253 -4 22 268 0
-237 -253 4 -22 268 0
-237 -253 4 22 -268 0
-237 -253 -5 -23 -269 0
-237 -253 -5 23 269 0
-237 -253 5 -23 269 0
-237 -253 5 23 -269 0
-237 -253 -6 -24 -270 0
-237 -253 -6 24 270 0
-237 -253 6 -24 270 0
-237 -253 6 24 -270 0
-237 -253 -7 -25 -271 0
-237 -253 -7 25 271 0
-237 -253 7 -25 271 0
-237 -253 7 25 -271 0
-237 -253 -8 -26 -272 0
-237 -253 -8 26 272 0
-237 -253 8 -26 272 0
-237 -253 8 26 -272 0
-237 -253 -9 -27 -273 0
-237 -253 -9 27 273 0
-237 -253 9 -27 273 0
-237 -253 9 27 -273 0
-237 -254 -1 -28 -265 0
-237 -254 -1 28 265 0
-237 -254 1 -28 265 0
-237 -254 1 28 -265 0
-237 -254 -2 -29 -266 0
-237 -254 -2 29 266 0
-237 -254 2 -29 266 0
-237 -254 2 29 -266 0
-237 -254 -3 -30 -267 0
-237 -254 -3 30 267 0
-237 -254 3 -30 267 0
-237 -254 3 30 -267 0
-237 -254 -4 -31 -268 0
-237 -254 -4 31 268 0
-237 -254 4 -31 268 0
-237 -254 4 31 -268 0
-237 -254 -5 -32 -269 0
-237 -254 -5 32 269 0
-237 -254 5 -32 269 0
-237 -254 5 32 -269 0
-237 -254 -6 -33 -270 0
-237 -254 -6 33 270 0
-237 -254 6 -33 270 0
-237 -254 6 33 -270 0
-237 -254 -7 -34 -271 0
-237 -254 -7 34 271 0
-237 -254 7 -34 271 0
-237 -254 7 34 -271 0
-237 -254 -8 -35 -272 0
-237 -254 -8 35 272 0
-237 -254 8 -35 272 0
-237 -254 8 35 -272 0
-237 -254 -9 -36 -273 0
-237 -254 -9 36 273 0
-237 -254 9 -36 273 0
-237 -254 9 36 -273 0
-237 -255 -1 -37 -265 0
-237 -255 -1 37 265 0
-237 -255 1 -37 265 0
-237 -255 1 37 -265 0
-237 -255 -2 -38 -266 0
-237 -255 -2 38 266 0
-237 -255 2 -38 266 0
-237 -255 2 38 -266 0
-237 -255 -3 -39 -267 0
-237 -255 -3 39 267 0
-237 -255 3 -39 267 0
-237 -255 3 39 -267 0
-237 -255 -4 -40 -268 0
-237 -255 -4 40 268 0
-237 -255 4 -40 268 0
-237 -255 4 40 -268 0
-237 -255 -5 -41 -269 0
-237 -255 -5 41 269 0
-237 -255 5 -41 269 0
-237 -255 5 41 -269 0
-237 -255 -6 -42 -270 0
-237 -255 -6 42 270 0
-237 -255 6 -42 270 0
-237 -255 6 42 -270 0
-237 -255 -7 -43 -271 0
-237 -255 -7 43 271 0
-237 -255 7 -43 271 0
-237 -255 7 43 -271 0
-237 -255 -8 -44 -272 0
-237 -255 -8 44 272 0
-237 -255 8 -44 272 0
-237 -255 8 44 -272 0
-237 -255 -9 -45 -273 0
-237 -255 -9 45 273 0
-237 -255 9 -45 273 0
-237 -255 9 45 -273 0
-237 -256 -1 -46 -265 0
-237 -256 -1 46 265 0
-237 -256 1 -46 265 0
-237 -256 1 46 -265 0
-237 -256 -2 -47 -266 0
-237 -256 -2 47 266 0
-237 -256 2 -47 266 0
-237 -256 2 47 -266 0
-237 -256 -3 -48 -267 0
-237 -256 -3 48 267 0
-237 -256 3 -48 267 0
-237 -256 3 48 -267 0
-237 -256 -4 -49 -268 0
-237 -256 -4 49 268 0
-237 -256 4 -49 268 0
-237 -256 4 49 -268 0
-237 -256 -5 -50 -269 0
-237 -256 -5 50 269 0
-237 -256 5 -50 269 0
-237 -256 5 50 -269 0
-237 -256 -6 -51 -270 0
-237 -256 -6 51 270 0
-237 -256 6 -51 270 0
-237 -256 6 51 -270 0
-237 -256 -7 -52 -271 0
-237 -256 -7 52 271 0
-237 -256 7 -52 271 0
-237 -256 7 52 -271 0
-237 -256 -8 -53 -272 0
-237 -256 -8 53 272 0
-237 -256 8 -53 272 0
-237 -256 8 53 -272 0
-237 -256 -9 -54 -273 0
-237 -256 -9 54 273 0
-237 -256 9 -54 273 0
-237 -256 9 54 -273 0
-237 -257 -1 -55 -265 0
-237 -257 -1 55 265 0
-237 -257 1 -55 265 0
-237 -257 1 55 -265 0
-237 -257 -2 -56 -266 0
-237 -257 -2 56 266 0
-237 -257 2 -56 266 0
-237 -257 2 56 -266 0
-237 -257 -3 -57 -267 0
-237 -257 -3 57 267 0
-237 -257 3 -57 267 0
-237 -257 3 57 -267 0
-237 -257 -4 -58 -268 0
-237 -257 -4 58 268 0
-237 -257 4 -58 268 0
-237 -257 4 58 -268 0
-237 -257 -5 -59 -269 0
-237 -257 -5 59 269 0
-237 -257 5 -59 269 0
-237 -257 5 59 -269 0
-237 -257 -6 -60 -270 0
-237 -257 -6 60 270 0
-237 -257 6 -60 270 0
-237 -257 6 60 -270 0
-237 -257 -7 -61 -271 0
-237 -257 -7 61 271 0
-237 -257 7 -61 271 0
-237 -257 7 61 -271 0
-237 -257 -8 -62 -272 0
-237 -257 -8 62 272 0
-237 -257 8 -62 272 0
-237 -257 8 62 -272 0
-237 -257 -9 -63 -273 0
-237 -257 -9 63 273 0
-237 -257 9 -63 273 0
-237 -257 9 63 -273 0
-237 -258 -1 -64 -265 0
-237 -258 -1 64 265 0
-237 -258 1 -64 265 0
-237 -258 1 64 -265 0
-237 -258 -2 -65 -266 0
-237 -258 -2 65 266 0
-237 -258 2 -65 266 0
-237 -258 2 65 -266 0
-237 -258 -3 -66 -267 0
-237 -258 -3 66 267 0
-237 -258 3 -66 267 0
-237 -258 3 66 -267 0
-237 -258 -4 -67 -268 0
-237 -258 -4 67 268 0
-237 -258 4 -67 268 0
-237 -258 4 67 -268 0
-237 -258 -5 -68 -269 0
-237 -258 -5 68 269 0
-237 -258 5 -68 269 0
-237 -258 5 68 -269 0
-237 -258 -6 -69 -270 0
-237 -258 -6 69 270 0
-237 -258 6 -69 270 0
-237 -258 6 69 -270 0
-237 -258 -7 -70 -271 0
-237 -258 -7 70 271 0
-237 -258 7 -70 271 0
-237 -258 7 70 -271 0
-237 -258 -8 -71 -272 0
-237 -258 -8 71 272 0
-237 -258 8 -71 272 0
-237 -258 8 71 -272 0
-237 -258 -9 -72 -273 0
-237 -258 -9 72 273 0
-237 -258 9 -72 273 0
-237 -258 9 72 -273 0
-237 -259 -1 -73 -265 0
-237 -259 -1 73 265 0
-237 -259 1 -73 265 0
-237 -259 1 73 -265 0
-237 -259 -2 -74 -266 0
-237 -259 -2 74 266 0
-237 -259 2 -74 266 0
-237 -259 2 74 -266 0
-237 -259 -3 -75 -267 0
-237 -259 -3 75 267 0
-237 -259 3 -75 267 0
-237 -259 3 75 -267 0
-237 -259 -4 -76 -268 0
-237 -259 -4 76 268 0
-237 -259 4 -76 268 0
-237 -259 4 76 -268 0
-237 -259 -5 -77 -269 0
-237 -259 -5 77 269 0
-237 -259 5 -77 269 0
-237 -259 5 77 -269 0
-237 -259 -6 -78 -270 0
-237 -259 -6 78 270 0
-237 -259 6 -78 270 0
-237 -259 6 78 -270 0
-237 -259 -7 -79 -271 0
-237 -259 -7 79 271 0
-237 -259 7 -79 271 0
-237 -259 7 79 -271 0
-237 -259 -8 -80 -272 0
-237 -259 -8 80 272 0
-237 -259 8 -80 272 0
-237 -259 8 80 -272 0
-237 -259 -9 -81 -273 0
-237 -259 -9 81 273 0
-237 -259 9 -81 273 0
-237 -259 9 81 -273 0
-237 -260 -1 -100 -265 0
-237 -260 -1 100 265 0
-237 -260 1 -100 265 0
-237 -260 1 100 -265 0
-237 -260 -2 -101 -266 0
-237 -260 -2 101 266 0
-237 -260 2 -101 266 0
-237 -260 2 101 -266 0
-237 -260 -3 -102 -267 0
-237 -260 -3 102 267 0
-237 -260 3 -102 267 0
-237 -260 3 102 -267 0
-237 -260 -4 -103 -268 0
-237 -260 -4 103 268 0
-237 -260 4 -103 268 0
-237 -260 4 103 -268 0
-237 -260 -5 -104 -269 0
-237 -260 -5 104 269 0
-237 -260 5 -104 269 0
-237 -260 5 104 -269 0
-237 -260 -6 -105 -270 0
-237 -260 -6 105 270 0
-237 -260 6 -105 270 0
-237 -260 6 105 -270 0
-237 -260 -7 -106 -271 0
-237 -260 -7 106 271 0
-237 -260 7 -106 271 0
-237 -260 7 106 -271 0
-237 -260 -8 -107 -272 0
-237 -260 -8 107 272 0
-237 -260 8 -107 272 0
-237 -260 8 107 -272 0
-237 -260 -9 -108 -273 0
-237 -260 -9 108 273 0
-237 -260 9 -108 273 0
-237 -260 9 108 -273 0
-237 -261 -1 -129 -265 0
-237 -261 -1 129 265 0
-237 -261 1 -129 265 0
-237 -261 1 129 -265 0
-237 -261 -2 -130 -266 0
-237 -261 -2 130 266 0
-237 -261 2 -130 266 0
-237 -261 2 130 -266 0
-237 -261 -3 -131 -267 0
-237 -261 -3 131 267 0
-237 -261 3 -131 267 0
-237 -261 3 131 -267 0
-237 -261 -4 -132 -268 0
-237 -261 -4 132 268 0
-237 -261 4 -132 268 0
-237 -261 4 132 -268 0
-237 -261 -5 -133 -269 0
-237 -261 -5 133 269 0
-237 -261 5 -133 269 0
-237 -261 5 133 -269 0
-237 -261 -6 -134 -270 0
-237 -261 -6 134 270 0
-237 -261 6 -134 270 0
-237 -261 6 134 -270 0
-237 -261 -7 -135 -271 0
-237 -261 -7 135 271 0
-237 -261 7 -135 271 0
-237 -261 7 135 -271 0
-237 -261 -8 -136 -272 0
-237 -261 -8 136 272 0
-237 -261 8 -136 272 0
-237 -261 8 136 -272 0
-237 -261 -9 -137 -273 0
-237 -261 -9 137 273 0
-237 -261 9 -137 273 0
-237 -261 9 137 -273 0
-237 -262 -1 -160 -265 0
-237 -262 -1 160 265 0
-237 -262 1 -160 265 0
-237 -262 1 160 -265 0
-237 -262 -2 -161 -266 0
-237 -262 -2 161 266 0
-237 -262 2 -161 266 0
-237 -262 2 161 -266 0
-237 -262 -3 -162 -267 0
-237 -262 -3 162 267 0
-237 -262 3 -162 267 0
-237 -262 3 162 -267 0
-237 -262 -4 -163 -268 0
-237 -262 -4 163 268 0
-237 -262 4 -163 268 0
-237 -262 4 163 -268 0
-237 -262 -5 -164 -269 0
-237 -262 -5 164 269 0
-237 -262 5 -164 269 0
-237 -262 5 164 -269 0
-237 -262 -6 -165 -270 0
-237 -262 -6 165 270 0
-237 -262 6 -165 270 0
-237 -262 6 165 -270 0
-237 -262 -7 -166 -271 0
-237 -262 -7 166 271 0
-237 -262 7 -166 271 0
-237 -262 7 166 -271 0
-237 -262 -8 -167 -272 0
-237 -262 -8 167 272 0
-237 -262 8 -167 272 0
-237 -262 8 167 -272 0
-237 -262 -9 -168 -273 0
-237 -262 -9 168 273 0
-237 -262 9 -168 273 0
-237 -262 9 168 -273 0
-237 -263 -1 -193 -265 0
-237 -263 -1 193 265 0
-237 -263 1 -193 265 0
-237 -263 1 193 -265 0
-237 -263 -2 -194 -266 0
-237 -263 -2 194 266 0
-237 -263 2 -194 266 0
-237 -263 2 194 -266 0
-237 -263 -3 -195 -267 0
-237 -263 -3 195 267 0
-237 -263 3 -195 267 0
-237 -263 3 195 -267 0
-237 -263 -4 -196 -268 0
-237 -263 -4 196 268 0
-237 -263 4 -196 268 0
-237 -263 4 196 -268 0
-237 -263 -5 -197 -269 0
-237 -263 -5 197 269 0
-237 -263 5 -197 269 0
-237 -263 5 197 -269 0
-237 -263 -6 -198 -270 0
-237 -263 -6 198 270 0
-237 -263 6 -198 270 0
-237 -263 6 198 -270 0
-237 -263 -7 -199 -271 0
-237 -263 -7 199 271 0
-237 -263 7 -199 271 0
-237 -263 7 199 -271 0
-237 -263 -8 -200 -272 0
-237 -263 -8 200 272 0
-237 -263 8 -200 272 0
-237 -263 8 200 -272 0
-237 -263 -9 -201 -273 0
-237 -263 -9 201 273 0
-237 -263 9 -201 273 0
-237 -263 9 201 -273 0
-237 -264 -1 -228 -265 0
-237 -264 -1 228 265 0
-237 -264 1 -228 265 0
-237 -264 1 228 -265 0
-237 -264 -2 -229 -266 0
-237 -264 -2 229 266 0
-237 -264 2 -229 266 0
-237 -264 2 229 -266 0
-237 -264 -3 -230 -267 0
-237 -264 -3 230 267 0
-237 -264 3 -230 267 0
-237 -264 3 230 -267 0
-237 -264 -4 -231 -268 0
-237 -264 -4 231 268 0
-237 -264 4 -231 268 0
-237 -264 4 231 -268 0
-237 -264 -5 -232 -269 0
-237 -264 -5 232 269 0
-237 -264 5 -232 269 0
-237 -264 5 232 -269 0
-237 -264 -6 -233 -270 0
-237 -264 -6 233 270 0
-237 -264 6 -233 270 0
-237 -264 6 233 -270 0
-237 -264 -7 -234 -271 0
-237 -264 -7 234 271 0
-237 -264 7 -234 271 0
-237 -264 7 234 -271 0
-237 -264 -8 -235 -272 0
-237 -264 -8 235 272 0
-237 -264 8 -235 272 0
-237 -264 8 235 -272 0
-237 -264 -9 -236 -273 0
-237 -264 -9 236 273 0
-237 -264 9 -236 273 0
-237 -264 9 236 -273 0
-238 -253 -10 -19 -265 0
-238 -253 -10 19 265 0
-238 -253 10 -19 265 0
-238 -253 10 19 -265 0
-238 -253 -11 -20 -266 0
-238 -253 -11 20 266 0
-238 -253 11 -20 266 0
-238 -253 11 20 -266 0
-238 -253 -12 -21 -267 0
-238 -253 -12 21 267 0
-238 -253 12 -21 267 0
-238 -253 12 21 -267 0
-238 -253 -13 -22 -268 0
-238 -253 -13 22 268 0
-238 -253 13 -22 268 0
-238 -253 13 22 -268 0
-238 -253 -14 -23 -269 0
-238 -253 -14 23 269 0
-238 -253 14 -23 269 0
-238 -253 14 23 -269 0
-238 -253 -15 -24 -270 0
-238 -253 -15 24 270 0
-238 -253 15 -24 270 0
-238 -253 15 24 -270 0
-238 -253 -16 -25 -271 0
-238 -253 -16 25 271 0
-238 -253 16 -25 271 0
-238 -253 16 25 -271 0
-238 -253 -17 -26 -272 0
-238 -253 -17 26 272 0
-238 -253 17 -26 272 0
-238 -253 17 26 -272 0
-238 -253 -18 -27 -273 0
-238 -253 -18 27 273 0
-238 -253 18 -27 273 0
-238 -253 18 27 -273 0
-238 -254 -10 -28 -265 0
-238 -254 -10 28 265 0
-238 -254 10 -28 265 0
-238 -254 10 28 -265 0
-238 -254 -11 -29 -266 0
-238 -254 -11 29 266 0
-238 -254 11 -29 266 0
-238 -254 11 29 -266 0
-238 -254 -12 -30 -267 0
-238 -254 -12 30 267 0
-238 -254 12 -30 267 0
-238 -254 12 30 -267 0
-238 -254 -13 -31 -268 0
-238 -254 -13 31 268 0
-238 -254 13 -31 268 0
-238 -254 13 31 -268 0
-238 -254 -14 -32 -269 0
-238 -254 -14 32 269 0
-238 -254 14 -32 269 0
-238 -254 14 32 -269 0
-238 -254 -15 -33 -270 0
-238 -254 -15 33 270 0
-238 -254 15 -33 270 0
-238 -254 15 33 -270 0
-238 -254 -16 -34 -271 0
-238 -254 -16 34 271 0
-238 -254 16 -34 271 0
-238 -254 16 34 -271 0
-238 -254 -17 -35 -272 0
-238 -254 -17 35 272 0
-238 -254 17 -35 272 0
-238 -254 17 35 -272 0
-238 -254 -18 -36 -273 0
-238 -254 -18 36 273 0
-238 -254 18 -36 273 0
-238 -254 18 36 -273 0
-238 -255 -10 -37 -265 0
-238 -255 -10 37 265 0
-238 -255 10 -37 265 0
-238 -255 10 37 -265 0
-238 -255 -11 -38 -266 0
-238 -255 -11 38 266 0
-238 -255 11 -38 266 0
-238 -255 11 38 -266 0
-238 -255 -12 -39 -267 0
-238 -255 -12 39 267 0
-238 -255 12 -39 267 0
-238 -255 12 39 -267 0
-238 -255 -13 -40 -268 0
-238 -255 -13 40 268 0
-238 -255 13 -40 268 0
-238 -255 13 40 -268 0
-238 -255 -14 -41 -269 0
-238 -255 -14 41 269 0
-238 -255 14 -41 269 0
-238 -255 14 41 -269 0
-238 -255 -15 -42 -270 0
-238 -255 -15 42 270 0
-238 -255 15 -42 270 0
-238 -255 15 42 -270 0
-238 -255 -16 -43 -271 0
-238 -255 -16 43 271 0
-238 -255 16 -43 271 0
-238 -255 16 43 -271 0
-238 -255 -17 -44 -272 0
-238 -255 -17 44 272 0
-238 -255 17 -44 272 0
-238 -255 17 44 -272 0
-238 -255 -18 -45 -273 0
-238 -255 -18 45 273 0
-238 -255 18 -45 273 0
-238 -255 18 45 -273 0
-238 -256 -10 -46 -265 0
-238 -256 -10 46 265 0
-238 -256 10 -46 265 0
-238 -256 10 46 -265 0
-238 -256 -11 -47 -266 0
-238 -256 -11 47 266 0
-238 -256 11 -47 266 0
-238 -256 11 47 -266 0
-238 -256 -12 -48 -267 0
-238 -256 -12 48 267 0
-238 -256 12 -48 267 0
-238 -256 12 48 -267 0
-238 -256 -13 -49 -268 0
-238 -256 -13 49 268 0
-238 -256 13 -49 268 0
-238 -256 13 49 -268 0
-238 -256 -14 -50 -269 0
-238 -256 -14 50 269 0
-238 -256 14 -50 269 0
-238 -256 14 50 -269 0
-238 -256 -15 -51 -270 0
-238 -256 -15 51 270 0
-238 -256 15 -51 270 0
-238 -256 15 51 -270 0
-238 -256 -16 -52 -271 0
-238 -256 -16 52 271 0
-238 -256 16 -52 271 0
-238 -256 16 52 -271 0
-238 -256 -17 -53 -272 0
-238 -256 -17 53 272 0
-238 -256 17 -53 272 0
-238 -256 17 53 -272 0
-238 -256 -18 -54 -273 0
-238 -256 -18 54 273 0
-238 -256 18 -54 273 0
-238 -256 18 54 -273 0
-238 -257 -10 -55 -265 0
-238 -257 -10 55 265 0
-238 -257 10 -55 265 0
-238 -257 10 55 -265 0
-238 -257 -11 -56 -266 0
-238 -257 -11 56 266 0
-238 -257 11 -56 266 0
-238 -257 11 56 -266 0
-238 -257 -12 -57 -267 0
-238 -257 -12 57 267 0
-238 -257 12 -57 267 0
-238 -257 12 57 -267 0
-238 -257 -13 -58 -268 0
-238 -257 -13 58 268 0
-238 -257 13 -58 268 0
-238 -257 13 58 -268 0
-238 -257 -14 -59 -269 0
-238 -257 -14 59 269 0
-238 -257 14 -59 269 0
-238 -257 14 59 -269 0
-238 -257 -15 -60 -270 0
-238 -257 -15 60 270 0
-238 -257 15 -60 270 0
-238 -257 15 60 -270 0
-238 -257 -16 -61 -271 0
-238 -257 -16 61 271 0
-238 -257 16 -61 271 0
-238 -257 16 61 -271 0
-238 -257 -17 -62 -272 0
-238 -257 -17 62 272 0
-238 -257 17 -62 272 0
-238 -257 17 62 -272 0
-238 -257 -18 -63 -273 0
-238 -257 -18 63 273 0
-238 -257 18 -63 273 0
-238 -257 18 63 -273 0
-238 -258 -10 -64 -265 0
-238 -258 -10 64 265 0
-238 -258 10 -64 265 0
-238 -258 10 64 -265 0
-238 -258 -11 -65 -266 0
-238 -258 -11 65 266 0
-238 -258 11 -65 266 0
-238 -258 11 65 -266 0
-238 -258 -12 -66 -267 0
-238 -258 -12 66 267 0
-238 -258 12 -66 267 0
-238 -258 12 66 -267 0
-238 -258 -13 -67 -268 0
-238 -258 -13 67 268 0
-238 -258 13 -67 268 0
-238 -258 13 67 -268 0
-238 -258 -14 -68 -269 0
-238 -258 -14 68 269 0
-238 -258 14 -68 269 0
-238 -258 14 68 -269 0
-238 -258 -15 -69 -270 0
-238 -258 -15 69 270 0
-238 -258 15 -69 270 0
-238 -258 15 69 -270 0
-238 -258 -16 -70 -271 0
-238 -258 -16 70 271 0
-238 -258 16 -70 271 0
-238 -258 16 70 -271 0
-238 -258 -17 -71 -272 0
-238 -258 -17 71 272 0
-238 -258 17 -71 272 0
-238 -258 17 71 -272 0
-238 -258 -18 -72 -273 0
-238 -258 -18 72 273 0
-238 -258 18 -72 273 0
-238 -258 18 72 -273 0
-238 -259 -10 -73 -265 0
-238 -259 -10 73 265 0
-238 -259 10 -73 265 0
-238 -259 10 73 -265 0
-238 -259 -11 -74 -266 0
-238 -259 -11 74 266 0
-238 -259 11 -74 266 0
-238 -259 11 74 -266 0
-238 -259 -12 -75 -267 0
-238 -259 -12 75 267 0
-238 -259 12 -75 267 0
-238 -259 12 75 -267 0
-238 -259 -13 -76 -268 0
-238 -259 -13 76 268 0
-238 -259 13 -76 268 0
-238 -259 13 76 -268 0
-238 -259 -14 -77 -269 0
-238 -259 -14 77 269 0
-238 -259 14 -77 269 0
-238 -259 14 77 -269 0
-238 -259 -15 -78 -270 0
-238 -259 -15 78 270 0
-238 -259 15 -78 270 0
-238 -259 15 78 -270 0
-238 -259 -16 -79 -271 0
-238 -259 -16 79 271 0
-238 -259 16 -79 271 0
-238 -259 16 79 -271 0
-238 -259 -17 -80 -272 0
-238 -259 -17 80 272 0
-238 -259 17 -80 272 0
-238 -259 17 80 -272 0
-238 -259 -18 -81 -273 0
-238 -259 -18 81 273 0
-238 -259 18 -81 273 0
-238 -259 18 81 -273 0
-238 -260 -10 -100 -265 0
-238 -260 -10 100 265 0
-238 -260 10 -100 265 0
-238 -260 10 100 -265 0
-238 -260 -11 -101 -266 0
-238 -260 -11 101 266 0
-238 -260 11 -101 266 0
-238 -260 11 101 -266 0
-238 -260 -12 -102 -267 0
-238 -260 -12 102 267 0
-238 -260 12 -102 267 0
-238 -260 12 102 -267 0
-238 -260 -13 -103 -268 0
-238 -260 -13 103 268 0
-238 -260 13 -103 268 0
-238 -260 13 103 -268 0
-238 -260 -14 -104 -269 0
-238 -260 -14 104 269 0
-238 -260 14 -104 269 0
-238 -260 14 104 -269 0
-238 -260 -15 -105 -270 0
-238 -260 -15 105 270 0
-238 -260 15 -105 270 0
-238 -260 15 105 -270 0
-238 -260 -16 -106 -271 0
-238 -260 -16 106 271 0
-238 -260 16 -106 271 0
-238 -260 16 106 -271 0
-238 -260 -17 -107 -272 0
-238 -260 -17 107 272 0
-238 -260 17 -107 272 0
-238 -260 17 107 -272 0
-238 -260 -18 -108 -273 0
-238 -260 -18 108 273 0
-238 -260 18 -108 273 0
-238 -260 18 108 -273 0
-238 -261 -10 -129 -265 0
-238 -261 -10 129 265 0
-238 -261 10 -129 265 0
-238 -261 10 129 -265 0
-238 -261 -11 -130 -266 0
-238 -261 -11 130 266 0
-238 -261 11 -130 266 0
-238 -261 11 130 -266 0
-238 -261 -12 -131 -267 0
-238 -261 -12 131 267 0
-238 -261 12 -131 267 0
-238 -261 12 131 -267 0
-238 -261 -13 -132 -268 0
-238 -261 -13 132 268 0
-238 -261 13 -132 268 0
-238 -261 13 132 -268 0
-238 -261 -14 -133 -269 0
-238 -261 -14 133 269 0
-238 -261 14 -133 269 0
-238 -261 14 133 -269 0
-238 -261 -15 -134 -270 0
-238 -261 -15 134 270 0
-238 -261 15 -134 270 0
-238 -261 15 134 -270 0
-238 -261 -16 -135 -271 0
-238 -261 -16 135 271 0
-238 -261 16 -135 271 0
-238 -261 16 135 -271 0
-238 -261 -17 -136 -272 0
-238 -261 -17 136 272 0
-238 -261 17 -136 272 0
-238 -261 17 136 -272 0
-238 -261 -18 -137 -273 0
-238 -261 -18 137 273 0
-238 -261 18 -137 273 0
-238 -261 18 137 -273 0
-238 -262 -10 -160 -265 0
-238 -262 -10 160 265 0
-238 -262 10 -160 265 0
-238 -262 10 160 -265 0
-238 -262 -11 -161 -266 0
-238 -262 -11 161 266 0
-238 -262 11 -161 266 0
-238 -262 11 161 -266 0
-238 -262 -12 -162 -267 0
-238 -262 -12 162 267 0
-238 -262 12 -162 267 0
-238 -262 12 162 -267 0
-238 -262 -13 -163 -268 0
-238 -262 -13 163 268 0
-238 -262 13 -163 268 0
-238 -262 13 163 -268 0
-238 -262 -14 -164 -269 0
-238 -262 -14 164 269 0
-238 -262 14 -164 269 0
-238 -262 14 164 -269 0
-238 -262 -15 -165 -270 0
-238 -262 -15 165 270 0
-238 -262 15 -165 270 0
-238 -262 15 165 -270 0
-238 -262 -16 -166 -271 0
-238 -262 -16 166 271 0
-238 -262 16 -166 271 0
-238 -262 16 166 -271 0
-238 -262 -17 -167 -272 0
-238 -262 -17 167 272 0
-238 -262 17 -167 272 0
-238 -262 17 167 -272 0
-238 -262 -18 -168 -273 0
-238 -262 -18 168 273 0
-238 -262 18 -168 273 0
-238 -262 18 168 -273 0
-238 -263 -10 -193 -265 0
-238 -263 -10 193 265 0
-238 -263 10 -193 265 0
-238 -263 10 193 -265 0
-238 -263 -11 -194 -266 0
-238 -263 -11 194 266 0
-238 -263 11 -194 266 0
-238 -263 11 194 -266 0
-238 -263 -12 -195 -267 0
-238 -263 -12 195 267 0
-238 -263 12 -195 267 0
-238 -263 12 195 -267 0
-238 -263 -13 -196 -268 0
-238 -263 -13 196 268 0
-238 -263 13 -196 268 0
-238 -263 13 196 -268 0
-238 -263 -14 -197 -269 0
-238 -263 -14 197 269 0
-238 -263 14 -197 269 0
-238 -263 14 197 -269 0
-238 -263 -15 -198 -270 0
-238 -263 -15 198 270 0
-238 -263 15 -198 270 0
-238 -263 15 198 -270 0
-238 -263 -16 -199 -271 0
-238 -263 -16 199 271 0
-238 -263 16 -199 271 0
-238 -263 16 199 -271 0
-238 -263 -17 -200 -272 0
-238 -263 -17 200 272 0
-238 -263 17 -200 272 0
-238 -263 17 200 -272 0
-238 -263 -18 -201 -273 0
-238 -263 -18 201 273 0
-238 -263 18 -201 273 0
-238 -263 18 201 -273 0
-238 -264 -10 -228 -265 0
-238 -264 -10 228 265 0
-238 -264 10 -228 265 0
-238 -264 10 228 -265 0
-238 -264 -11 -229 -266 0
-238 -264 -11 229 266 0
-238 -264 11 -229 266 0
-238 -264 11 229 -266 0
-238 -264 -12 -230 -267 0
-238 -264 -12 230 267 0
-238 -264 12 -230 267 0
-238 -264 12 230 -267 0
-238 -264 -13 -231 -268 0
-238 -264 -13 231 268 0
-238 -264 13 -231 268 0
-238 -264 13 231 -268 0
-238 -264 -14 -232 -269 0
-238 -264 -14 232 269 0
-238 -264 14 -232 269 0
-238 -264 14 232 -269 0
-238 -264 -15 -233 -270 0
-238 -264 -15 233 270 0
-238 -264 15 -233 270 0
-238 -264 15 233 -270 0
-238 -264 -16 -234 -271 0
-238 -264 -16 234 271 0
-238 -264 16 -234 271 0
-238 -264 16 234 -271 0
-238 -264 -17 -235 -272 0
-238 -264 -17 235 272 0
-238 -264 17 -235 272 0
-238 -264 17 235 -272 0
-238 -264 -18 -236 -273 0
-238 -264 -18 236 273 0
-238 -264 18 -236 273 0
-238 -264 18 236 -273 0
-239 -254 -19 -28 -265 0
-239 -254 -19 28 265 0
-239 -254 19 -28 265 0
-239 -254 19 28 -265 0
-239 -254 -20 -29 -266 0
-239 -254 -20 29 266 0
-239 -254 20 -29 266 0
-239 -254 20 29 -266 0
-239 -254 -21 -30 -267 0
-239 -254 -21 30 267 0
-239 -254 21 -30 267 0
-239 -254 21 30 -267 0
-239 -254 -22 -31 -268 0
-239 -254 -22 31 268 0
-239 -254 22 -31 268 0
-239 -254 22 31 -268 0
-239 -254 -23 -32 -269 0
-239 -254 -23 32 269 0
-239 -254 23 -32 269 0
-239 -254 23 32 -269 0
-239 -254 -24 -33 -270 0
-239 -254 -24 33 270 0
-239 -254 24 -33 270 0
-239 -254 24 33 -270 0
-239 -254 -25 -34 -271 0
-239 -254 -25 34 271 0
-239 -254 25 -34 271 0
-239 -254 25 34 -271 0
-239 -254 -26 -35 -272 0
-239 -254 -26 35 272 0
-239 -254 26 -35 272 0
-239 -254 26 35 -272 0
-239 -254 -27 -36 -273 0
-239 -254 -27 36 273 0
-239 -254 27 -36 273 0
-239 -254 27 36 -273 0
-239 -255 -19 -37 -265 0
-239 -255 -19 37 265 0
-239 -255 19 -37 265 0
-239 -255 19 37 -265 0
-239 -255 -20 -38 -266 0
-239 -255 -20 38 266 0
-239 -255 20 -38 266 0
-239 -255 20 38 -266 0
-239 -255 -21 -39 -267 0
-239 -255 -21 39 267 0
-239 -255 21 -39 267 0
-239 -255 21 39 -267 0
-239 -255 -22 -40 -268 0
-239 -255 -22 40 268 0
-239 -255 22 -40 268 0
-239 -255 22 40 -268 0
-239 -255 -23 -41 -269 0
-239 -255 -23 41 269 0
-239 -255 23 -41 269 0
-239 -255 23 41 -269 0
-239 -255 -24 -42 -270 0
-239 -255 -24 42 270 0
-239 -255 24 -42 270 0
-239 -255 24 42 -270 0
-239 -255 -25 -43 -271 0
-239 -255 -25 43 271 0
-239 -255 25 -43 271 0
-239 -255 25 43 -271 0
-239 -255 -26 -44 -272 0
-239 -255 -26 44 272 0
-239 -255 26 -44 272 0
-239 -255 26 44 -272 0
-239 -255 -27 -45 -273 0
-239 -255 -27 45 273 0
-239 -255 27 -45 273 0
-239 -255 27 45 -273 0
-239 -256 -19 -46 -265 0
-239 -256 -19 46 265 0
-239 -256 19 -46 265 0
-239 -256 19 46 -265 0
-239 -256 -20 -47 -266 0
-239 -256 -20 47 266 0
-239 -256 20 -47 266 0
-239 -256 20 47 -266 0
-239 -256 -21 -48 -267 0
-239 -256 -21 48 267 0
-239 -256 21 -48 267 0
-239 -256 21 48 -267 0
-239 -256 -22 -49 -268 0
-239 -256 -22 49 268 0
-239 -256 22 -49 268 0
-239 -256 22 49 -268 0
-239 -256 -23 -50 -269 0
-239 -256 -23 50 269 0
-239 -256 23 -50 269 0
-239 -256 23 50 -269 0
-239 -256 -24 -51 -270 0
-239 -256 -24 51 270 0
-239 -256 24 -51 270 0
-239 -256 24 51 -270 0
-239 -256 -25 -52 -271 0
-239 -256 -25 52 271 0
-239 -256 25 -52 271 0
-239 -256 25 52 -271 0
-239 -256 -26 -53 -272 0
-239 -256 -26 53 272 0
-239 -256 26 -53 272 0
-239 -256 26 53 -272 0
-239 -256 -27 -54 -273 0
-239 -256 -27 54 273 0
-239 -256 27 -54 273 0
-239 -256 27 54 -273 0
-239 -257 -19 -55 -265 0
-239 -257 -19 55 265 0
-239 -257 19 -55 265 0
-239 -257 19 55 -265 0
-239 -257 -20 -56 -266 0
-239 -257 -20 56 266 0
-239 -257 20 -56 266 0
-239 -257 20 56 -266 0
-239 -257 -21 -57 -267 0
-239 -257 -21 57 267 0
-239 -257 21 -57 267 0
-239 -257 21 57 -267 0
-239 -257 -22 -58 -268 0
-239 -257 -22 58 268 0
-239 -257 22 -58 268 0
-239 -257 22 58 -268 0
-239 -257 -23 -59 -269 0
-239 -257 -23 59 269 0
-239 -257 23 -59 269 0
-239 -257 23 59 -269 0
-239 -257 -24 -60 -270 0
-239 -257 -24 60 270 0
-239 -257 24 -60 270 0
-239 -257 24 60 -270 0
-239 -257 -25 -61 -271 0
-239 -257 -25 61 271 0
-239 -257 25 -61 271 0
-239 -257 25 61 -271 0
-239 -257 -26 -62 -272 0
-239 -257 -26 62 272 0
-239 -257 26 -62 272 0
-239 -257 26 62 -272 0
-239 -257 -27 -63 -273 0
-239 -257 -27 63 273 0
-239 -257 27 -63 273 0
-239 -257 27 63 -273 0
-239 -258 -19 -64 -265 0
-239 -258 -19 64 265 0
-239 -258 19 -64 265 0
-239 -258 19 64 -265 0
-239 -258 -20 -65 -266 0
-239 -258 -20 65 266 0
-239 -258 20 -65 266 0
-239 -258 20 65 -266 0
-239 -258 -21 -66 -267 0
-239 -258 -21 66 267 0
-239 -258 21 -66 267 0
-239 -258 21 66 -267 0
-239 -258 -22 -67 -268 0
-239 -258 -22 67 268 0
-239 -258 22 -67 268 0
-239 -258 22 67 -268 0
-239 -258 -23 -68 -269 0
-239 -258 -23 68 269 0
-239 -258 23 -68 269 0
-239 -258 23 68 -269 0
-239 -258 -24 -69 -270 0
-239 -258 -24 69 270 0
-239 -258 24 -69 270 0
-239 -258 24 69 -270 0
-239 -258 -25 -70 -271 0
-239 -258 -25 70 271 0
-239 -258 25 -70 271 0
-239 -258 25 70 -271 0
-239 -258 -26 -71 -272 0
-239 -258 -26 71 272 0
-239 -258 26 -71 272 0
-239 -258 26 71 -272 0
-239 -258 -27 -72 -273 0
-239 -258 -27 72 273 0
-239 -258 27 -72 273 0
-239 -258 27 72 -273 0
-239 -259 -19 -73 -265 0
-239 -259 -19 73 265 0
-239 -259 19 -73 265 0
-239 -259 19 73 -265 0
-239 -259 -20 -74 -266 0
-239 -259 -20 74 266 0
-239 -259 20 -74 266 0
-239 -259 20 74 -266 0
-239 -259 -21 -75 -267 0
-239 -259 -21 75 267 0
-239 -259 21 -75 267 0
-239 -259 21 75 -267 0
-239 -259 -22 -76 -268 0
-239 -259 -22 76 268 0
-239 -259 22 -76 268 0
-239 -259 22 76 -268 0
-239 -259 -23 -77 -269 0
-239 -259 -23 77 269 0
-239 -259 23 -77 269 0
-239 -259 23 77 -269 0
-239 -259 -24 -78 -270 0
-239 -259 -24 78 270 0
-239 -259 24 -78 270 0
-239 -259 24 78 -270 0
-239 -259 -25 -79 -271 0
-239 -259 -25 79 271 0
-239 -259 25 -79 271 0
-239 -259 25 79 -271 0
-239 -259 -26 -80 -272 0
-239 -259 -26 80 272 0
-239 -259 26 -80 272 0
-239 -259 26 80 -272 0
-239 -259 -27 -81 -273 0
-239 -259 -27 81 273 0
-239 -259 27 -81 273 0
-239 -259 27 81 -273 0
-239 -260 -19 -100 -265 0
-239 -260 -19 100 265 0
-239 -260 19 -100 265 0
-239 -260 19 100 -265 0
-239 -260 -20 -101 -266 0
-239 -260 -20 101 266 0
-239 -260 20 -101 266 0
-239 -260 20 101 -266 0
-239 -260 -21 -102 -267 0
-239 -260 -21 102 267 0
-239 -260 21 -102 267 0
-239 -260 21 102 -267 0
-239 -260 -22 -103 -268 0
-239 -260 -22 103 268 0
-239 -260 22 -103 268 0
-239 -260 22 103 -268 0
-239 -260 -23 -104 -269 0
-239 -260 -23 104 269 0
-239 -260 23 -104 269 0
-239 -260 23 104 -269 0
-239 -260 -24 -105 -270 0
-239 -260 -24 105 270 0
-239 -260 24 -105 270 0
-239 -260 24 105 -270 0
-239 -260 -25 -106 -271 0
-239 -260 -25 106 271 0
-239 -260 25 -106 271 0
-239 -260 25 106 -271 0
-239 -260 -26 -107 -272 0
-239 -260 -26 107 272 0
-239 -260 26 -107 272 0
-239 -260 26 107 -272 0
-239 -260 -27 -108 -273 0
-239 -260 -27 108 273 0
-239 -260 27 -108 273 0
-239 -260 27 108 -273 0
-239 -261 -19 -129 -265 0
-239 -261 -19 129 265 0
-239 -261 19 -129 265 0
-239 -261 19 129 -265 0
-239 -261 -20 -130 -266 0
-239 -261 -20 130 266 0
-239 -261 20 -130 266 0
-239 -261 20 130 -266 0
-239 -261 -21 -131 -267 0
-239 -261 -21 131 267 0
-239 -261 21 -131 267 0
-239 -261 21 131 -267 0
-239 -261 -22 -132 -268 0
-239 -261 -22 132 268 0
-239 -261 22 -132 268 0
-239 -261 22 132 -268 0
-239 -261 -23 -133 -269 0
-239 -261 -23 133 269 0
-239 -261 23 -133 269 0
-239 -261 23 133 -269 0
-239 -261 -24 -134 -270 0
-239 -261 -24 134 270 0
-239 -261 24 -134 270 0
-239 -261 24 134 -270 0
-239 -261 -25 -135 -271 0
-239 -261 -25 135 271 0
-239 -261 25 -135 271 0
-239 -261 25 135 -271 0
-239 -261 -26 -136 -272 0
-239 -261 -26 136 272 0
-239 -261 26 -136 272 0
-239 -261 26 136 -272 0
-239 -261 -27 -137 -273 0
-239 -261 -27 137 273 0
-239 -261 27 -137 273 0
-239 -261 27 137 -273 0
-239 -262 -19 -160 -265 0
-239 -262 -19 160 265 0
-239 -262 19 -160 265 0
-239 -262 19 160 -265 0
-239 -262 -20 -161 -266 0
-239 -262 -20 161 266 0
-239 -262 20 -161 266 0
-239 -262 20 161 -266 0
-239 -262 -21 -162 -267 0
-239 -262 -21 162 267 0
-239 -262 21 -162 267 0
-239 -262 21 162 -267 0
-239 -262 -22 -163 -268 0
-239 -262 -22 163 268 0
-239 -262 22 -163 268 0
-239 -262 22 163 -268 0
-239 -262 -23 -164 -269 0
-239 -262 -23 164 269 0
-239 -262 23 -164 269 0
-239 -262 23 164 -269 0
-239 -262 -24 -165 -270 0
-239 -262 -24 165 270 0
-239 -262 24 -165 270 0
-239 -262 24 165 -270 0
-239 -262 -25 -166 -271 0
-239 -262 -25 166 271 0
-239 -262 25 -166 271 0
-239 -262 25 166 -271 0
-239 -262 -26 -167 -272 0
-239 -262 -26 167 272 0
-239 -262 26 -167 272 0
-239 -262 26 167 -272 0
-239 -262 -27 -168 -273 0
-239 -262 -27 168 273 0
-239 -262 27 -168 273 0
-239 -262 27 168 -273 0
-239 -263 -19 -193 -265 0
-239 -263 -19 193 265 0
-239 -263 19 -193 265 0
-239 -263 19 193 -265 0
-239 -263 -20 -194 -266 0
-239 -263 -20 194 266 0
-239 -263 20 -194 266 0
-239 -263 20 194 -266 0
-239 -263 -21 -195 -267 0
-239 -263 -21 195 267 0
-239 -263 21 -195 267 0
-239 -263 21 195 -267 0
-239 -263 -22 -196 -268 0
-239 -263 -22 196 268 0
-239 -263 22 -196 268 0
-239 -263 22 196 -268 0
-239 -263 -23 -197 -269 0
-239 -263 -23 197 269 0
-239 -263 23 -197 269 0
-239 -263 23 197 -269 0
-239 -263 -24 -198 -270 0
-239 -263 -24 198 270 0
-239 -263 24 -198 270 0
-239 -263 24 198 -270 0
-239 -263 -25 -199 -271 0
-239 -263 -25 199 271 0
-239 -263 25 -199 271 0
-239 -263 25 199 -271 0
-239 -263 -26 -200 -272 0
-239 -263 -26 200 272 0
-239 -263 26 -200 272 0
-239 -263 26 200 -272 0
-239 -263 -27 -201 -273 0
-239 -263 -27 201 273 0
-239 -263 27 -201 273 0
-239 -263 27 201 -273 0
-239 -264 -19 -228 -265 0
-239 -264 -19 228 265 0
-239 -264 19 -228 265 0
-239 -264 19 228 -265 0
-239 -264 -20 -229 -266 0
-239 -264 -20 229 266 0
-239 -264 20 -229 266 0
-239 -264 20 229 -266 0
-239 -264 -21 -230 -267 0
-239 -264 -21 230 267 0
-239 -264 21 -230 267 0
-239 -264 21 230 -267 0
-239 -264 -22 -231 -268 0
-239 -264 -22 231 268 0
-239 -264 22 -231 268 0
-239 -264 22 231 -268 0
-239 -264 -23 -232 -269 0
-239 -264 -23 232 269 0
-239 -264 23 -232 269 0
-239 -264 23 232 -269 0
-239 -264 -24 -233 -270 0
-239 -264 -24 233 270 0
-239 -264 24 -233 270 0
-239 -264 24 233 -270 0
-239 -264 -25 -234 -271 0
-239 -264 -25 234 271 0
-239 -264 25 -234 271 0
-239 -264 25 234 -271 0
-239 -264 -26 -235 -272 0
-239 -264 -26 235 272 0
-239 -264 26 -235 272 0
-239 -264 26 235 -272 0
-239 -264 -27 -236 -273 0
-239 -264 -27 236 273 0
-239 -264 27 -236 273 0
-239 -264 27 236 -273 0
-240 -255 -28 -37 -265 0
-240 -255 -28 37 265 0
-240 -255 28 -37 265 0
-240 -255 28 37 -265 0
-240 -255 -29 -38 -266 0
-240 -255 -29 38 266 0
-240 -255 29 -38 266 0
-240 -255 29 38 -266 0
-240 -255 -30 -39 -267 0
-240 -255 -30 39 267 0
-240 -255 30 -39 267 0
-240 -255 30 39 -267 0
-240 -255 -31 -40 -268 0
-240 -255 -31 40 268 0
-240 -255 31 -40 268 0
-240 -255 31 40 -268 0
-240 -255 -32 -41 -269 0
-240 -255 -32 41 269 0
-240 -255 32 -41 269 0
-240 -255 32 41 -269 0
-240 -255 -33 -42 -270 0
-240 -255 -33 42 270 0
-240 -255 33 -42 270 0
-240 -255 33 42 -270 0
-240 -255 -34 -43 -271 0
-240 -255 -34 43 271 0
-240 -255 34 -43 271 0
-240 -255 34 43 -271 0
-240 -255 -35 -44 -272 0
-240 -255 -35 44 272 0
-240 -255 35 -44 272 0
-240 -255 35 44 -272 0
-240 -255 -36 -45 -273 0
-240 -255 -36 45 273 0
-240 -255 36 -45 273 0
-240 -255 36 45 -273 0
-240 -256 -28 -46 -265 0
-240 -256 -28 46 265 0
-240 -256 28 -46 265 0
-240 -256 28 46 -265 0
-240 -256 -29 -47 -266 0
-240 -256 -29 47 266 0
-240 -256 29 -47 266 0
-240 -256 29 47 -266 0
-240 -256 -30 -48 -267 0
-240 -256 -30 48 267 0
-240 -256 30 -48 267 0
-240 -256 30 48 -267 0
-240 -256 -31 -49 -268 0
-240 -256 -31 49 268 0
-240 -256 31 -49 268 0
-240 -256 31 49 -268 0
-240 -256 -32 -50 -269 0
-240 -256 -32 50 269 0
-240 -256 32 -50 269 0
-240 -256 32 50 -269 0
-240 -256 -33 -51 -270 0
-240 -256 -33 51 270 0
-240 -256 33 -51 270 0
-240 -256 33 51 -270 0
-240 -256 -34 -52 -271 0
-240 -256 -34 52 271 0
-240 -256 34 -52 271 0
-240 -256 34 52 -271 0
-240 -256 -35 -53 -272 0
-240 -256 -35 53 272 0
-240 -256 35 -53 272 0
-240 -256 35 53 -272 0
-240 -256 -36 -54 -273 0
-240 -256 -36 54 273 0
-240 -256 36 -54 273 0
-240 -256 36 54 -273 0
-240 -257 -28 -55 -265 0
-240 -257 -28 55 265 0
-240 -257 28 -55 265 0
-240 -257 28 55 -265 0
-240 -257 -29 -56 -266 0
-240 -257 -29 56 266 0
-240 -257 29 -56 266 0
-240 -257 29 56 -266 0
-240 -257 -30 -57 -267 0
-240 -257 -30 57 267 0
-240 -257 30 -57 267 0
-240 -257 30 57 -267 0
-240 -257 -31 -58 -268 0
-240 -257 -31 58 268 0
-240 -257 31 -58 268 0
-240 -257 31 58 -268 0
-240 -257 -32 -59 -269 0
-240 -257 -32 59 269 0
-240 -257 32 -59 269 0
-240 -257 32 59 -269 0
-240 -257 -33 -60 -270 0
-240 -257 -33 60 270 0
-240 -257 33 -60 270 0
-240 -257 33 60 -270 0
-240 -257 -34 -61 -271 0
-240 -257 -34 61 271 0
-240 -257 34 -61 271 0
-240 -257 34 61 -271 0
-240 -257 -35 -62 -272 0
-240 -257 -35 62 272 0
-240 -257 35 -62 272 0
-240 -257 35 62 -272 0
-240 -257 -36 -63 -273 0
-240 -257 -36 63 273 0
-240 -257 36 -63 273 0
-240 -257 36 63 -273 0
-240 -258 -28 -64 -265 0
-240 -258 -28 64 265 0
-240 -258 28 -64 265 0
-240 -258 28 64 -265 0
-240 -258 -29 -65 -266 0
-240 -258 -29 65 266 0
-240 -258 29 -65 266 0
-240 -258 29 65 -266 0
-240 -258 -30 -66 -267 0
-240 -258 -30 66 267 0
-240 -258 30 -66 267 0
-240 -258 30 66 -267 0
-240 -258 -31 -67 -268 0
-240 -258 -31 67 268 0
-240 -258 31 -67 268 0
-240 -258 31 67 -268 0
-240 -258 -32 -68 -269 0
-240 -258 -32 68 269 0
-240 -258 32 -68 269 0
-240 -258 32 68 -269 0
-240 -258 -33 -69 -270 0
-240 -258 -33 69 270 0
-240 -258 33 -69 270 0
-240 -258 33 69 -270 0
-240 -258 -34 -70 -271 0
-240 -258 -34 70 271 0
-240 -258 34 -70 271 0
-240 -258 34 70 -271 0
-240 -258 -35 -71 -272 0
-240 -258 -35 71 272 0
-240 -258 35 -71 272 0
-240 -258 35 71 -272 0
-240 -258 -36 -72 -273 0
-240 -258 -36 72 273 0
-240 -258 36 -72 273 0
-240 -258 36 72 -273 0
-240 -259 -28 -73 -265 0
-240 -259 -28 73 265 0
-240 -259 28 -73 265 0
-240 -259 28 73 -265 0
-240 -259 -29 -74 -266 0
-240 -259 -29 74 266 0
-240 -259 29 -74 266 0
-240 -259 29 74 -266 0
-240 -259 -30 -75 -267 0
-240 -259 -30 75 267 0
-240 -259 30 -75 267 0
-240 -259 30 75 -267 0
-240 -259 -31 -76 -268 0
-240 -259 -31 76 268 0
-240 -259 31 -76 268 0
-240 -259 31 76 -268 0
-240 -259 -32 -77 -269 0
-240 -259 -32 77 269 0
-240 -259 32 -77 269 0
-240 -259 32 77 -269 0
-240 -259 -33 -78 -270 0
-240 -259 -33 78 270 0
-240 -259 33 -78 270 0
-240 -259 33 78 -270 0
-240 -259 -34 -79 -271 0
-240 -259 -34 79 271 0
-240 -259 34 -79 271 0
-240 -259 34 79 -271 0
-240 -259 -35 -80 -272 0
-240 -259 -35 80 272 0
-240 -259 35 -80 272 0
-240 -259 35 80 -272 0
-240 -259 -36 -81 -273 0
-240 -259 -36 81 273 0
-240 -259 36 -81 273 0
-240 -259 36 81 -273 0
-240 -260 -28 -100 -265 0
-240 -260 -28 100 265 0
-240 -260 28 -100 265 0
-240 -260 28 100 -265 0
-240 -260 -29 -101 -266 0
-240 -260 -29 101 266 0
-240 -260 29 -101 266 0
-240 -260 29 101 -266 0
-240 -260 -30 -102 -267 0
-240 -260 -30 102 267 0
-240 -260 30 -102 267 0
-240 -260 30 102 -267 0
-240 -260 -31 -103 -268 0
-240 -260 -31 103 268 0
-240 -260 31 -103 268 0
-240 -260 31 103 -268 0
-240 -260 -32 -104 -269 0
-240 -260 -32 104 269 0
-240 -260 32 -104 269 0
-240 -260 32 104 -269 0
-240 -260 -33 -105 -270 0
-240 -260 -33 105 270 0
-240 -260 33 -105 270 0
-240 -260 33 105 -270 0
-240 -260 -34 -106 -271 0
-240 -260 -34 106 271 0
-240 -260 34 -106 271 0
-240 -260 34 106 -271 0
-240 -260 -35 -107 -272 0
-240 -260 -35 107 272 0
-240 -260 35 -107 272 0
-240 -260 35 107 -272 0
-240 -260 -36 -108 -273 0
-240 -260 -36 108 273 0
-240 -260 36 -108 273 0
-240 -260 36 108 -273 0
-240 -261 -28 -129 -265 0
-240 -261 -28 129 265 0
-240 -261 28 -129 265 0
-240 -261 28 129 -265 0
-240 -261 -29 -130 -266 0
-240 -261 -29 130 266 0
-240 -261 29 -130 266 0
-240 -261 29 130 -266 0
-240 -261 -30 -131 -267 0
-240 -261 -30 131 267 0
-240 -261 30 -131 267 0
-240 -261 30 131 -267 0
-240 -261 -31 -132 -268 0
-240 -261 -31 132 268 0
-240 -261 31 -132 268 0
-240 -261 31 132 -268 0
-240 -261 -32 -133 -269 0
-240 -261 -32 133 269 0
-240 -261 32 -133 269 0
-240 -261 32 133 -269 0
-240 -261 -33 -134 -270 0
-240 -261 -33 134 270 0
-240 -261 33 -134 270 0
-240 -261 33 134 -270 0
-240 -261 -34 -135 -271 0
-240 -261 -34 135 271 0
-240 -261 34 -135 271 0
-240 -261 34 135 -271 0
-240 -261 -35 -136 -272 0
-240 -261 -35 136 272 0
-240 -261 35 -136 272 0
-240 -261 35 136 -272 0
-240 -261 -36 -137 -273 0
-240 -261 -36 137 273 0
-240 -261 36 -137 273 0
-240 -261 36 137 -273 0
-240 -262 -28 -160 -265 0
-240 -262 -28 160 265 0
-240 -262 28 -160 265 0
-240 -262 28 160 -265 0
-240 -262 -29 -161 -266 0
-240 -262 -29 161 266 0
-240 -262 29 -161 266 0
-240 -262 29 161 -266 0
-240 -262 -30 -162 -267 0
-240 -262 -30 162 267 0
-240 -262 30 -162 267 0
-240 -262 30 162 -267 0
-240 -262 -31 -163 -268 0
-240 -262 -31 163 268 0
-240 -262 31 -163 268 0
-240 -262 31 163 -268 0
-240 -262 -32 -164 -269 0
-240 -262 -32 164 269 0
-240 -262 32 -164 269 0
-240 -262 32 164 -269 0
-240 -262 -33 -165 -270 0
-240 -262 -33 165 270 0
-240 -262 33 -165 270 0
-240 -262 33 165 -270 0
-240 -262 -34 -166 -271 0
-240 -262 -34 166 271 0
-240 -262 34 -166 271 0
-240 -262 34 166 -271 0
-240 -262 -35 -167 -272 0
-240 -262 -35 167 272 0
-240 -262 35 -167 272 0
-240 -262 35 167 -272 0
-240 -262 -36 -168 -273 0
-240 -262 -36 168 273 0
-240 -262 36 -168 273 0
-240 -262 36 168 -273 0
-240 -263 -28 -193 -265 0
-240 -263 -28 193 265 0
-240 -263 28 -193 265 0
-240 -263 28 193 -265 0
-240 -263 -29 -194 -266 0
-240 -263 -29 194 266 0
-240 -263 29 -194 266 0
-240 -263 29 194 -266 0
-240 -263 -30 -195 -267 0
-240 -263 -30 195 267 0
-240 -263 30 -195 267 0
-240 -263 30 195 -267 0
-240 -263 -31 -196 -268 0
-240 -263 -31 196 268 0
-240 -263 31 -196 268 0
-240 -263 31 196 -268 0
-240 -263 -32 -197 -269 0
-240 -263 -32 197 269 0
-240 -263 32 -197 269 0
-240 -263 32 197 -269 0
-240 -263 -33 -198 -270 0
-240 -263 -33 198 270 0
-240 -263 33 -198 270 0
-240 -263 33 198 -270 0
-240 -263 -34 -199 -271 0
-240 -263 -34 199 271 0
-240 -263 34 -199 271 0
-240 -263 34 199 -271 0
-240 -263 -35 -200 -272 0
-240 -263 -35 200 272 0
-240 -263 35 -200 272 0
-240 -263 35 200 -272 0
-240 -263 -36 -201 -273 0
-240 -263 -36 201 273 0
-240 -263 36 -201 273 0
-240 -263 36 201 -273 0
-240 -264 -28 -228 -265 0
-240 -264 -28 228 265 0
-240 -264 28 -228 265 0
-240 -264 28 228 -265 0
-240 -264 -29 -229 -266 0
-240 -264 -29 229 266 0
-240 -264 29 -229 266 0
-240 -264 29 229 -266 0
-240 -264 -30 -230 -267 0
-240 -264 -30 230 267 0
-240 -264 30 -230 267 0
-240 -264 30 230 -267 0
-240 -264 -31 -231 -268 0
-240 -264 -31 231 268 0
-240 -264 31 -231 268 0
-240 -264 31 231 -268 0
-240 -264 -32 -232 -269 0
-240 -264 -32 232 269 0
-240 -264 32 -232 269 0
-240 -264 32 232 -269 0
-240 -264 -33 -233 -270 0
-240 -264 -33 233 270 0
-240 -264 33 -233 270 0
-240 -264 33 233 -270 0
-240 -264 -34 -234 -271 0
-240 -264 -34 234 271 0
-240 -264 34 -234 271 0
-240 -264 34 234 -271 0
-240 -264 -35 -235 -272 0
-240 -264 -35 235 272 0
-240 -264 35 -235 272 0
-240 -264 35 235 -272 0
-240 -264 -36 -236 -273 0
-240 -264 -36 236 273 0
-240 -264 36 -236 273 0
-240 -264 36 236 -273 0
-241 -256 -37 -46 -265 0
-241 -256 -37 46 265 0
-241 -256 37 -46 265 0
-241 -256 37 46 -265 0
-241 -256 -38 -47 -266 0
-241 -256 -38 47 266 0
-241 -256 38 -47 266 0
-241 -256 38 47 -266 0
-241 -256 -39 -48 -267 0
-241 -256 -39 48 267 0
-241 -256 39 -48 267 0
-241 -256 39 48 -267 0
-241 -256 -40 -49 -268 0
-241 -256 -40 49 268 0
-241 -256 40 -49 268 0
-241 -256 40 49 -268 0
-241 -256 -41 -50 -269 0
-241 -256 -41 50 269 0
-241 -256 41 -50 269 0
-241 -256 41 50 -269 0
-241 -256 -42 -51 -270 0
-241 -256 -42 51 270 0
-241 -256 42 -51 270 0
-241 -256 42 51 -270 0
-241 -256 -43 -52 -271 0
-241 -256 -43 52 271 0
-241 -256 43 -52 271 0
-241 -256 43 52 -271 0
-241 -256 -44 -53 -272 0
-241 -256 -44 53 272 0
-241 -256 44 -53 272 0
-241 -256 44 53 -272 0
-241 -256 -45 -54 -273 0
-241 -256 -45 54 273 0
-241 -256 45 -54 273 0
-241 -256 45 54 -273 0
-241 -257 -37 -55 -265 0
-241 -257 -37 55 265 0
-241 -257 37 -55 265 0
-241 -257 37 55 -265 0
-241 -257 -38 -56 -266 0
-241 -257 -38 56 266 0
-241 -257 38 -56 266 0
-241 -257 38 56 -266 0
-241 -257 -39 -57 -267 0
-241 -257 -39 57 267 0
-241 -257 39 -57 267 0
-241 -257 39 57 -267 0
-241 -257 -40 -58 -268 0
-241 -257 -40 58 268 0
-241 -257 40 -58 268 0
-241 -257 40 58 -268 0
-241 -257 -41 -59 -269 0
-241 -257 -41 59 269 0
-241 -257 41 -59 269 0
-241 -257 41 59 -269 0
-241 -257 -42 -60 -270 0
-241 -257 -42 60 270 0
-241 -257 42 -60 270 0
-241 -257 42 60 -270 0
-241 -257 -43 -61 -271 0
-241 -257 -43 61 271 0
-241 -257 43 -61 271 0
-241 -257 43 61 -271 0
-241 -257 -44 -62 -272 0
-241 -257 -44 62 272 0
-241 -257 44 -62 272 0
-241 -257 44 62 -272 0
-241 -257 -45 -63 -273 0
-241 -257 -45 63 273 0
-241 -257 45 -63 273 0
-241 -257 45 63 -273 0
-241 -258 -37 -64 -265 0
-241 -258 -37 64 265 0
-241 -258 37 -64 265 0
-241 -258 37 64 -265 0
-241 -258 -38 -65 -266 0
-241 -258 -38 65 266 0
-241 -258 38 -65 266 0
-241 -258 38 65 -266 0
-241 -258 -39 -66 -267 0
-241 -258 -39 66 267 0
-241 -258 39 -66 267 0
-241 -258 39 66 -267 0
-241 -258 -40 -67 -268 0
-241 -258 -40 67 268 0
-241 -258 40 -67 268 0
-241 -258 40 67 -268 0
-241 -258 -41 -68 -269 0
-241 -258 -41 68 269 0
-241 -258 41 -68 269 0
-241 -258 41 68 -269 0
-241 -258 -42 -69 -270 0
-241 -258 -42 69 270 0
-241 -258 42 -69 270 0
-241 -258 42 69 -270 0
-241 -258 -43 -70 -271 0
-241 -258 -43 70 271 0
-241 -258 43 -70 271 0
-241 -258 43 70 -271 0
-241 -258 -44 -71 -272 0
-241 -258 -44 71 272 0
-241 -258 44 -71 272 0
-241 -258 44 71 -272 0
-241 -258 -45 -72 -273 0
-241 -258 -45 72 273 0
-241 -258 45 -72 273 0
-241 -258 45 72 -273 0
-241 -259 -37 -73 -265 0
-241 -259 -37 73 265 0
-241 -259 37 -73 265 0
-241 -259 37 73 -265 0
-241 -259 -38 -74 -266 0
-241 -259 -38 74 266 0
-241 -259 38 -74 266 0
-241 -259 38 74 -266 0
-241 -259 -39 -75 -267 0
-241 -259 -39 75 267 0
-241 -259 39 -75 267 0
-241 -259 39 75 -267 0
-241 -259 -40 -76 -268 0
-241 -259 -40 76 268 0
-241 -259 40 -76 268 0
-241 -259 40 76 -268 0
-241 -259 -41 -77 -269 0
-241 -259 -41 77 269 0
-241 -259 41 -77 269 0
-241 -259 41 77 -269 0
-241 -259 -42 -78 -270 0
-241 -259 -42 78 270 0
-241 -259 42 -78 270 0
-241 -259 42 78 -270 0
-241 -259 -43 -79 -271 0
-241 -259 -43 79 271 0
-241 -259 43 -79 271 0
-241 -259 43 79 -271 0
-241 -259 -44 -80 -272 0
-241 -259 -44 80 272 0
-241 -259 44 -80 272 0
-241 -259 44 80 -272 0
-241 -259 -45 -81 -273 0
-241 -259 -45 81 273 0
-241 -259 45 -81 273 0
-241 -259 45 81 -273 0
-241 -260 -37 -100 -265 0
-241 -260 -37 100 265 0
-241 -260 37 -100 265 0
-241 -260 37 100 -265 0
-241 -260 -38 -101 -266 0
-241 -260 -38 101 266 0
-241 -260 38 -101 266 0
-241 -260 38 101 -266 0
-241 -260 -39 -102 -267 0
-241 -260 -39 102 267 0
-241 -260 39 -102 267 0
-241 -260 39 102 -267 0
-241 -260 -40 -103 -268 0
-241 -260 -40 103 268 0
-241 -260 40 -103 268 0
-241 -260 40 103 -268 0
-241 -260 -41 -104 -269 0
-241 -260 -41 104 269 0
-241 -260 41 -104 269 0
-241 -260 41 104 -269 0
-241 -260 -42 -105 -270 0
-241 -260 -42 105 270 0
-241 -260 42 -105 270 0
-241 -260 42 105 -270 0
-241 -260 -43 -106 -271 0
-241 -260 -43 106 271 0
-241 -260 43 -106 271 0
-241 -260 43 106 -271 0
-241 -260 -44 -107 -272 0
-241 -260 -44 107 272 0
-241 -260 44 -107 272 0
-241 -260 44 107 -272 0
-241 -260 -45 -108 -273 0
-241 -260 -45 108 273 0
-241 -260 45 -108 273 0
-241 -260 45 108 -273 0
-241 -261 -37 -129 -265 0
-241 -261 -37 129 265 0
-241 -261 37 -129 265 0
-241 -261 37 129 -265 0
-241 -261 -38 -130 -266 0
-241 -261 -38 130 266 0
-241 -261 38 -130 266 0
-241 -261 38 130 -266 0
-241 -261 -39 -131 -267 0
-241 -261 -39 131 267 0
-241 -261 39 -131 267 0
-241 -261 39 131 -267 0
-241 -261 -40 -132 -268 0
-241 -261 -40 132 268 0
-241 -261 40 -132 268 0
-241 -261 40 132 -268 0
-241 -261 -41 -133 -269 0
-241 -261 -41 133 269 0
-241 -261 41 -133 269 0
-241 -261 41 133 -269 0
-241 -261 -42 -134 -270 0
-241 -261 -42 134 270 0
-241 -261 42 -134 270 0
-241 -261 42 134 -270 0
-241 -261 -43 -135 -271 0
-241 -261 -43 135 271 0
-241 -261 43 -135 271 0
-241 -261 43 135 -271 0
-241 -261 -44 -136 -272 0
-241 -261 -44 136 272 0
-241 -261 44 -136 272 0
-241 -261 44 136 -272 0
-241 -261 -45 -137 -273 0
-241 -261 -45 137 273 0
-241 -261 45 -137 273 0
-241 -261 45 137 -273 0
-241 -262 -37 -160 -265 0
-241 -262 -37 160 265 0
-241 -262 37 -160 265 0
-241 -262 37 160 -265 0
-241 -262 -38 -161 -266 0
-241 -262 -38 161 266 0
-241 -262 38 -161 266 0
-241 -262 38 161 -266 0
-241 -262 -39 -162 -267 0
-241 -262 -39 162 267 0
-241 -262 39 -162 267 0
-241 -262 39 162 -267 0
-241 -262 -40 -163 -268 0
-241 -262 -40 163 268 0
-241 -262 40 -163 268 0
-241 -262 40 163 -268 0
-241 -262 -41 -164 -269 0
-241 -262 -41 164 269 0
-241 -262 41 -164 269 0
-241 -262 41 164 -269 0
-241 -262 -42 -165 -270 0
-241 -262 -42 165 270 0
-241 -262 42 -165 270 0
-241 -262 42 165 -270 0
-241 -262 -43 -166 -271 0
-241 -262 -43 166 271 0
-241 -262 43 -166 271 0
-241 -262 43 166 -271 0
-241 -262 -44 -167 -272 0
-241 -262 -44 167 272 0
-241 -262 44 -167 272 0
-241 -262 44 167 -272 0
-241 -262 -45 -168 -273 0
-241 -262 -45 168 273 0
-241 -262 45 -168 273 0
-241 -262 45 168 -273 0
-241 -263 -37 -193 -265 0
-241 -263 -37 193 265 0
-241 -263 37 -193 265 0
-241 -263 37 193 -265 0
-241 -263 -38 -194 -266 0
-241 -263 -38 194 266 0
-241 -263 38 -194 266 0
-241 -263 38 194 -266 0
-241 -263 -39 -195 -267 0
-241 -263 -39 195 267 0
-241 -263 39 -195 267 0
-241 -263 39 195 -267 0
-241 -263 -40 -196 -268 0
-241 -263 -40 196 268 0
-241 -263 40 -196 268 0
-241 -263 40 196 -268 0
-241 -263 -41 -197 -269 0
-241 -263 -41 197 269 0
-241 -263 41 -197 269 0
-241 -263 41 197 -269 0
-241 -263 -42 -198 -270 0
-241 -263 -42 198 270 0
-241 -263 42 -198 270 0
-241 -263 42 198 -270 0
-241 -263 -43 -199 -271 0
-241 -263 -43 199 271 0
-241 -263 43 -199 271 0
-241 -263 43 199 -271 0
-241 -263 -44 -200 -272 0
-241 -263 -44 200 272 0
-241 -263 44 -200 272 0
-241 -263 44 200 -272 0
-241 -263 -45 -201 -273 0
-241 -263 -45 201 273 0
-241 -263 45 -201 273 0
-241 -263 45 201 -273 0
-241 -264 -37 -228 -265 0
-241 -264 -37 228 265 0
-241 -264 37 -228 265 0
-241 -264 37 228 -265 0
-241 -264 -38 -229 -266 0
-241 -264 -38 229 266 0
-241 -264 38 -229 266 0
-241 -264 38 229 -266 0
-241 -264 -39 -230 -267 0
-241 -264 -39 230 267 0
-241 -264 39 -230 267 0
-241 -264 39 230 -267 0
-241 -264 -40 -231 -268 0
-241 -264 -40 231 268 0
-241 -264 40 -231 268 0
-241 -264 40 231 -268 0
-241 -264 -41 -232 -269 0
-241 -264 -41 232 269 0
-241 -264 41 -232 269 0
-241 -264 41 232 -269 0
-241 -264 -42 -233 -270 0
-241 -264 -42 233 270 0
-241 -264 42 -233 270 0
-241 -264 42 233 -270 0
-241 -264 -43 -234 -271 0
-241 -264 -43 234 271 0
-241 -264 43 -234 271 0
-241 -264 43 234 -271 0
-241 -264 -44 -235 -272 0
-241 -264 -44 235 272 0
-241 -264 44 -235 272 0
-241 -264 44 235 -272 0
-241 -264 -45 -236 -273 0
-241 -264 -45 236 273 0
-241 -264 45 -236 273 0
-241 -264 45 236 -273 0
-242 -257 -46 -55 -265 0
-242 -257 -46 55 265 0
-242 -257 46 -55 265 0
-242 -257 46 55 -265 0
-242 -257 -47 -56 -266 0
-242 -257 -47 56 266 0
-242 -257 47 -56 266 0
-242 -257 47 56 -266 0
-242 -257 -48 -57 -267 0
-242 -257 -48 57 267 0
-242 -257 48 -57 267 0
-242 -257 48 57 -267 0
-242 -257 -49 -58 -268 0
-242 -257 -49 58 268 0
-242 -257 49 -58 268 0
-242 -257 49 58 -268 0
-242 -257 -50 -59 -269 0
-242 -257 -50 59 269 0
-242 -257 50 -59 269 0
-242 -257 50 59 -269 0
-242 -257 -51 -60 -270 0
-242 -257 -51 60 270 0
-242 -257 51 -60 270 0
-242 -257 51 60 -270 0
-242 -257 -52 -61 -271 0
-242 -257 -52 61 271 0
-242 -257 52 -61 271 0
-242 -257 52 61 -271 0
-242 -257 -53 -62 -272 0
-242 -257 -53 62 272 0
-242 -257 53 -62 272 0
-242 -257 53 62 -272 0
-242 -257 -54 -63 -273 0
-242 -257 -54 63 273 0
-242 -257 54 -63 273 0
-242 -257 54 63 -273 0
-242 -258 -46 -64 -265 0
-242 -258 -46 64 265 0
-242 -258 46 -64 265 0
-242 -258 46 64 -265 0
-242 -258 -47 -65 -266 0
-242 -258 -47 65 266 0
-242 -258 47 -65 266 0
-242 -258 47 65 -266 0
-242 -258 -48 -66 -267 0
-242 -258 -48 66 267 0
-242 -258 48 -66 267 0
-242 -258 48 66 -267 0
-242 -258 -49 -67 -268 0
-242 -258 -49 67 268 0
-242 -258 49 -67 268 0
-242 -258 49 67 -268 0
-242 -258 -50 -68 -269 0
-242 -258 -50 68 269 0
-242 -258 50 -68 269 0
-242 -258 50 68 -269 0
-242 -258 -51 -69 -270 0
-242 -258 -51 69 270 0
-242 -258 51 -69 270 0
-242 -258 51 69 -270 0
-242 -258 -52 -70 -271 0
-242 -258 -52 70 271 0
-242 -258 52 -70 271 0
-242 -258 52 70 -271 0
-242 -258 -53 -71 -272 0
-242 -258 -53 71 272 0
-242 -258 53 -71 272 0
-242 -258 53 71 -272 0
-242 -258 -54 -72 -273 0
-242 -258 -54 72 273 0
-242 -258 54 -72 273 0
-242 -258 54 72 -273 0
-242 -259 -46 -73 -265 0
-242 -259 -46 73 265 0
-242 -259 46 -73 265 0
-242 -259 46 73 -265 0
-242 -259 -47 -74 -266 0
-242 -259 -47 74 266 0
-242 -259 47 -74 266 0
-242 -259 47 74 -266 0
-242 -259 -48 -75 -267 0
-242 -259 -48 75 267 0
-242 -259 48 -75 267 0
-242 -259 48 75 -267 0
-242 -259 -49 -76 -268 0
-242 -259 -49 76 268 0
-242 -259 49 -76 268 0
-242 -259 49 76 -268 0
-242 -259 -50 -77 -269 0
-242 -259 -50 77 269 0
-242 -259 50 -77 269 0
-242 -259 50 77 -269 0
-242 -259 -51 -78 -270 0
-242 -259 -51 78 270 0
-242 -259 51 -78 270 0
-242 -259 51 78 -270 0
-242 -259 -52 -79 -271 0
-242 -259 -52 79 271 0
-242 -259 52 -79 271 0
-242 -259 52 79 -271 0
-242 -259 -53 -80 -272 0
-242 -259 -53 80 272 0
-242 -259 53 -80 272 0
-242 -259 53 80 -272 0
-242 -259 -54 -81 -273 0
-242 -259 -54 81 273 0
-242 -259 54 -81 273 0
-242 -259 54 81 -273 0
-242 -260 -46 -100 -265 0
-242 -260 -46 100 265 0
-242 -260 46 -100 265 0
-242 -260 46 100 -265 0
-242 -260 -47 -101 -266 0
-242 -260 -47 101 266 0
-242 -260 47 -101 266 0
-242 -260 47 101 -266 0
-242 -260 -48 -102 -267 0
-242 -260 -48 102 267 0
-242 -260 48 -102 267 0
-242 -260 48 102 -267 0
-242 -260 -49 -103 -268 0
-242 -260 -49 103 268 0
-242 -260 49 -103 268 0
-242 -260 49 103 -268 0
-242 -260 -50 -104 -269 0
-242 -260 -50 104 269 0
-242 -260 50 -104 269 0
-242 -260 50 104 -269 0
-242 -260 -51 -105 -270 0
-242 -260 -51 105 270 0
-242 -260 51 -105 270 0
-242 -260 51 105 -270 0
-242 -260 -52 -106 -271 0
-242 -260 -52 106 271 0
-242 -260 52 -106 271 0
-242 -260 52 106 -271 0
-242 -260 -53 -107 -272 0
-242 -260 -53 107 272 0
-242 -260 53 -107 272 0
-242 -260 53 107 -272 0
-242 -260 -54 -108 -273 0
-242 -260 -54 108 273 0
-242 -260 54 -108 273 0
-242 -260 54 108 -273 0
-242 -261 -46 -129 -265 0
-242 -261 -46 129 265 0
-242 -261 46 -129 265 0
-242 -261 46 129 -265 0
-242 -261 -47 -130 -266 0
-242 -261 -47 130 266 0
-242 -261 47 -130 266 0
-242 -261 47 130 -266 0
-242 -261 -48 -131 -267 0
-242 -261 -48 131 267 0
-242 -261 48 -131 267 0
-242 -261 48 131 -267 0
-242 -261 -49 -132 -268 0
-242 -261 -49 132 268 0
-242 -261 49 -132 268 0
-242 -261 49 132 -268 0
-242 -261 -50 -133 -269 0
-242 -261 -50 133 269 0
-242 -261 50 -133 269 0
-242 -261 50 133 -269 0
-242 -261 -51 -134 -270 0
-242 -261 -51 134 270 0
-242 -261 51 -134 270 0
-242 -261 51 134 -270 0
-242 -261 -52 -135 -271 0
-242 -261 -52 135 271 0
-242 -261 52 -135 271 0
-242 -261 52 135 -271 0
-242 -261 -53 -136 -272 0
-242 -261 -53 136 272 0
-242 -261 53 -136 272 0
-242 -261 53 136 -272 0
-242 -261 -54 -137 -273 0
-242 -261 -54 137 273 0
-242 -261 54 -137 273 0
-242 -261 54 137 -273 0
-242 -262 -46 -160 -265 0
-242 -262 -46 160 265 0
-242 -262 46 -160 265 0
-242 -262 46 160 -265 0
-242 -262 -47 -161 -266 0
-242 -262 -47 161 266 0
-242 -262 47 -161 266 0
-242 -262 47 161 -266 0
-242 -262 -48 -162 -267 0
-242 -262 -48 162 267 0
-242 -262 48 -162 267 0
-242 -262 48 162 -267 0
-242 -262 -49 -163 -268 0
-242 -262 -49 163 268 0
-242 -262 49 -163 268 0
-242 -262 49 163 -268 0
-242 -262 -50 -164 -269 0
-242 -262 -50 164 269 0
-242 -262 50 -164 269 0
-242 -262 50 164 -269 0
-242 -262 -51 -165 -270 0
-242 -262 -51 165 270 0
-242 -262 51 -165 270 0
-242 -262 51 165 -270 0
-242 -262 -52 -166 -271 0
-242 -262 -52 166 271 0
-242 -262 52 -166 271 0
-242 -262 52 166 -271 0
-242 -262 -53 -167 -272 0
-242 -262 -53 167 272 0
-242 -262 53 -167 272 0
-242 -262 53 167 -272 0
-242 -262 -54 -168 -273 0
-242 -262 -54 168 273 0
-242 -262 54 -168 273 0
-242 -262 54 168 -273 0
-242 -263 -46 -193 -265 0
-242 -263 -46 193 265 0
-242 -263 46 -193 265 0
-242 -263 46 193 -265 0
-242 -263 -47 -194 -266 0
-242 -263 -47 194 266 0
-242 -263 47 -194 266 0
-242 -263 47 194 -266 0
-242 -263 -48 -195 -267 0
-242 -263 -48 195 267 0
-242 -263 48 -195 267 0
-242 -263 48 195 -267 0
-242 -263 -49 -196 -268 0
-242 -263 -49 196 268 0
-242 -263 49 -196 268 0
-242 -263 49 196 -268 0
-242 -263 -50 -197 -269 0
-242 -263 -50 197 269 0
-242 -263 50 -197 269 0
-242 -263 50 197 -269 0
-242 -263 -51 -198 -270 0
-242 -263 -51 198 270 0
-242 -263 51 -198 270 0
-242 -263 51 198 -270 0
-242 -263 -52 -199 -271 0
-242 -263 -52 199 271 0
-242 -263 52 -199 271 0
-242 -263 52 199 -271 0
-242 -263 -53 -200 -272 0
-242 -263 -53 200 272 0
-242 -263 53 -200 272 0
-242 -263 53 200 -272 0
-242 -263 -54 -201 -273 0
-242 -263 -54 201 273 0
-242 -263 54 -201 273 0
-242 -263 54 201 -273 0
-242 -264 -46 -228 -265 0
-242 -264 -46 228 265 0
-242 -264 46 -228 265 0
-242 -264 46 228 -265 0
-242 -264 -47 -229 -266 0
-242 -264 -47 229 266 0
-242 -264 47 -229 266 0
-242 -264 47 229 -266 0
-242 -264 -48 -230 -267 0
-242 -264 -48 230 267 0
-242 -264 48 -230 267 0
-242 -264 48 230 -267 0
-242 -264 -49 -231 -268 0
-242 -264 -49 231 268 0
-242 -264 49 -231 268 0
-242 -264 49 231 -268 0
-242 -264 -50 -232 -269 0
-242 -264 -50 232 269 0
-242 -264 50 -232 269 0
-242 -264 50 232 -269 0
-242 -264 -51 -233 -270 0
-242 -264 -51 233 270 0
-242 -264 51 -233 270 0
-242 -264 51 233 -270 0
-242 -264 -52 -234 -271 0
-242 -264 -52 234 271 0
-242 -264 52 -234 271 0
-242 -264 52 234 -271 0
-242 -264 -53 -235 -272 0
-242 -264 -53 235 272 0
-242 -264 53 -235 272 0
-242 -264 53 235 -272 0
-242 -264 -54 -236 -273 0
-242 -264 -54 236 273 0
-242 -264 54 -236 273 0
-242 -264 54 236 -273 0
-243 -258 -55 -64 -265 0
-243 -258 -55 64 265 0
-243 -258 55 -64 265 0
-243 -258 55 64 -265 0
-243 -258 -56 -65 -266 0
-243 -258 -56 65 266 0
-243 -258 56 -65 266 0
-243 -258 56 65 -266 0
-243 -258 -57 -66 -267 0
-243 -258 -57 66 267 0
-243 -258 57 -66 267 0
-243 -258 57 66 -267 0
-243 -258 -58 -67 -268 0
-243 -258 -58 67 268 0
-243 -258 58 -67 268 0
-243 -258 58 67 -268 0
-243 -258 -59 -68 -269 0
-243 -258 -59 68 269 0
-243 -258 59 -68 269 0
-243 -258 59 68 -269 0
-243 -258 -60 -69 -270 0
-243 -258 -60 69 270 0
-243 -258 60 -69 270 0
-243 -258 60 69 -270 0
-243 -258 -61 -70 -271 0
-243 -258 -61 70 271 0
-243 -258 61 -70 271 0
-243 -258 61 70 -271 0
-243 -258 -62 -71 -272 0
-243 -258 -62 71 272 0
-243 -258 62 -71 272 0
-243 -258 62 71 -272 0
-243 -258 -63 -72 -273 0
-243 -258 -63 72 273 0
-243 -258 63 -72 273 0
-243 -258 63 72 -273 0
-243 -259 -55 -73 -265 0
-243 -259 -55 73 265 0
-243 -259 55 -73 265 0
-243 -259 55 73 -265 0
-243 -259 -56 -74 -266 0
-243 -259 -56 74 266 0
-243 -259 56 -74 266 0
-243 -259 56 74 -266 0
-243 -259 -57 -75 -267 0
-243 -259 -57 75 267 0
-243 -259 57 -75 267 0
-243 -259 57 75 -267 0
-243 -259 -58 -76 -268 0
-243 -259 -58 76 268 0
-243 -259 58 -76 268 0
-243 -259 58 76 -268 0
-243 -259 -59 -77 -269 0
-243 -259 -59 77 269 0
-243 -259 59 -77 269 0
-243 -259 59 77 -269 0
-243 -259 -60 -78 -270 0
-243 -259 -60 78 270 0
-243 -259 60 -78 270 0
-243 -259 60 78 -270 0
-243 -259 -61 -79 -271 0
-243 -259 -61 79 271 0
-243 -259 61 -79 271 0
-243 -259 61 79 -271 0
-243 -259 -62 -80 -272 0
-243 -259 -62 80 272 0
-243 -259 62 -80 272 0
-243 -259 62 80 -272 0
-243 -259 -63 -81 -273 0
-243 -259 -63 81 273 0
-243 -259 63 -81 273 0
-243 -259 63 81 -273 0
-243 -260 -55 -100 -265 0
-243 -260 -55 100 265 0
-243 -260 55 -100 265 0
-243 -260 55 100 -265 0
-243 -260 -56 -101 -266 0
-243 -260 -56 101 266 0
-243 -260 56 -101 266 0
-243 -260 56 101 -266 0
-243 -260 -57 -102 -267 0
-243 -260 -57 102 267 0
-243 -260 57 -102 267 0
-243 -260 57 102 -267 0
-243 -260 -58 -103 -268 0
-243 -260 -58 103 268 0
-243 -260 58 -103 268 0
-243 -260 58 103 -268 0
-243 -260 -59 -104 -269 0
-243 -260 -59 104 269 0
-243 -260 59 -104 269 0
-243 -260 59 104 -269 0
-243 -260 -60 -105 -270 0
-243 -260 -60 105 270 0
-243 -260 60 -105 270 0
-243 -260 60 105 -270 0
-243 -260 -61 -106 -271 0
-243 -260 -61 106 271 0
-243 -260 61 -106 271 0
-243 -260 61 106 -271 0
-243 -260 -62 -107 -272 0
-243 -260 -62 107 272 0
-243 -260 62 -107 272 0
-243 -260 62 107 -272 0
-243 -260 -63 -108 -273 0
-243 -260 -63 108 273 0
-243 -260 63 -108 273 0
-243 -260 63 108 -273 0
-243 -261 -55 -129 -265 0
-243 -261 -55 129 265 0
-243 -261 55 -129 265 0
-243 -261 55 129 -265 0
-243 -261 -56 -130 -266 0
-243 -261 -56 130 266 0
-243 -261 56 -130 266 0
-243 -261 56 130 -266 0
-243 -261 -57 -131 -267 0
-243 -261 -57 131 267 0
-243 -261 57 -131 267 0
-243 -261 57 131 -267 0
-243 -261 -58 -132 -268 0
-243 -261 -58 132 268 0
-243 -261 58 -132 268 0
-243 -261 58 132 -268 0
-243 -261 -59 -133 -269 0
-243 -261 -59 133 269 0
-243 -261 59 -133 269 0
-243 -261 59 133 -269 0
-243 -261 -60 -134 -270 0
-243 -261 -60 134 270 0
-243 -261 60 -134 270 0
-243 -261 60 134 -270 0
-243 -261 -61 -135 -271 0
-243 -261 -61 135 271 0
-243 -261 61 -135 271 0
-243 -261 61 135 -271 0
-243 -261 -62 -136 -272 0
-243 -261 -62 136 272 0
-243 -261 62 -136 272 0
-243 -261 62 136 -272 0
-243 -261 -63 -137 -273 0
-243 -261 -63 137 273 0
-243 -261 63 -137 273 0
-243 -261 63 137 -273 0
-243 -262 -55 -160 -265 0
-243 -262 -55 160 265 0
-243 -262 55 -160 265 0
-243 -262 55 160 -265 0
-243 -262 -56 -161 -266 0
-243 -262 -56 161 266 0
-243 -262 56 -161 266 0
-243 -262 56 161 -266 0
-243 -262 -57 -162 -267 0
-243 -262 -57 162 267 0
-243 -262 57 -162 267 0
-243 -262 57 162 -267 0
-243 -262 -58 -163 -268 0
-243 -262 -58 163 268 0
-243 -262 58 -163 268 0
-243 -262 58 163 -268 0
-243 -262 -59 -164 -269 0
-243 -262 -59 164 269 0
-243 -262 59 -164 269 0
-243 -262 59 164 -269 0
-243 -262 -60 -165 -270 0
-243 -262 -60 165 270 0
-243 -262 60 -165 270 0
-243 -262 60 165 -270 0
-243 -262 -61 -166 -271 0
-243 -262 -61 166 271 0
-243 -262 61 -166 271 0
-243 -262 61 166 -271 0
-243 -262 -62 -167 -272 0
-243 -262 -62 167 272 0
-243 -262 62 -167 272 0
-243 -262 62 167 -272 0
-243 -262 -63 -168 -273 0
-243 -262 -63 168 273 0
-243 -262 63 -168 273 0
-243 -262 63 168 -273 0
-243 -263 -55 -193 -265 0
-243 -263 -55 193 265 0
-243 -263 55 -193 265 0
-243 -263 55 193 -265 0
-243 -263 -56 -194 -266 0
-243 -263 -56 194 266 0
-243 -263 56 -194 266 0
-243 -263 56 194 -266 0
-243 -263 -57 -195 -267 0
-243 -263 -57 195 267 0
-243 -263 57 -195 267 0
-243 -263 57 195 -267 0
-243 -263 -58 -196 -268 0
-243 -263 -58 196 268 0
-243 -263 58 -196 268 0
-243 -263 58 196 -268 0
-243 -263 -59 -197 -269 0
-243 -263 -59 197 269 0
-243 -263 59 -197 269 0
-243 -263 59 197 -269 0
-243 -263 -60 -198 -270 0
-243 -263 -60 198 270 0
-243 -263 60 -198 270 0
-243 -263 60 198 -270 0
-243 -263 -61 -199 -271 0
-243 -263 -61 199 271 0
-243 -263 61 -199 271 0
-243 -263 61 199 -271 0
-243 -263 -62 -200 -272 0
-243 -263 -62 200 272 0
-243 -263 62 -200 272 0
-243 -263 62 200 -272 0
-243 -263 -63 -201 -273 0
-243 -263 -63 201 273 0
-243 -263 63 -201 273 0
-243 -263 63 201 -273 0
-243 -264 -55 -228 -265 0
-243 -264 -55 228 265 0
-243 -264 55 -228 265 0
-243 -264 55 228 -265 0
-243 -264 -56 -229 -266 0
-243 -264 -56 229 266 0
-243 -264 56 -229 266 0
-243 -264 56 229 -266 0
-243 -264 -57 -230 -267 0
-243 -264 -57 230 267 0
-243 -264 57 -230 267 0
-243 -264 57 230 -267 0
-243 -264 -58 -231 -268 0
-243 -264 -58 231 268 0
-243 -264 58 -231 268 0
-243 -264 58 231 -268 0
-243 -264 -59 -232 -269 0
-243 -264 -59 232 269 0
-243 -264 59 -232 269 0
-243 -264 59 232 -269 0
-243 -264 -60 -233 -270 0
-243 -264 -60 233 270 0
-243 -264 60 -233 270 0
-243 -264 60 233 -270 0
-243 -264 -61 -234 -271 0
-243 -264 -61 234 271 0
-243 -264 61 -234 271 0
-243 -264 61 234 -271 0
-243 -264 -62 -235 -272 0
-243 -264 -62 235 272 0
-243 -264 62 -235 272 0
-243 -264 62 235 -272 0
-243 -264 -63 -236 -273 0
-243 -264 -63 236 273 0
-243 -264 63 -236 273 0
-243 -264 63 236 -273 0
-244 -259 -64 -73 -265 0
-244 -259 -64 73 265 0
-244 -259 64 -73 265 0
-244 -259 64 73 -265 0
-244 -259 -65 -74 -266 0
-244 -259 -65 74 266 0
-244 -259 65 -74 266 0
-244 -259 65 74 -266 0
-244 -259 -66 -75 -267 0
-244 -259 -66 75 267 0
-244 -259 66 -75 267 0
-244 -259 66 75 -267 0
-244 -259 -67 -76 -268 0
-244 -259 -67 76 268 0
-244 -259 67 -76 268 0
-244 -259 67 76 -268 0
-244 -259 -68 -77 -269 0
-244 -259 -68 77 269 0
-244 -259 68 -77 269 0
-244 -259 68 77 -269 0
-244 -259 -69 -78 -270 0
-244 -259 -69 78 270 0
-244 -259 69 -78 270 0
-244 -259 69 78 -270 0
-244 -259 -70 -79 -271 0
-244 -259 -70 79 271 0
-244 -259 70 -79 271 0
-244 -259 70 79 -271 0
-244 -259 -71 -80 -272 0
-244 -259 -71 80 272 0
-244 -259 71 -80 272 0
-244 -259 71 80 -272 0
-244 -259 -72 -81 -273 0
-244 -259 -72 81 273 0
-244 -259 72 -81 273 0
-244 -259 72 81 -273 0
-244 -260 -64 -100 -265 0
-244 -260 -64 100 265 0
-244 -260 64 -100 265 0
-244 -260 64 100 -265 0
-244 -260 -65 -101 -266 0
-244 -260 -65 101 266 0
-244 -260 65 -101 266 0
-244 -260 65 101 -266 0
-244 -260 -66 -102 -267 0
-244 -260 -66 102 267 0
-244 -260 66 -102 267 0
-244 -260 66 102 -267 0
-244 -260 -67 -103 -268 0
-244 -260 -67 103 268 0
-244 -260 67 -103 268 0
-244 -260 67 103 -268 0
-244 -260 -68 -104 -269 0
-244 -260 -68 104 269 0
-244 -260 68 -104 269 0
-244 -260 68 104 -269 0
-244 -260 -69 -105 -270 0
-244 -260 -69 105 270 0
-244 -260 69 -105 270 0
-244 -260 69 105 -270 0
-244 -260 -70 -106 -271 0
-244 -260 -70 106 271 0
-244 -260 70 -106 271 0
-244 -260 70 106 -271 0
-244 -260 -71 -107 -272 0
-244 -260 -71 107 272 0
-244 -260 71 -107 272 0
-244 -260 71 107 -272 0
-244 -260 -72 -108 -273 0
-244 -260 -72 108 273 0
-244 -260 72 -108 273 0
-244 -260 72 108 -273 0
-244 -261 -64 -129 -265 0
-244 -261 -64 129 265 0
-244 -261 64 -129 265 0
-244 -261 64 129 -265 0
-244 -261 -65 -130 -266 0
-244 -261 -65 130 266 0
-244 -261 65 -130 266 0
-244 -261 65 130 -266 0
-244 -261 -66 -131 -267 0
-244 -261 -66 131 267 0
-244 -261 66 -131 267 0
-244 -261 66 131 -267 0
-244 -261 -67 -132 -268 0
-244 -261 -67 132 268 0
-244 -261 67 -132 268 0
-244 -261 67 132 -268 0
-244 -261 -68 -133 -269 0
-244 -261 -68 133 269 0
-244 -261 68 -133 269 0
-244 -261 68 133 -269 0
-244 -261 -69 -134 -270 0
-244 -261 -69 134 270 0
-244 -261 69 -134 270 0
-244 -261 69 134 -270 0
-244 -261 -70 -135 -271 0
-244 -261 -70 135 271 0
-244 -261 70 -135 271 0
-244 -261 70 135 -271 0
-244 -261 -71 -136 -272 0
-244 -261 -71 136 272 0
-244 -261 71 -136 272 0
-244 -261 71 136 -272 0
-244 -261 -72 -137 -273 0
-244 -261 -72 137 273 0
-244 -261 72 -137 273 0
-244 -261 72 137 -273 0
-244 -262 -64 -160 -265 0
-244 -262 -64 160 265 0
-244 -262 64 -160 265 0
-244 -262 64 160 -265 0
-244 -262 -65 -161 -266 0
-244 -262 -65 161 266 0
-244 -262 65 -161 266 0
-244 -262 65 161 -266 0
-244 -262 -66 -162 -267 0
-244 -262 -66 162 267 0
-244 -262 66 -162 267 0
-244 -262 66 162 -267 0
-244 -262 -67 -163 -268 0
-244 -262 -67 163 268 0
-244 -262 67 -163 268 0
-244 -262 67 163 -268 0
-244 -262 -68 -164 -269 0
-244 -262 -68 164 269 0
-244 -262 68 -164 269 0
-244 -262 68 164 -269 0
-244 -262 -69 -165 -270 0
-244 -262 -69 165 270 0
-244 -262 69 -165 270 0
-244 -262 69 165 -270 0
-244 -262 -70 -166 -271 0
-244 -262 -70 166 271 0
-244 -262 70 -166 271 0
-244 -262 70 166 -271 0
-244 -262 -71 -167 -272 0
-244 -262 -71 167 272 0
-244 -262 71 -167 272 0
-244 -262 71 167 -272 0
-244 -262 -72 -168 -273 0
-244 -262 -72 168 273 0
-244 -262 72 -168 273 0
-244 -262 72 168 -273 0
-244 -263 -64 -193 -265 0
-244 -263 -64 193 265 0
-244 -263 64 -193 265 0
-244 -263 64 193 -265 0
-244 -263 -65 -194 -266 0
-244 -263 -65 194 266 0
-244 -263 65 -194 266 0
-244 -263 65 194 -266 0
-244 -263 -66 -195 -267 0
-244 -263 -66 195 267 0
-244 -263 66 -195 267 0
-244 -263 66 195 -267 0
-244 -263 -67 -196 -268 0
-244 -263 -67 196 268 0
-244 -263 67 -196 268 0
-244 -263 67 196 -268 0
-244 -263 -68 -197 -269 0
-244 -263 -68 197 269 0
-244 -263 68 -197 269 0
-244 -263 68 197 -269 0
-244 -263 -69 -198 -270 0
-244 -263 -69 198 270 0
-244 -263 69 -198 270 0
-244 -263 69 198 -270 0
-244 -263 -70 -199 -271 0
-244 -263 -70 199 271 0
-244 -263 70 -199 271 0
-244 -263 70 199 -271 0
-244 -263 -71 -200 -272 0
-244 -263 -71 200 272 0
-244 -263 71 -200 272 0
-244 -263 71 200 -272 0
-244 -263 -72 -201 -273 0
-244 -263 -72 201 273 0
-244 -263 72 -201 273 0
-244 -263 72 201 -273 0
-244 -264 -64 -228 -265 0
-244 -264 -64 228 265 0
-244 -264 64 -228 265 0
-244 -264 64 228 -265 0
-244 -264 -65 -229 -266 0
-244 -264 -65 229 266 0
-244 -264 65 -229 266 0
-244 -264 65 229 -266 0
-244 -264 -66 -230 -267 0
-244 -264 -66 230 267 0
-244 -264 66 -230 267 0
-244 -264 66 230 -267 0
-244 -264 -67 -231 -268 0
-244 -264 -67 231 268 0
-244 -264 67 -231 268 0
-244 -264 67 231 -268 0
-244 -264 -68 -232 -269 0
-244 -264 -68 232 269 0
-244 -264 68 -232 269 0
-244 -264 68 232 -269 0
-244 -264 -69 -233 -270 0
-244 -264 -69 233 270 0
-244 -264 69 -233 270 0
-244 -264 69 233 -270 0
-244 -264 -70 -234 -271 0
-244 -264 -70 234 271 0
-244 -264 70 -234 271 0
-244 -264 70 234 -271 0
-244 -264 -71 -235 -272 0
-244 -264 -71 235 272 0
-244 -264 71 -235 272 0
-244 -264 71 235 -272 0
-244 -264 -72 -236 -273 0
-244 -264 -72 236 273 0
-244 -264 72 -236 273 0
-244 -264 72 236 -273 0
-245 -260 -73 -100 -265 0
-245 -260 -73 100 265 0
-245 -260 73 -100 265 0
-245 -260 73 100 -265 0
-245 -260 -74 -101 -266 0
-245 -260 -74 101 266 0
-245 -260 74 -101 266 0
-245 -260 74 101 -266 0
-245 -260 -75 -102 -267 0
-245 -260 -75 102 267 0
-245 -260 75 -102 267 0
-245 -260 75 102 -267 0
-245 -260 -76 -103 -268 0
-245 -260 -76 103 268 0
-245 -260 76 -103 268 0
-245 -260 76 103 -268 0
-245 -260 -77 -104 -269 0
-245 -260 -77 104 269 0
-245 -260 77 -104 269 0
-245 -260 77 104 -269 0
-245 -260 -78 -105 -270 0
-245 -260 -78 105 270 0
-245 -260 78 -105 270 0
-245 -260 78 105 -270 0
-245 -260 -79 -106 -271 0
-245 -260 -79 106 271 0
-245 -260 79 -106 271 0
-245 -260 79 106 -271 0
-245 -260 -80 -107 -272 0
-245 -260 -80 107 272 0
-245 -260 80 -107 272 0
-245 -260 80 107 -272 0
-245 -260 -81 -108 -273 0
-245 -260 -81 108 273 0
-245 -260 81 -108 273 0
-245 -260 81 108 -273 0
-245 -261 -73 -129 -265 0
-245 -261 -73 129 265 0
-245 -261 73 -129 265 0
-245 -261 73 129 -265 0
-245 -261 -74 -130 -266 0
-245 -261 -74 130 266 0
-245 -261 74 -130 266 0
-245 -261 74 130 -266 0
-245 -261 -75 -131 -267 0
-245 -261 -75 131 267 0
-245 -261 75 -131 267 0
-245 -261 75 131 -267 0
-245 -261 -76 -132 -268 0
-245 -261 -76 132 268 0
-245 -261 76 -132 268 0
-245 -261 76 132 -268 0
-245 -261 -77 -133 -269 0
-245 -261 -77 133 269 0
-245 -261 77 -133 269 0
-245 -261 77 133 -269 0
-245 -261 -78 -134 -270 0
-245 -261 -78 134 270 0
-245 -261 78 -134 270 0
-245 -261 78 134 -270 0
-245 -261 -79 -135 -271 0
-245 -261 -79 135 271 0
-245 -261 79 -135 271 0
-245 -261 79 135 -271 0
-245 -261 -80 -136 -272 0
-245 -261 -80 136 272 0
-245 -261 80 -136 272 0
-245 -261 80 136 -272 0
-245 -261 -81 -137 -273 0
-245 -261 -81 137 273 0
-245 -261 81 -137 273 0
-245 -261 81 137 -273 0
-245 -262 -73 -160 -265 0
-245 -262 -73 160 265 0
-245 -262 73 -160 265 0
-245 -262 73 160 -265 0
-245 -262 -74 -161 -266 0
-245 -262 -74 161 266 0
-245 -262 74 -161 266 0
-245 -262 74 161 -266 0
-245 -262 -75 -162 -267 0
-245 -262 -75 162 267 0
-245 -262 75 -162 267 0
-245 -262 75 162 -267 0
-245 -262 -76 -163 -268 0
-245 -262 -76 163 268 0
-245 -262 76 -163 268 0
-245 -262 76 163 -268 0
-245 -262 -77 -164 -269 0
-245 -262 -77 164 269 0
-245 -262 77 -164 269 0
-245 -262 77 164 -269 0
-245 -262 -78 -165 -270 0
-245 -262 -78 165 270 0
-245 -262 78 -165 270 0
-245 -262 78 165 -270 0
-245 -262 -79 -166 -271 0
-245 -262 -79 166 271 0
-245 -262 79 -166 271 0
-245 -262 79 166 -271 0
-245 -262 -80 -167 -272 0
-245 -262 -80 167 272 0
-245 -262 80 -167 272 0
-245 -262 80 167 -272 0
-245 -262 -81 -168 -273 0
-245 -262 -81 168 273 0
-245 -262 81 -168 273 0
-245 -262 81 168 -273 0
-245 -263 -73 -193 -265 0
-245 -263 -73 193 265 0
-245 -263 73 -193 265 0
-245 -263 73 193 -265 0
-245 -263 -74 -194 -266 0
-245 -263 -74 194 266 0
-245 -263 74 -194 266 0
-245 -263 74 194 -266 0
-245 -263 -75 -195 -267 0
-245 -263 -75 195 267 0
-245 -263 75 -195 267 0
-245 -263 75 195 -267 0
-245 -263 -76 -196 -268 0
-245 -263 -76 196 268 0
-245 -263 76 -196 268 0
-245 -263 76 196 -268 0
-245 -263 -77 -197 -269 0
-245 -263 -77 197 269 0
-245 -263 77 -197 269 0
-245 -263 77 197 -269 0
-245 -263 -78 -198 -270 0
-245 -263 -78 198 270 0
-245 -263 78 -198 270 0
-245 -263 78 198 -270 0
-245 -263 -79 -199 -271 0
-245 -263 -79 199 271 0
-245 -263 79 -199 271 0
-245 -263 79 199 -271 0
-245 -263 -80 -200 -272 0
-245 -263 -80 200 272 0
-245 -263 80 -200 272 0
-245 -263 80 200 -272 0
-245 -263 -81 -201 -273 0
-245 -263 -81 201 273 0
-245 -263 81 -201 273 0
-245 -263 81 201 -273 0
-245 -264 -73 -228 -265 0
-245 -264 -73 228 265 0
-245 -264 73 -228 265 0
-245 -264 73 228 -265 0
-245 -264 -74 -229 -266 0
-245 -264 -74 229 266 0
-245 -264 74 -229 266 0
-245 -264 74 229 -266 0
-245 -264 -75 -230 -267 0
-245 -264 -75 230 267 0
-245 -264 75 -230 267 0
-245 -264 75 230 -267 0
-245 -264 -76 -231 -268 0
-245 -264 -76 231 268 0
-245 -264 76 -231 268 0
-245 -264 76 231 -268 0
-245 -264 -77 -232 -269 0
-245 -264 -77 232 269 0
-245 -264 77 -232 269 0
-245 -264 77 232 -269 0
-245 -264 -78 -233 -270 0
-245 -264 -78 233 270 0
-245 -264 78 -233 270 0
-245 -264 78 233 -270 0
-245 -264 -79 -234 -271 0
-245 -264 -79 234 271 0
-245 -264 79 -234 271 0
-245 -264 79 234 -271 0
-245 -264 -80 -235 -272 0
-245 -264 -80 235 272 0
-245 -264 80 -235 272 0
-245 -264 80 235 -272 0
-245 -264 -81 -236 -273 0
-245 -264 -81 236 273 0
-245 -264 81 -236 273 0
-245 -264 81 236 -273 0
-246 -261 -100 -129 -265 0
-246 -261 -100 129 265 0
-246 -261 100 -129 265 0
-246 -261 100 129 -265 0
-246 -261 -101 -130 -266 0
-246 -261 -101 130 266 0
-246 -261 101 -130 266 0
-246 -261 101 130 -266 0
-246 -261 -102 -131 -267 0
-246 -261 -102 131 267 0
-246 -261 102 -131 267 0
-246 -261 102 131 -267 0
-246 -261 -103 -132 -268 0
-246 -261 -103 132 268 0
-246 -261 103 -132 268 0
-246 -261 103 132 -268 0
-246 -261 -104 -133 -269 0
-246 -261 -104 133 269 0
-246 -261 104 -133 269 0
-246 -261 104 133 -269 0
-246 -261 -105 -134 -270 0
-246 -261 -105 134 270 0
-246 -261 105 -134 270 0
-246 -261 105 134 -270 0
-246 -261 -106 -135 -271 0
-246 -261 -106 135 271 0
-246 -261 106 -135 271 0
-246 -261 106 135 -271 0
-246 -261 -107 -136 -272 0
-246 -261 -107 136 272 0
-246 -261 107 -136 272 0
-246 -261 107 136 -272 0
-246 -261 -108 -137 -273 0
-246 -261 -108 137 273 0
-246 -261 108 -137 273 0
-246 -261 108 137 -273 0
-246 -262 -100 -160 -265 0
-246 -262 -100 160 265 0
-246 -262 100 -160 265 0
-246 -262 100 160 -265 0
-246 -262 -101 -161 -266 0
-246 -262 -101 161 266 0
-246 -262 101 -161 266 0
-246 -262 101 161 -266 0
-246 -262 -102 -162 -267 0
-246 -262 -102 162 267 0
-246 -262 102 -162 267 0
-246 -262 102 162 -267 0
-246 -262 -103 -163 -268 0
-246 -262 -103 163 268 0
-246 -262 103 -163 268 0
-246 -262 103 163 -268 0
-246 -262 -104 -164 -269 0
-246 -262 -104 164 269 0
-246 -262 104 -164 269 0
-246 -262 104 164 -269 0
-246 -262 -105 -165 -270 0
-246 -262 -105 165 270 0
-246 -262 105 -165 270 0
-246 -262 105 165 -270 0
-246 -262 -106 -166 -271 0
-246 -262 -106 166 271 0
-246 -262 106 -166 271 0
-246 -262 106 166 -271 0
-246 -262 -107 -167 -272 0
-246 -262 -107 167 272 0
-246 -262 107 -167 272 0
-246 -262 107 167 -272 0
-246 -262 -108 -168 -273 0
-246 -262 -108 168 273 0
-246 -262 108 -168 273 0
-246 -262 108 168 -273 0
-246 -263 -100 -193 -265 0
-246 -263 -100 193 265 0
-246 -263 100 -193 265 0
-246 -263 100 193 -265 0
-246 -263 -101 -194 -266 0
-246 -263 -101 194 266 0
-246 -263 101 -194 266 0
-246 -263 101 194 -266 0
-246 -263 -102 -195 -267 0
-246 -263 -102 195 267 0
-246 -263 102 -195 267 0
-246 -263 102 195 -267 0
-246 -263 -103 -196 -268 0
-246 -263 -103 196 268 0
-246 -263 103 -196 268 0
-246 -263 103 196 -268 0
-246 -263 -104 -197 -269 0
-246 -263 -104 197 269 0
-246 -263 104 -197 269 0
-246 -263 104 197 -269 0
-246 -263 -105 -198 -270 0
-246 -263 -105 198 270 0
-246 -263 105 -198 270 0
-246 -263 105 198 -270 0
-246 -263 -106 -199 -271 0
-246 -263 -106 199 271 0
-246 -263 106 -199 271 0
-246 -263 106 199 -271 0
-246 -263 -107 -200 -272 0
-246 -263 -107 200 272 0
-246 -263 107 -200 272 0
-246 -263 107 200 -272 0
-246 -263 -108 -201 -273 0
-246 -263 -108 201 273 0
-246 -263 108 -201 273 0
-246 -263 108 201 -273 0
-246 -264 -100 -228 -265 0
-246 -264 -100 228 265 0
-246 -264 100 -228 265 0
-246 -264 100 228 -265 0
-246 -264 -101 -229 -266 0
-246 -264 -101 229 266 0
-246 -264 101 -229 266 0
-246 -264 101 229 -266 0
-246 -264 -102 -230 -267 0
-246 -264 -102 230 267 0
-246 -264 102 -230 267 0
-246 -264 102 230 -267 0
-246 -264 -103 -231 -268 0
-246 -264 -103 231 268 0
-246 -264 103 -231 268 0
-246 -264 103 231 -268 0
-246 -264 -104 -232 -269 0
-246 -264 -104 232 269 0
-246 -264 104 -232 269 0
-246 -264 104 232 -269 0
-246 -264 -105 -233 -270 0
-246 -264 -105 233 270 0
-246 -264 105 -233 270 0
-246 -264 105 233 -270 0
-246 -264 -106 -234 -271 0
-246 -264 -106 234 271 0
-246 -264 106 -234 271 0
-246 -264 106 234 -271 0
-246 -264 -107 -235 -272 0
-246 -264 -107 235 272 0
-246 -264 107 -235 272 0
-246 -264 107 235 -272 0
-246 -264 -108 -236 -273 0
-246 -264 -108 236 273 0
-246 -264 108 -236 273 0
-246 -264 108 236 -273 0
-247 -262 -129 -160 -265 0
-247 -262 -129 160 265 0
-247 -262 129 -160 265 0
-247 -262 129 160 -265 0
-247 -262 -130 -161 -266 0
-247 -262 -130 161 266 0
-247 -262 130 -161 266 0
-247 -262 130 161 -266 0
-247 -262 -131 -162 -267 0
-247 -262 -131 162 267 0
-247 -262 131 -162 267 0
-247 -262 131 162 -267 0
-247 -262 -132 -163 -268 0
-247 -262 -132 163 268 0
-247 -262 132 -163 268 0
-247 -262 132 163 -268 0
-247 -262 -133 -164 -269 0
-247 -262 -133 164 269 0
-247 -262 133 -164 269 0
-247 -262 133 164 -269 0
-247 -262 -134 -165 -270 0
-247 -262 -134 165 270 0
-247 -262 134 -165 270 0
-247 -262 134 165 -270 0
-247 -262 -135 -166 -271 0
-247 -262 -135 166 271 0
-247 -262 135 -166 271 0
-247 -262 135 166 -271 0
-247 -262 -136 -167 -272 0
-247 -262 -136 167 272 0
-247 -262 136 -167 272 0
-247 -262 136 167 -272 0
-247 -262 -137 -168 -273 0
-247 -262 -137 168 273 0
-247 -262 137 -168 273 0
-247 -262 137 168 -273 0
-247 -263 -129 -193 -265 0
-247 -263 -129 193 265 0
-247 -263 129 -193 265 0
-247 -263 129 193 -265 0
-247 -263 -130 -194 -266 0
-247 -263 -130 194 266 0
-247 -263 130 -194 266 0
-247 -263 130 194 -266 0
-247 -263 -131 -195 -267 0
-247 -263 -131 195 267 0
-247 -263 131 -195 267 0
-247 -263 131 195 -267 0
-247 -263 -132 -196 -268 0
-247 -263 -132 196 268 0
-247 -263 132 -196 268 0
-247 -263 132 196 -268 0
-247 -263 -133 -197 -269 0
-247 -263 -133 197 269 0
-247 -263 133 -197 269 0
-247 -263 133 197 -269 0
-247 -263 -134 -198 -270 0
-247 -263 -134 198 270 0
-247 -263 134 -198 270 0
-247 -263 134 198 -270 0
-247 -263 -135 -199 -271 0
-247 -263 -135 199 271 0
-247 -263 135 -199 271 0
-247 -263 135 199 -271 0
-247 -263 -136 -200 -272 0
-247 -263 -136 200 272 0
-247 -263 136 -200 272 0
-247 -263 136 200 -272 0
-247 -263 -137 -201 -273 0
-247 -263 -137 201 273 0
-247 -263 137 -201 273 0
-247 -263 137 201 -273 0
-247 -264 -129 -228 -265 0
-247 -264 -129 228 265 0
-247 -264 129 -228 265 0
-247 -264 129 228 -265 0
-247 -264 -130 -229 -266 0
-247 -264 -130 229 266 0
-247 -264 130 -229 266 0
-247 -264 130 229 -266 0
-247 -264 -131 -230 -267 0
-247 -264 -131 230 267 0
-247 -264 131 -230 267 0
-247 -264 131 230 -267 0
-247 -264 -132 -231 -268 0
-247 -264 -132 231 268 0
-247 -264 132 -231 268 0
-247 -264 132 231 -268 0
-247 -264 -133 -232 -269 0
-247 -264 -133 232 269 0
-247 -264 133 -232 269 0
-247 -264 133 232 -269 0
-247 -264 -134 -233 -270 0
-247 -264 -134 233 270 0
-247 -264 134 -233 270 0
-247 -264 134 233 -270 0
-247 -264 -135 -234 -271 0
-247 -264 -135 234 271 0
-247 -264 135 -234 271 0
-247 -264 135 234 -271 0
-247 -264 -136 -235 -272 0
-247 -264 -136 235 272 0
-247 -264 136 -235 272 0
-247 -264 136 235 -272 0
-247 -264 -137 -236 -273 0
-247 -264 -137 236 273 0
-247 -264 137 -236 273 0
-247 -264 137 236 -273 0
-248 -263 -160 -193 -265 0
-248 -263 -160 193 265 0
-248 -263 160 -193 265 0
-248 -263 160 193 -265 0
-248 -263 -161 -194 -266 0
-248 -263 -161 194 266 0
-248 -263 161 -194 266 0
-248 -263 161 194 -266 0
-248 -263 -162 -195 -267 0
-248 -263 -162 195 267 0
-248 -263 162 -195 267 0
-248 -263 162 195 -267 0
-248 -263 -163 -196 -268 0
-248 -263 -163 196 268 0
-248 -263 163 -196 268 0
-248 -263 163 196 -268 0
-248 -263 -164 -197 -269 0
-248 -263 -164 197 269 0
-248 -263 164 -197 269 0
-248 -263 164 197 -269 0
-248 -263 -165 -198 -270 0
-248 -263 -165 198 270 0
-248 -263 165 -198 270 0
-248 -263 165 198 -270 0
-248 -263 -166 -199 -271 0
-248 -263 -166 199 271 0
-248 -263 166 -199 271 0
-248 -263 166 199 -271 0
-248 -263 -167 -200 -272 0
-248 -263 -167 200 272 0
-248 -263 167 -200 272 0
-248 -263 167 200 -272 0
-248 -263 -168 -201 -273 0
-248 -263 -168 201 273 0
-248 -263 168 -201 273 0
-248 -263 168 201 -273 0
-248 -264 -160 -228 -265 0
-248 -264 -160 228 265 0
-248 -264 160 -228 265 0
-248 -264 160 228 -265 0
-248 -264 -161 -229 -266 0
-248 -264 -161 229 266 0
-248 -264 161 -229 266 0
-248 -264 161 229 -266 0
-248 -264 -162 -230 -267 0
-248 -264 -162 230 267 0
-248 -264 162 -230 267 0
-248 -264 162 230 -267 0
-248 -264 -163 -231 -268 0
-248 -264 -163 231 268 0
-248 -264 163 -231 268 0
-248 -264 163 231 -268 0
-248 -264 -164 -232 -269 0
-248 -264 -164 232 269 0
-248 -264 164 -232 269 0
-248 -264 164 232 -269 0
-248 -264 -165 -233 -270 0
-248 -264 -165 233 270 0
-248 -264 165 -233 270 0
-248 -264 165 233 -270 0
-248 -264 -166 -234 -271 0
-248 -264 -166 234 271 0
-248 -264 166 -234 271 0
-248 -264 166 234 -271 0
-248 -264 -167 -235 -272 0
-248 -264 -167 235 272 0
-248 -264 167 -235 272 0
-248 -264 167 235 -272 0
-248 -264 -168 -236 -273 0
-248 -264 -168 236 273 0
-248 -264 168 -236 273 0
-248 -264 168 236 -273 0
-249 -264 -193 -228 -265 0
-249 -264 -193 228 265 0
-249 -264 193 -228 265 0
-249 -264 193 228 -265 0
-249 -264 -194 -229 -266 0
-249 -264 -194 229 266 0
-249 -264 194 -229 266 0
-249 -264 194 229 -266 0
-249 -264 -195 -230 -267 0
-249 -264 -195 230 267 0
-249 -264 195 -230 267 0
-249 -264 195 230 -267 0
-249 -264 -196 -231 -268 0
-249 -264 -196 231 268 0
-249 -264 196 -231 268 0
-249 -264 196 231 -268 0
-249 -264 -197 -232 -269 0
-249 -264 -197 232 269 0
-249 -264 197 -232 269 0
-249 -264 197 232 -269 0
-249 -264 -198 -233 -270 0
-249 -264 -198 233 270 0
-249 -264 198 -233 270 0
-249 -264 198 233 -270 0
-249 -264 -199 -234 -271 0
-249 -264 -199 234 271 0
-249 -264 199 -234 271 0
-249 -264 199 234 -271 0
-249 -264 -200 -235 -272 0
-249 -264 -200 235 272 0
-249 -264 200 -235 272 0
-249 -264 200 235 -272 0
-249 -264 -201 -236 -273 0
-249 -264 -201 236 273 0
-249 -264 201 -236 273 0
-249 -264 201 236 -273 0
265 266 267 268 269 270 271 272 273 0
274 275 276 277 278 279 280 281 282 283 284 285 286 287 288 0
-274 -275 0
-274 -276 0
-274 -277 0
-274 -278 0
-274 -279 0
-274 -280 0
-274 -281 0
-274 -282 0
-274 -283 0
-274 -284 0
-274 -285 0
-274 -286 0
-274 -287 0
-274 -288 0
-275 -276 0
-275 -277 0
-275 -278 0
-275 -279 0
-275 -280 0
-275 -281 0
-275 -282 0
-275 -283 0
-275 -284 0
-275 -285 0
-275 -286 0
-275 -287 0
-275 -288 0
-276 -277 0
-276 -278 0
-276 -279 0
-276 -280 0
-276 -281 0
-276 -282 0
-276 -283 0
-276 -284 0
-276 -285 0
-276 -286 0
-276 -287 0
-276 -288 0
-277 -278 0
-277 -279 0
-277 -280 0
-277 -281 0
-277 -282 0
-277 -283 0
-277 -284 0
-277 -285 0
-277 -286 0
-277 -287 0
-277 -288 0
-278 -279 0
-278 -280 0
-278 -281 0
-278 -282 0
-278 -283 0
-278 -284 0
-278 -285 0
-278 -286 0
-278 -287 0
-278 -288 0
-279 -280 0
-279 -281 0
-279 -282 0
-279 -283 0
-279 -284 0
-279 -285 0
-279 -286 0
-279 -287 0
-279 -288 0
-280 -281 0
-280 -282 0
-280 -283 0
-280 -284 0
-280 -285 0
-280 -286 0
-280 -287 0
-280 -288 0
-281 -282 0
-281 -283 0
-281 -284 0
-281 -285 0
-281 -286 0
-281 -287 0
-281 -288 0
-282 -283 0
-282 -284 0
-282 -285 0
-282 -286 0
-282 -287 0
-282 -288 0
-283 -284 0
-283 -285 0
-283 -286 0
-283 -287 0
-283 -288 0
-284 -285 0
-284 -286 0
-284 -287 0
-284 -288 0
-285 -286 0
-285 -287 0
-285 -288 0
-286 -287 0
-286 -288 0
-287 -288 0
289 290 291 292 293 294 295 296 297 298 299 300 301 302 303 0
-289 -290 0
-289 -291 0
-289 -292 0
-289 -293 0
-289 -294 0
-289 -295 0
-289 -296 0
-289 -297 0
-289 -298 0
-289 -299 0
-289 -300 0
-289 -301 0
-289 -302 0
-289 -303 0
-290 -291 0
-290 -292 0
-290 -293 0
-290 -294 0
-290 -295 0
-290 -296 0
-290 -297 0
-290 -298 0
-290 -299 0
-290 -300 0
-290 -301 0
-290 -302 0
-290 -303 0
-291 -292 0
-291 -293 0
-291 -294 0
-291 -295 0
-291 -296 0
-291 -297 0
-291 -298 0
-291 -299 0
-291 -300 0
-291 -301 0
-291 -302 0
-291 -303 0
-292 -293 0
-292 -294 0
-292 -295 0
-292 -296 0
-292 -297 0
-292 -298 0
-292 -299 0
-292 -300 0
-292 -301 0
-292 -302 0
-292 -303 0
-293 -294 0
-293 -295 0
-293 -296 0
-293 -297 0
-293 -298 0
-293 -299 0
-293 -300 0
-293 -301 0
-293 -302 0
-293 -303 0
-294 -295 0
-294 -296 0
-294 -297 0
-294 -298 0
-294 -299 0
-294 -300 0
-294 -301 0
-294 -302 0
-294 -303 0
-295 -296 0
-295 -297 0
-295 -298 0
-295 -299 0
-295 -300 0
-295 -301 0
-295 -302 0
-295 -303 0
-296 -297 0
-296 -298 0
-296 -299 0
-296 -300 0
-296 -301 0
-296 -302 0
-296 -303 0
-297 -298 0
-297 -299 0
-297 -300 0
-297 -301 0
-297 -302 0
-297 -303 0
-298 -299 0
-298 -300 0
-298 -301 0
-298 -302 0
-298 -303 0
-299 -300 0
-299 -301 0
-299 -302 0
-299 -303 0
-300 -301 0
-300 -302 0
-300 -303 0
-301 -302 0
-301 -303 0
-302 -303 0
-274 -289 0
-275 -289 0
-275 -290 0
-276 -289 0
-276 -290 0
-276 -291 0
-277 -289 0
-277 -290 0
-277 -291 0
-277 -292 0
-278 -289 0
-278 -290 0
-278 -291 0
-278 -292 0
-278 -293 0
-279 -289 0
-279 -290 0
-279 -291 0
-279 -292 0
-279 -293 0
-279 -294 0
-280 -289 0
-280 -290 0
-280 -291 0
-280 -292 0
-280 -293 0
-280 -294 0
-280 -295 0
-281 -289 0
-281 -290 0
-281 -291 0
-281 -292 0
-281 -293 0
-281 -294 0
-281 -295 0
-281 -296 0
-282 -289 0
-282 -290 0
-282 -291 0
-282 -292 0
-282 -293 0
-282 -294 0
-282 -295 0
-282 -296 0
-282 -297 0
-283 -289 0
-283 -290 0
-283 -291 0
-283 -292 0
-283 -293 0
-283 -294 0
-283 -295 0
-283 -296 0
-283 -297 0
-283 -298 0
-284 -289 0
-284 -290 0
-284 -291 0
-284 -292 0
-284 -293 0
-284 -294 0
-284 -295 0
-284 -296 0
-284 -297 0
-284 -298 0
-284 -299 0
-285 -289 0
-285 -290 0
-285 -291 0
-285 -292 0
-285 -293 0
-285 -294 0
-285 -295 0
-285 -296 0
-285 -297 0
-285 -298 0
-285 -299 0
-285 -300 0
-286 -289 0
-286 -290 0
-286 -291 0
-286 -292 0
-286 -293 0
-286 -294 0
-286 -295 0
-286 -296 0
-286 -297 0
-286 -298 0
-286 -299 0
-286 -300 0
-286 -301 0
-287 -289 0
-287 -290 0
-287 -291 0
-287 -292 0
-287 -293 0
-287 -294 0
-287 -295 0
-287 -296 0
-287 -297 0
-287 -298 0
-287 -299 0
-287 -300 0
-287 -301 0
-287 -302 0
-288 -289 0
-288 -290 0
-288 -291 0
-288 -292 0
-288 -293 0
-288 -294 0
-288 -295 0
-288 -296 0
-288 -297 0
-288 -298 0
-288 -299 0
-288 -300 0
-288 -301 0
-288 -302 0
-288 -303 0
-274 -290 -1 -10 -304 0
-274 -290 -1 10 304 0
-274 -290 1 -10 304 0
-274 -290 1 10 -304 0
-274 -290 -2 -11 -305 0
-274 -290 -2 11 305 0
-274 -290 2 -11 305 0
-274 -290 2 11 -305 0
-274 -290 -3 -12 -306 0
-274 -290 -3 12 306 0
-274 -290 3 -12 306 0
-274 -290 3 12 -306 0
-274 -290 -4 -13 -307 0
-274 -290 -4 13 307 0
-274 -290 4 -13 307 0
-274 -290 4 13 -307 0
-274 -290 -5 -14 -308 0
-274 -290 -5 14 308 0
-274 -290 5 -14 308 0
-274 -290 5 14 -308 0
-274 -290 -6 -15 -309 0
-274 -290 -6 15 309 0
-274 -290 6 -15 309 0
-274 -290 6 15 -309 0
-274 -290 -7 -16 -310 0
-274 -290 -7 16 310 0
-274 -290 7 -16 310 0
-274 -290 7 16 -310 0
-274 -290 -8 -17 -311 0
-274 -290 -8 17 311 0
-274 -290 8 -17 311 0
-274 -290 8 17 -311 0
-274 -290 -9 -18 -312 0
-274 -290 -9 18 312 0
-274 -290 9 -18 312 0
-274 -290 9 18 -312 0
-274 -291 -1 -19 -304 0
-274 -291 -1 19 304 0
-274 -291 1 -19 304 0
-274 -291 1 19 -304 0
-274 -291 -2 -20 -305 0
-274 -291 -2 20 305 0
-274 -291 2 -20 305 0
-274 -291 2 20 -305 0
-274 -291 -3 -21 -306 0
-274 -291 -3 21 306 0
-274 -291 3 -21 306 0
-274 -291 3 21 -306 0
-274 -291 -4 -22 -307 0
-274 -291 -4 22 307 0
-274 -291 4 -22 307 0
-274 -291 4 22 -307 0
-274 -291 -5 -23 -308 0
-274 -291 -5 23 308 0
-274 -291 5 -23 308 0
-274 -291 5 23 -308 0
-274 -291 -6 -24 -309 0
-274 -291 -6 24 309 0
-274 -291 6 -24 309 0
-274 -291 6 24 -309 0
-274 -291 -7 -25 -310 0
-274 -291 -7 25 310 0
-274 -291 7 -25 310 0
-274 -291 7 25 -310 0
-274 -291 -8 -26 -311 0
-274 -291 -8 26 311 0
-274 -291 8 -26 311 0
-274 -291 8 26 -311 0
-274 -291 -9 -27 -312 0
-274 -291 -9 27 312 0
-274 -291 9 -27 312 0
-274 -291 9 27 -312 0
-274 -292 -1 -28 -304 0
-274 -292 -1 28 304 0
-274 -292 1 -28 304 0
-274 -292 1 28 -304 0
-274 -292 -2 -29 -305 0
-274 -292 -2 29 305 0
-274 -292 2 -29 305 0
-274 -292 2 29 -305 0
-274 -292 -3 -30 -306 0
-274 -292 -3 30 306 0
-274 -292 3 -30 306 0
-274 -292 3 30 -306 0
-274 -292 -4 -31 -307 0
-274 -292 -4 31 307 0
-274 -292 4 -31 307 0
-274 -292 4 31 -307 0
-274 -292 -5 -32 -308 0
-274 -292 -5 32 308 0
-274 -292 5 -32 308 0
-274 -292 5 32 -308 0
-274 -292 -6 -33 -309 0
-274 -292 -6 33 309 0
-274 -292 6 -33 309 0
-274 -292 6 33 -309 0
-274 -292 -7 -34 -310 0
-274 -292 -7 34 310 0
-274 -292 7 -34 310 0
-274 -292 7 34 -310 0
-274 -292 -8 -35 -311 0
-274 -292 -8 35 311 0
-274 -292 8 -35 311 0
-274 -292 8 35 -311 0
-274 -292 -9 -36 -312 0
-274 -292 -9 36 312 0
-274 -292 9 -36 312 0
-274 -292 9 36 -312 0
-274 -293 -1 -37 -304 0
-274 -293 -1 37 304 0
-274 -293 1 -37 304 0
-274 -293 1 37 -304 0
-274 -293 -2 -38 -305 0
-274 -293 -2 38 305 0
-274 -293 2 -38 305 0
-274 -293 2 38 -305 0
-274 -293 -3 -39 -306 0
-274 -293 -3 39 306 0
-274 -293 3 -39 306 0
-274 -293 3 39 -306 0
-274 -293 -4 -40 -307 0
-274 -293 -4 40 307 0
-274 -293 4 -40 307 0
-274 -293 4 40 -307 0
-274 -293 -5 -41 -308 0
-274 -293 -5 41 308 0
-274 -293 5 -41 308 0
-274 -293 5 41 -308 0
-274 -293 -6 -42 -309 0
-274 -293 -6 42 309 0
-274 -293 6 -42 309 0
-274 -293 6 42 -309 0
-274 -293 -7 -43 -310 0
-274 -293 -7 43 310 0
-274 -293 7 -43 310 0
-274 -293 7 43 -310 0
-274 -293 -8 -44 -311 0
-274 -293 -8 44 311 0
-274 -293 8 -44 311 0
-274 -293 8 44 -311 0
-274 -293 -9 -45 -312 0
-274 -293 -9 45 312 0
-274 -293 9 -45 312 0
-274 -293 9 45 -312 0
-274 -294 -1 -46 -304 0
-274 -294 -1 46 304 0
-274 -294 1 -46 304 0
-274 -294 1 46 -304 0
-274 -294 -2 -47 -305 0
-274 -294 -2 47 305 0
-274 -294 2 -47 305 0
-274 -294 2 47 -305 0
-274 -294 -3 -48 -306 0
-274 -294 -3 48 306 0
-274 -294 3 -48 306 0
-274 -294 3 48 -306 0
-274 -294 -4 -49 -307 0
-274 -294 -4 49 307 0
-274 -294 4 -49 307 0
-274 -294 4 49 -307 0
-274 -294 -5 -50 -308 0
-274 -294 -5 50 308 0
-274 -294 5 -50 308 0
-274 -294 5 50 -308 0
-274 -294 -6 -51 -309 0
-274 -294 -6 51 309 0
-274 -294 6 -51 309 0
-274 -294 6 51 -309 0
-274 -294 -7 -52 -310 0
-274 -294 -7 52 310 0
-274 -294 7 -52 310 0
-274 -294 7 52 -310 0
-274 -294 -8 -53 -311 0
-274 -294 -8 53 311 0
-274 -294 8 -53 311 0
-274 -294 8 53 -311 0
-274 -294 -9 -54 -312 0
-274 -294 -9 54 312 0
-274 -294 9 -54 312 0
-274 -294 9 54 -312 0
-274 -295 -1 -55 -304 0
-274 -295 -1 55 304 0
-274 -295 1 -55 304 0
-274 -295 1 55 -304 0
-274 -295 -2 -56 -305 0
-274 -295 -2 56 305 0
-274 -295 2 -56 305 0
-274 -295 2 56 -305 0
-274 -295 -3 -57 -306 0
-274 -295 -3 57 306 0
-274 -295 3 -57 306 0
-274 -295 3 57 -306 0
-274 -295 -4 -58 -307 0
-274 -295 -4 58 307 0
-274 -295 4 -58 307 0
-274 -295 4 58 -307 0
-274 -295 -5 -59 -308 0
-274 -295 -5 59 308 0
-274 -295 5 -59 308 0
-274 -295 5 59 -308 0
-274 -295 -6 -60 -309 0
-274 -295 -6 60 309 0
-274 -295 6 -60 309 0
-274 -295 6 60 -309 0
-274 -295 -7 -61 -310 0
-274 -295 -7 61 310 0
-274 -295 7 -61 310 0
-274 -295 7 61 -310 0
-274 -295 -8 -62 -311 0
-274 -295 -8 62 311 0
-274 -295 8 -62 311 0
-274 -295 8 62 -311 0
-274 -295 -9 -63 -312 0
-274 -295 -9 63 312 0
-274 -295 9 -63 312 0
-274 -295 9 63 -312 0
-274 -296 -1 -64 -304 0
-274 -296 -1 64 304 0
-274 -296 1 -64 304 0
-274 -296 1 64 -304 0
-274 -296 -2 -65 -305 0
-274 -296 -2 65 305 0
-274 -296 2 -65 305 0
-274 -296 2 65 -305 0
-274 -296 -3 -66 -306 0
-274 -296 -3 66 306 0
-274 -296 3 -66 306 0
-274 -296 3 66 -306 0
-274 -296 -4 -67 -307 0
-274 -296 -4 67 307 0
-274 -296 4 -67 307 0
-274 -296 4 67 -307 0
-274 -296 -5 -68 -308 0
-274 -296 -5 68 308 0
-274 -296 5 -68 308 0
-274 -296 5 68 -308 0
-274 -296 -6 -69 -309 0
-274 -296 -6 69 309 0
-274 -296 6 -69 309 0
-274 -296 6 69 -309 0
-274 -296 -7 -70 -310 0
-274 -296 -7 70 310 0
-274 -296 7 -70 310 0
-274 -296 7 70 -310 0
-274 -296 -8 -71 -311 0
-274 -296 -8 71 311 0
-274 -296 8 -71 311 0
-274 -296 8 71 -311 0
-274 -296 -9 -72 -312 0
-274 -296 -9 72 312 0
-274 -296 9 -72 312 0
-274 -296 9 72 -312 0
-274 -297 -1 -73 -304 0
-274 -297 -1 73 304 0
-274 -297 1 -73 304 0
-274 -297 1 73 -304 0
-274 -297 -2 -74 -305 0
-274 -297 -2 74 305 0
-274 -297 2 -74 305 0
-274 -297 2 74 -305 0
-274 -297 -3 -75 -306 0
-274 -297 -3 75 306 0
-274 -297 3 -75 306 0
-274 -297 3 75 -306 0
-274 -297 -4 -76 -307 0
-274 -297 -4 76 307 0
-274 -297 4 -76 307 0
-274 -297 4 76 -307 0
-274 -297 -5 -77 -308 0
-274 -297 -5 77 308 0
-274 -297 5 -77 308 0
-274 -297 5 77 -308 0
-274 -297 -6 -78 -309 0
-274 -297 -6 78 309 0
-274 -297 6 -78 309 0
-274 -297 6 78 -309 0
-274 -297 -7 -79 -310 0
-274 -297 -7 79 310 0
-274 -297 7 -79 310 0
-274 -297 7 79 -310 0
-274 -297 -8 -80 -311 0
-274 -297 -8 80 311 0
-274 -297 8 -80 311 0
-274 -297 8 80 -311 0
-274 -297 -9 -81 -312 0
-274 -297 -9 81 312 0
-274 -297 9 -81 312 0
-274 -297 9 81 -312 0
-274 -298 -1 -100 -304 0
-274 -298 -1 100 304 0
-274 -298 1 -100 304 0
-274 -298 1 100 -304 0
-274 -298 -2 -101 -305 0
-274 -298 -2 101 305 0
-274 -298 2 -101 305 0
-274 -298 2 101 -305 0
-274 -298 -3 -102 -306 0
-274 -298 -3 102 306 0
-274 -298 3 -102 306 0
-274 -298 3 102 -306 0
-274 -298 -4 -103 -307 0
-274 -298 -4 103 307 0
-274 -298 4 -103 307 0
-274 -298 4 103 -307 0
-274 -298 -5 -104 -308 0
-274 -298 -5 104 308 0
-274 -298 5 -104 308 0
-274 -298 5 104 -308 0
-274 -298 -6 -105 -309 0
-274 -298 -6 105 309 0
-274 -298 6 -105 309 0
-274 -298 6 105 -309 0
-274 -298 -7 -106 -310 0
-274 -298 -7 106 310 0
-274 -298 7 -106 310 0
-274 -298 7 106 -310 0
-274 -298 -8 -107 -311 0
-274 -298 -8 107 311 0
-274 -298 8 -107 311 0
-274 -298 8 107 -311 0
-274 -298 -9 -108 -312 0
-274 -298 -9 108 312 0
-274 -298 9 -108 312 0
-274 -298 9 108 -312 0
-274 -299 -1 -129 -304 0
-274 -299 -1 129 304 0
-274 -299 1 -129 304 0
-274 -299 1 129 -304 0
-274 -299 -2 -130 -305 0
-274 -299 -2 130 305 0
-274 -299 2 -130 305 0
-274 -299 2 130 -305 0
-274 -299 -3 -131 -306 0
-274 -299 -3 131 306 0
-274 -299 3 -131 306 0
-274 -299 3 131 -306 0
-274 -299 -4 -132 -307 0
-274 -299 -4 132 307 0
-274 -299 4 -132 307 0
-274 -299 4 132 -307 0
-274 -299 -5 -133 -308 0
-274 -299 -5 133 308 0
-274 -299 5 -133 308 0
-274 -299 5 133 -308 0
-274 -299 -6 -134 -309 0
-274 -299 -6 134 309 0
-274 -299 6 -134 309 0
-274 -299 6 134 -309 0
-274 -299 -7 -135 -310 0
-274 -299 -7 135 310 0
-274 -299 7 -135 310 0
-274 -299 7 135 -310 0
-274 -299 -8 -136 -311 0
-274 -299 -8 136 311 0
-274 -299 8 -136 311 0
-274 -299 8 136 -311 0
-274 -299 -9 -137 -312 0
-274 -299 -9 137 312 0
-274 -299 9 -137 312 0
-274 -299 9 137 -312 0
-274 -300 -1 -160 -304 0
-274 -300 -1 160 304 0
-274 -300 1 -160 304 0
-274 -300 1 160 -304 0
-274 -300 -2 -161 -305 0
-274 -300 -2 161 305 0
-274 -300 2 -161 305 0
-274 -300 2 161 -305 0
-274 -300 -3 -162 -306 0
-274 -300 -3 162 306 0
-274 -300 3 -162 306 0
-274 -300 3 162 -306 0
-274 -300 -4 -163 -307 0
-274 -300 -4 163 307 0
-274 -300 4 -163 307 0
-274 -300 4 163 -307 0
-274 -300 -5 -164 -308 0
-274 -300 -5 164 308 0
-274 -300 5 -164 308 0
-274 -300 5 164 -308 0
-274 -300 -6 -165 -309 0
-274 -300 -6 165 309 0
-274 -300 6 -165 309 0
-274 -300 6 165 -309 0
-274 -300 -7 -166 -310 0
-274 -300 -7 166 310 0
-274 -300 7 -166 310 0
-274 -300 7 166 -310 0
-274 -300 -8 -167 -311 0
-274 -300 -8 167 311 0
-274 -300 8 -167 311 0
-274 -300 8 167 -311 0
-274 -300 -9 -168 -312 0
-274 -300 -9 168 312 0
-274 -300 9 -168 312 0
-274 -300 9 168 -312 0
-274 -301 -1 -193 -304 0
-274 -301 -1 193 304 0
-274 -301 1 -193 304 0
-274 -301 1 193 -304 0
-274 -301 -2 -194 -305 0
-274 -301 -2 194 305 0
-274 -301 2 -194 305 0
-274 -301 2 194 -305 0
-274 -301 -3 -195 -306 0
-274 -301 -3 195 306 0
-274 -301 3 -195 306 0
-274 -301 3 195 -306 0
-274 -301 -4 -196 -307 0
-274 -301 -4 196 307 0
-274 -301 4 -196 307 0
-274 -301 4 196 -307 0
-274 -301 -5 -197 -308 0
-274 -301 -5 197 308 0
-274 -301 5 -197 308 0
-274 -301 5 197 -308 0
-274 -301 -6 -198 -309 0
-274 -301 -6 198 309 0
-274 -301 6 -198 309 0
-274 -301 6 198 -309 0
-274 -301 -7 -199 -310 0
-274 -301 -7 199 310 0
-274 -301 7 -199 310 0
-274 -301 7 199 -310 0
-274 -301 -8 -200 -311 0
-274 -301 -8 200 311 0
-274 -301 8 -200 311 0
-274 -301 8 200 -311 0
-274 -301 -9 -201 -312 0
-274 -301 -9 201 312 0
-274 -301 9 -201 312 0
-274 -301 9 201 -312 0
-274 -302 -1 -228 -304 0
-274 -302 -1 228 304 0
-274 -302 1 -228 304 0
-274 -302 1 228 -304 0
-274 -302 -2 -229 -305 0
-274 -302 -2 229 305 0
-274 -302 2 -229 305 0
-274 -302 2 229 -305 0
-274 -302 -3 -230 -306 0
-274 -302 -3 230 306 0
-274 -302 3 -230 306 0
-274 -302 3 230 -306 0
-274 -302 -4 -231 -307 0
-274 -302 -4 231 307 0
-274 -302 4 -231 307 0
-274 -302 4 231 -307 0
-274 -302 -5 -232 -308 0
-274 -302 -5 232 308 0
-274 -302 5 -232 308 0
-274 -302 5 232 -308 0
-274 -302 -6 -233 -309 0
-274 -302 -6 233 309 0
-274 -302 6 -233 309 0
-274 -302 6 233 -309 0
-274 -302 -7 -234 -310 0
-274 -302 -7 234 310 0
-274 -302 7 -234 310 0
-274 -302 7 234 -310 0
-274 -302 -8 -235 -311 0
-274 -302 -8 235 311 0
-274 -302 8 -235 311 0
-274 -302 8 235 -311 0
-274 -302 -9 -236 -312 0
-274 -302 -9 236 312 0
-274 -302 9 -236 312 0
-274 -302 9 236 -312 0
-274 -303 -1 -265 -304 0
-274 -303 -1 265 304 0
-274 -303 1 -265 304 0
-274 -303 1 265 -304 0
-274 -303 -2 -266 -305 0
-274 -303 -2 266 305 0
-274 -303 2 -266 305 0
-274 -303 2 266 -305 0
-274 -303 -3 -267 -306 0
-274 -303 -3 267 306 0
-274 -303 3 -267 306 0
-274 -303 3 267 -306 0
-274 -303 -4 -268 -307 0
-274 -303 -4 268 307 0
-274 -303 4 -268 307 0
-274 -303 4 268 -307 0
-274 -303 -5 -269 -308 0
-274 -303 -5 269 308 0
-274 -303 5 -269 308 0
-274 -303 5 269 -308 0
-274 -303 -6 -270 -309 0
-274 -303 -6 270 309 0
-274 -303 6 -270 309 0
-274 -303 6 270 -309 0
-274 -303 -7 -271 -310 0
-274 -303 -7 271 310 0
-274 -303 7 -271 310 0
-274 -303 7 271 -310 0
-274 -303 -8 -272 -311 0
-274 -303 -8 272 311 0
-274 -303 8 -272 311 0
-274 -303 8 272 -311 0
-274 -303 -9 -273 -312 0
-274 -303 -9 273 312 0
-274 -303 9 -273 312 0
-274 -303 9 273 -312 0
-275 -291 -10 -19 -304 0
-275 -291 -10 19 304 0
-275 -291 10 -19 304 0
-275 -291 10 19 -304 0
-275 -291 -11 -20 -305 0
-275 -291 -11 20 305 0
-275 -291 11 -20 305 0
-275 -291 11 20 -305 0
-275 -291 -12 -21 -306 0
-275 -291 -12 21 306 0
-275 -291 12 -21 306 0
-275 -291 12 21 -306 0
-275 -291 -13 -22 -307 0
-275 -291 -13 22 307 0
-275 -291 13 -22 307 0
-275 -291 13 22 -307 0
-275 -291 -14 -23 -308 0
-275 -291 -14 23 308 0
-275 -291 14 -23 308 0
-275 -291 14 23 -308 0
-275 -291 -15 -24 -309 0
-275 -291 -15 24 309 0
-275 -291 15 -24 309 0
-275 -291 15 24 -309 0
-275 -291 -16 -25 -310 0
-275 -291 -16 25 310 0
-275 -291 16 -25 310 0
-275 -291 16 25 -310 0
-275 -291 -17 -26 -311 0
-275 -291 -17 26 311 0
-275 -291 17 -26 311 0
-275 -291 17 26 -311 0
-275 -291 -18 -27 -312 0
-275 -291 -18 27 312 0
-275 -291 18 -27 312 0
-275 -291 18 27 -312 0
-275 -292 -10 -28 -304 0
-275 -292 -10 28 304 0
-275 -292 10 -28 304 0
-275 -292 10 28 -304 0
-275 -292 -11 -29 -305 0
-275 -292 -11 29 305 0
-275 -292 11 -29 305 0
-275 -292 11 29 -305 0
-275 -292 -12 -30 -306 0
-275 -292 -12 30 306 0
-275 -292 12 -30 306 0
-275 -292 12 30 -306 0
-275 -292 -13 -31 -307 0
-275 -292 -13 31 307 0
-275 -292 13 -31 307 0
-275 -292 13 31 -307 0
-275 -292 -14 -32 -308 0
-275 -292 -14 32 308 0
-275 -292 14 -32 308 0
-275 -292 14 32 -308 0
-275 -292 -15 -33 -309 0
-275 -292 -15 33 309 0
-275 -292 15 -33 309 0
-275 -292 15 33 -309 0
-275 -292 -16 -34 -310 0
-275 -292 -16 34 310 0
-275 -292 16 -34 310 0
-275 -292 16 34 -310 0
-275 -292 -17 -35 -311 0
-275 -292 -17 35 311 0
-275 -292 17 -35 311 0
-275 -292 17 35 -311 0
-275 -292 -18 -36 -312 0
-275 -292 -18 36 312 0
-275 -292 18 -36 312 0
-275 -292 18 36 -312 0
-275 -293 -10 -37 -304 0
-275 -293 -10 37 304 0
-275 -293 10 -37 304 0
-275 -293 10 37 -304 0
-275 -293 -11 -38 -305 0
-275 -293 -11 38 305 0
-275 -293 11 -38 305 0
-275 -293 11 38 -305 0
-275 -293 -12 -39 -306 0
-275 -293 -12 39 306 0
-275 -293 12 -39 306 0
-275 -293 12 39 -306 0
-275 -293 -13 -40 -307 0
-275 -293 -13 40 307 0
-275 -293 13 -40 307 0
-275 -293 13 40 -307 0
-275 -293 -14 -41 -308 0
-275 -293 -14 41 308 0
-275 -293 14 -41 308 0
-275 -293 14 41 -308 0
-275 -293 -15 -42 -309 0
-275 -293 -15 42 309 0
-275 -293 15 -42 309 0
-275 -293 15 42 -309 0
-275 -293 -16 -43 -310 0
-275 -293 -16 43 310 0
-275 -293 16 -43 310 0
-275 -293 16 43 -310 0
-275 -293 -17 -44 -311 0
-275 -293 -17 44 311 0
-275 -293 17 -44 311 0
-275 -293 17 44 -311 0
-275 -293 -18 -45 -312 0
-275 -293 -18 45 312 0
-275 -293 18 -45 312 0
-275 -293 18 45 -312 0
-275 -294 -10 -46 -304 0
-275 -294 -10 46 304 0
-275 -294 10 -46 304 0
-275 -294 10 46 -304 0
-275 -294 -11 -47 -305 0
-275 -294 -11 47 305 0
-275 -294 11 -47 305 0
-275 -294 11 47 -305 0
-275 -294 -12 -48 -306 0
-275 -294 -12 48 306 0
-275 -294 12 -48 306 0
-275 -294 12 48 -306 0
-275 -294 -13 -49 -307 0
-275 -294 -13 49 307 0
-275 -294 13 -49 307 0
-275 -294 13 49 -307 0
-275 -294 -14 -50 -308 0
-275 -294 -14 50 308 0
-275 -294 14 -50 308 0
-275 -294 14 50 -308 0
-275 -294 -15 -51 -309 0
-275 -294 -15 51 309 0
-275 -294 15 -51 309 0
-275 -294 15 51 -309 0
-275 -294 -16 -52 -310 0
-275 -294 -16 52 310 0
-275 -294 16 -52 310 0
-275 -294 16 52 -310 0
-275 -294 -17 -53 -311 0
-275 -294 -17 53 311 0
-275 -294 17 -53 311 0
-275 -294 17 53 -311 0
-275 -294 -18 -54 -312 0
-275 -294 -18 54 312 0
-275 -294 18 -54 312 0
-275 -294 18 54 -312 0
-275 -295 -10 -55 -304 0
-275 -295 -10 55 304 0
-275 -295 10 -55 304 0
-275 -295 10 55 -304 0
-275 -295 -11 -56 -305 0
-275 -295 -11 56 305 0
-275 -295 11 -56 305 0
-275 -295 11 56 -305 0
-275 -295 -12 -57 -306 0
-275 -295 -12 57 306 0
-275 -295 12 -57 306 0
-275 -295 12 57 -306 0
-275 -295 -13 -58 -307 0
-275 -295 -13 58 307 0
-275 -295 13 -58 307 0
-275 -295 13 58 -307 0
-275 -295 -14 -59 -308 0
-275 -295 -14 59 308 0
-275 -295 14 -59 308 0
-275 -295 14 59 -308 0
-275 -295 -15 -60 -309 0
-275 -295 -15 60 309 0
-275 -295 15 -60 309 0
-275 -295 15 60 -309 0
-275 -295 -16 -61 -310 0
-275 -295 -16 61 310 0
-275 -295 16 -61 310 0
-275 -295 16 61 -310 0
-275 -295 -17 -62 -311 0
-275 -295 -17 62 311 0
-275 -295 17 -62 311 0
-275 -295 17 62 -311 0
-275 -295 -18 -63 -312 0
-275 -295 -18 63 312 0
-275 -295 18 -63 312 0
-275 -295 18 63 -312 0
-275 -296 -10 -64 -304 0
-275 -296 -10 64 304 0
-275 -296 10 -64 304 0
-275 -296 10 64 -304 0
-275 -296 -11 -65 -305 0
-275 -296 -11 65 305 0
-275 -296 11 -65 305 0
-275 -296 11 65 -305 0
-275 -296 -12 -66 -306 0
-275 -296 -12 66 306 0
-275 -296 12 -66 306 0
-275 -296 12 66 -306 0
-275 -296 -13 -67 -307 0
-275 -296 -13 67 307 0
-275 -296 13 -67 307 0
-275 -296 13 67 -307 0
-275 -296 -14 -68 -308 0
-275 -296 -14 68 308 0
-275 -296 14 -68 308 0
-275 -296 14 68 -308 0
-275 -296 -15 -69 -309 0
-275 -296 -15 69 309 0
-275 -296 15 -69 309 0
-275 -296 15 69 -309 0
-275 -296 -16 -70 -310 0
-275 -296 -16 70 310 0
-275 -296 16 -70 310 0
-275 -296 16 70 -310 0
-275 -296 -17 -71 -311 0
-275 -296 -17 71 311 0
-275 -296 17 -71 311 0
-275 -296 17 71 -311 0
-275 -296 -18 -72 -312 0
-275 -296 -18 72 312 0
-275 -296 18 -72 312 0
-275 -296 18 72 -312 0
-275 -297 -10 -73 -304 0
-275 -297 -10 73 304 0
-275 -297 10 -73 304 0
-275 -297 10 73 -304 0
-275 -297 -11 -74 -305 0
-275 -297 -11 74 305 0
-275 -297 11 -74 305 0
-275 -297 11 74 -305 0
-275 -297 -12 -75 -306 0
-275 -297 -12 75 306 0
-275 -297 12 -75 306 0
-275 -297 12 75 -306 0
-275 -297 -13 -76 -307 0
-275 -297 -13 76 307 0
-275 -297 13 -76 307 0
-275 -297 13 76 -307 0
-275 -297 -14 -77 -308 0
-275 -297 -14 77 308 0
-275 -297 14 -77 308 0
-275 -297 14 77 -308 0
-275 -297 -15 -78 -309 0
-275 -297 -15 78 309 0
-275 -297 15 -78 309 0
-275 -297 15 78 -309 0
-275 -297 -16 -79 -310 0
-275 -297 -16 79 310 0
-275 -297 16 -79 310 0
-275 -297 16 79 -310 0
-275 -297 -17 -80 -311 0
-275 -297 -17 80 311 0
-275 -297 17 -80 311 0
-275 -297 17 80 -311 0
-275 -297 -18 -81 -312 0
-275 -297 -18 81 312 0
-275 -297 18 -81 312 0
-275 -297 18 81 -312 0
-275 -298 -10 -100 -304 0
-275 -298 -10 100 304 0
-275 -298 10 -100 304 0
-275 -298 10 100 -304 0
-275 -298 -11 -101 -305 0
-275 -298 -11 101 305 0
-275 -298 11 -101 305 0
-275 -298 11 101 -305 0
-275 -298 -12 -102 -306 0
-275 -298 -12 102 306 0
-275 -298 12 -102 306 0
-275 -298 12 102 -306 0
-275 -298 -13 -103 -307 0
-275 -298 -13 103 307 0
-275 -298 13 -103 307 0
-275 -298 13 103 -307 0
-275 -298 -14 -104 -308 0
-275 -298 -14 104 308 0
-275 -298 14 -104 308 0
-275 -298 14 104 -308 0
-275 -298 -15 -105 -309 0
-275 -298 -15 105 309 0
-275 -298 15 -105 309 0
-275 -298 15 105 -309 0
-275 -298 -16 -106 -310 0
-275 -298 -16 106 310 0
-275 -298 16 -106 310 0
-275 -298 16 106 -310 0
-275 -298 -17 -107 -311 0
-275 -298 -17 107 311 0
-275 -298 17 -107 311 0
-275 -298 17 107 -311 0
-275 -298 -18 -108 -312 0
-275 -298 -18 108 312 0
-275 -298 18 -108 312 0
-275 -298 18 108 -312 0
-275 -299 -10 -129 -304 0
-275 -299 -10 129 304 0
-275 -299 10 -129 304 0
-275 -299 10 129 -304 0
-275 -299 -11 -130 -305 0
-275 -299 -11 130 305 0
-275 -299 11 -130 305 0
-275 -299 11 130 -305 0
-275 -299 -12 -131 -306 0
-275 -299 -12 131 306 0
-275 -299 12 -131 306 0
-275 -299 12 131 -306 0
-275 -299 -13 -132 -307 0
-275 -299 -13 132 307 0
-275 -299 13 -132 307 0
-275 -299 13 132 -307 0
-275 -299 -14 -133 -308 0
-275 -299 -14 133 308 0
-275 -299 14 -133 308 0
-275 -299 14 133 -308 0
-275 -299 -15 -134 -309 0
-275 -299 -15 134 309 0
-275 -299 15 -134 309 0
-275 -299 15 134 -309 0
-275 -299 -16 -135 -310 0
-275 -299 -16 135 310 0
-275 -299 16 -135 310 0
-275 -299 16 135 -310 0
-275 -299 -17 -136 -311 0
-275 -299 -17 136 311 0
-275 -299 17 -136 311 0
-275 -299 17 136 -311 0
-275 -299 -18 -137 -312 0
-275 -299 -18 137 312 0
-275 -299 18 -137 312 0
-275 -299 18 137 -312 0
-275 -300 -10 -160 -304 0
-275 -300 -10 160 304 0
-275 -300 10 -160 304 0
-275 -300 10 160 -304 0
-275 -300 -11 -161 -305 0
-275 -300 -11 161 305 0
-275 -300 11 -161 305 0
-275 -300 11 161 -305 0
-275 -300 -12 -162 -306 0
-275 -300 -12 162 306 0
-275 -300 12 -162 306 0
-275 -300 12 162 -306 0
-275 -300 -13 -163 -307 0
-275 -300 -13 163 307 0
-275 -300 13 -163 307 0
-275 -300 13 163 -307 0
-275 -300 -14 -164 -308 0
-275 -300 -14 164 308 0
-275 -300 14 -164 308 0
-275 -300 14 164 -308 0
-275 -300 -15 -165 -309 0
-275 -300 -15 165 309 0
-275 -300 15 -165 309 0
-275 -300 15 165 -309 0
-275 -300 -16 -166 -310 0
-275 -300 -16 166 310 0
-275 -300 16 -166 310 0
-275 -300 16 166 -310 0
-275 -300 -17 -167 -311 0
-275 -300 -17 167 311 0
-275 -300 17 -167 311 0
-275 -300 17 167 -311 0
-275 -300 -18 -168 -312 0
-275 -300 -18 168 312 0
-275 -300 18 -168 312 0
-275 -300 18 168 -312 0
-275 -301 -10 -193 -304 0
-275 -301 -10 193 304 0
-275 -301 10 -193 304 0
-275 -301 10 193 -304 0
-275 -301 -11 -194 -305 0
-275 -301 -11 194 305 0
-275 -301 11 -194 305 0
-275 -301 11 194 -305 0
-275 -301 -12 -195 -306 0
-275 -301 -12 195 306 0
-275 -301 12 -195 306 0
-275 -301 12 195 -306 0
-275 -301 -13 -196 -307 0
-275 -301 -13 196 307 0
-275 -301 13 -196 307 0
-275 -301 13 196 -307 0
-275 -301 -14 -197 -308 0
-275 -301 -14 197 308 0
-275 -301 14 -197 308 0
-275 -301 14 197 -308 0
-275 -301 -15 -198 -309 0
-275 -301 -15 198 309 0
-275 -301 15 -198 309 0
-275 -301 15 198 -309 0
-275 -301 -16 -199 -310 0
-275 -301 -16 199 310 0
-275 -301 16 -199 310 0
-275 -301 16 199 -310 0
-275 -301 -17 -200 -311 0
-275 -301 -17 200 311 0
-275 -301 17 -200 311 0
-275 -301 17 200 -311 0
-275 -301 -18 -201 -312 0
-275 -301 -18 201 312 0
-275 -301 18 -201 312 0
-275 -301 18 201 -312 0
-275 -302 -10 -228 -304 0
-275 -302 -10 228 304 0
-275 -302 10 -228 304 0
-275 -302 10 228 -304 0
-275 -302 -11 -229 -305 0
-275 -302 -11 229 305 0
-275 -302 11 -229 305 0
-275 -302 11 229 -305 0
-275 -302 -12 -230 -306 0
-275 -302 -12 230 306 0
-275 -302 12 -230 306 0
-275 -302 12 230 -306 0
-275 -302 -13 -231 -307 0
-275 -302 -13 231 307 0
-275 -302 13 -231 307 0
-275 -302 13 231 -307 0
-275 -302 -14 -232 -308 0
-275 -302 -14 232 308 0
-275 -302 14 -232 308 0
-275 -302 14 232 -308 0
-275 -302 -15 -233 -309 0
-275 -302 -15 233 309 0
-275 -302 15 -233 309 0
-275 -302 15 233 -309 0
-275 -302 -16 -234 -310 0
-275 -302 -16 234 310 0
-275 -302 16 -234 310 0
-275 -302 16 234 -310 0
-275 -302 -17 -235 -311 0
-275 -302 -17 235 311 0
-275 -302 17 -235 311 0
-275 -302 17 235 -311 0
-275 -302 -18 -236 -312 0
-275 -302 -18 236 312 0
-275 -302 18 -236 312 0
-275 -302 18 236 -312 0
-275 -303 -10 -265 -304 0
-275 -303 -10 265 304 0
-275 -303 10 -265 304 0
-275 -303 10 265 -304 0
-275 -303 -11 -266 -305 0
-275 -303 -11 266 305 0
-275 -303 11 -266 305 0
-275 -303 11 266 -305 0
-275 -303 -12 -267 -306 0
-275 -303 -12 267 306 0
-275 -303 12 -267 306 0
-275 -303 12 267 -306 0
-275 -303 -13 -268 -307 0
-275 -303 -13 268 307 0
-275 -303 13 -268 307 0
-275 -303 13 268 -307 0
-275 -303 -14 -269 -308 0
-275 -303 -14 269 308 0
-275 -303 14 -269 308 0
-275 -303 14 269 -308 0
-275 -303 -15 -270 -309 0
-275 -303 -15 270 309 0
-275 -303 15 -270 309 0
-275 -303 15 270 -309 0
-275 -303 -16 -271 -310 0
-275 -303 -16 271 310 0
-275 -303 16 -271 310 0
-275 -303 16 271 -310 0
-275 -303 -17 -272 -311 0
-275 -303 -17 272 311 0
-275 -303 17 -272 311 0
-275 -303 17 272 -311 0
-275 -303 -18 -273 -312 0
-275 -303 -18 273 312 0
-275 -303 18 -273 312 0
-275 -303 18 273 -312 0
-276 -292 -19 -28 -304 0
-276 -292 -19 28 304 0
-276 -292 19 -28 304 0
-276 -292 19 28 -304 0
-276 -292 -20 -29 -305 0
-276 -292 -20 29 305 0
-276 -292 20 -29 305 0
-276 -292 20 29 -305 0
-276 -292 -21 -30 -306 0
-276 -292 -21 30 306 0
-276 -292 21 -30 306 0
-276 -292 21 30 -306 0
-276 -292 -22 -31 -307 0
-276 -292 -22 31 307 0
-276 -292 22 -31 307 0
-276 -292 22 31 -307 0
-276 -292 -23 -32 -308 0
-276 -292 -23 32 308 0
-276 -292 23 -32 308 0
-276 -292 23 32 -308 0
-276 -292 -24 -33 -309 0
-276 -292 -24 33 309 0
-276 -292 24 -33 309 0
-276 -292 24 33 -309 0
-276 -292 -25 -34 -310 0
-276 -292 -25 34 310 0
-276 -292 25 -34 310 0
-276 -292 25 34 -310 0
-276 -292 -26 -35 -311 0
-276 -292 -26 35 311 0
-276 -292 26 -35 311 0
-276 -292 26 35 -311 0
-276 -292 -27 -36 -312 0
-276 -292 -27 36 312 0
-276 -292 27 -36 312 0
-276 -292 27 36 -312 0
-276 -293 -19 -37 -304 0
-276 -293 -19 37 304 0
-276 -293 19 -37 304 0
-276 -293 19 37 -304 0
-276 -293 -20 -38 -305 0
-276 -293 -20 38 305 0
-276 -293 20 -38 305 0
-276 -293 20 38 -305 0
-276 -293 -21 -39 -306 0
-276 -293 -21 39 306 0
-276 -293 21 -39 306 0
-276 -293 21 39 -306 0
-276 -293 -22 -40 -307 0
-276 -293 -22 40 307 0
-276 -293 22 -40 307 0
-276 -293 22 40 -307 0
-276 -293 -23 -41 -308 0
-276 -293 -23 41 308 0
-276 -293 23 -41 308 0
-276 -293 23 41 -308 0
-276 -293 -24 -42 -309 0
-276 -293 -24 42 309 0
-276 -293 24 -42 309 0
-276 -293 24 42 -309 0
-276 -293 -25 -43 -310 0
-276 -293 -25 43 310 0
-276 -293 25 -43 310 0
-276 -293 25 43 -310 0
-276 -293 -26 -44 -311 0
-276 -293 -26 44 311 0
-276 -293 26 -44 311 0
-276 -293 26 44 -311 0
-276 -293 -27 -45 -312 0
-276 -293 -27 45 312 0
-276 -293 27 -45 312 0
-276 -293 27 45 -312 0
-276 -294 -19 -46 -304 0
-276 -294 -19 46 304 0
-276 -294 19 -46 304 0
-276 -294 19 46 -304 0
-276 -294 -20 -47 -305 0
-276 -294 -20 47 305 0
-276 -294 20 -47 305 0
-276 -294 20 47 -305 0
-276 -294 -21 -48 -306 0
-276 -294 -21 48 306 0
-276 -294 21 -48 306 0
-276 -294 21 48 -306 0
-276 -294 -22 -49 -307 0
-276 -294 -22 49 307 0
-276 -294 22 -49 307 0
-276 -294 22 49 -307 0
-276 -294 -23 -50 -308 0
-276 -294 -23 50 308 0
-276 -294 23 -50 308 0
-276 -294 23 50 -308 0
-276 -294 -24 -51 -309 0
-276 -294 -24 51 309 0
-276 -294 24 -51 309 0
-276 -294 24 51 -309 0
-276 -294 -25 -52 -310 0
-276 -294 -25 52 310 0
-276 -294 25 -52 310 0
-276 -294 25 52 -310 0
-276 -294 -26 -53 -311 0
-276 -294 -26 53 311 0
-276 -294 26 -53 311 0
-276 -294 26 53 -311 0
-276 -294 -27 -54 -312 0
-276 -294 -27 54 312 0
-276 -294 27 -54 312 0
-276 -294 27 54 -312 0
-276 -295 -19 -55 -304 0
-276 -295 -19 55 304 0
-276 -295 19 -55 304 0
-276 -295 19 55 -304 0
-276 -295 -20 -56 -305 0
-276 -295 -20 56 305 0
-276 -295 20 -56 305 0
-276 -295 20 56 -305 0
-276 -295 -21 -57 -306 0
-276 -295 -21 57 306 0
-276 -295 21 -57 306 0
-276 -295 21 57 -306 0
-276 -295 -22 -58 -307 0
-276 -295 -22 58 307 0
-276 -295 22 -58 307 0
-276 -295 22 58 -307 0
-276 -295 -23 -59 -308 0
-276 -295 -23 59 308 0
-276 -295 23 -59 308 0
-276 -295 23 59 -308 0
-276 -295 -24 -60 -309 0
-276 -295 -24 60 309 0
-276 -295 24 -60 309 0
-276 -295 24 60 -309 0
-276 -295 -25 -61 -310 0
-276 -295 -25 61 310 0
-276 -295 25 -61 310 0
-276 -295 25 61 -310 0
-276 -295 -26 -62 -311 0
-276 -295 -26 62 311 0
-276 -295 26 -62 311 0
-276 -295 26 62 -311 0
-276 -295 -27 -63 -312 0
-276 -295 -27 63 312 0
-276 -295 27 -63 312 0
-276 -295 27 63 -312 0
-276 -296 -19 -64 -304 0
-276 -296 -19 64 304 0
-276 -296 19 -64 304 0
-276 -296 19 64 -304 0
-276 -296 -20 -65 -305 0
-276 -296 -20 65 305 0
-276 -296 20 -65 305 0
-276 -296 20 65 -305 0
-276 -296 -21 -66 -306 0
-276 -296 -21 66 306 0
-276 -296 21 -66 306 0
-276 -296 21 66 -306 0
-276 -296 -22 -67 -307 0
-276 -296 -22 67 307 0
-276 -296 22 -67 307 0
-276 -296 22 67 -307 0
-276 -296 -23 -68 -308 0
-276 -296 -23 68 308 0
-276 -296 23 -68 308 0
-276 -296 23 68 -308 0
-276 -296 -24 -69 -309 0
-276 -296 -24 69 309 0
-276 -296 24 -69 309 0
-276 -296 24 69 -309 0
-276 -296 -25 -70 -310 0
-276 -296 -25 70 310 0
-276 -296 25 -70 310 0
-276 -296 25 70 -310 0
-276 -296 -26 -71 -311 0
-276 -296 -26 71 311 0
-276 -296 26 -71 311 0
-276 -296 26 71 -311 0
-276 -296 -27 -72 -312 0
-276 -296 -27 72 312 0
-276 -296 27 -72 312 0
-276 -296 27 72 -312 0
-276 -297 -19 -73 -304 0
-276 -297 -19 73 304 0
-276 -297 19 -73 304 0
-276 -297 19 73 -304 0
-276 -297 -20 -74 -305 0
-276 -297 -20 74 305 0
-276 -297 20 -74 305 0
-276 -297 20 74 -305 0
-276 -297 -21 -75 -306 0
-276 -297 -21 75 306 0
-276 -297 21 -75 306 0
-276 -297 21 75 -306 0
-276 -297 -22 -76 -307 0
-276 -297 -22 76 307 0
-276 -297 22 -76 307 0
-276 -297 22 76 -307 0
-276 -297 -23 -77 -308 0
-276 -297 -23 77 308 0
-276 -297 23 -77 308 0
-276 -297 23 77 -308 0
-276 -297 -24 -78 -309 0
-276 -297 -24 78 309 0
-276 -297 24 -78 309 0
-276 -297 24 78 -309 0
-276 -297 -25 -79 -310 0
-276 -297 -25 79 310 0
-276 -297 25 -79 310 0
-276 -297 25 79 -310 0
-276 -297 -26 -80 -311 0
-276 -297 -26 80 311 0
-276 -297 26 -80 311 0
-276 -297 26 80 -311 0
-276 -297 -27 -81 -312 0
-276 -297 -27 81 312 0
-276 -297 27 -81 312 0
-276 -297 27 81 -312 0
-276 -298 -19 -100 -304 0
-276 -298 -19 100 304 0
-276 -298 19 -100 304 0
-276 -298 19 100 -304 0
-276 -298 -20 -101 -305 0
-276 -298 -20 101 305 0
-276 -298 20 -101 305 0
-276 -298 20 101 -305 0
-276 -298 -21 -102 -306 0
-276 -298 -21 102 306 0
-276 -298 21 -102 306 0
-276 -298 21 102 -306 0
-276 -298 -22 -103 -307 0
-276 -298 -22 103 307 0
-276 -298 22 -103 307 0
-276 -298 22 103 -307 0
-276 -298 -23 -104 -308 0
-276 -298 -23 104 308 0
-276 -298 23 -104 308 0
-276 -298 23 104 -308 0
-276 -298 -24 -105 -309 0
-276 -298 -24 105 309 0
-276 -298 24 -105 309 0
-276 -298 24 105 -309 0
-276 -298 -25 -106 -310 0
-276 -298 -25 106 310 0
-276 -298 25 -106 310 0
-276 -298 25 106 -310 0
-276 -298 -26 -107 -311 0
-276 -298 -26 107 311 0
-276 -298 26 -107 311 0
-276 -298 26 107 -311 0
-276 -298 -27 -108 -312 0
-276 -298 -27 108 312 0
-276 -298 27 -108 312 0
-276 -298 27 108 -312 0
-276 -299 -19 -129 -304 0
-276 -299 -19 129 304 0
-276 -299 19 -129 304 0
-276 -299 19 129 -304 0
-276 -299 -20 -130 -305 0
-276 -299 -20 130 305 0
-276 -299 20 -130 305 0
-276 -299 20 130 -305 0
-276 -299 -21 -131 -306 0
-276 -299 -21 131 306 0
-276 -299 21 -131 306 0
-276 -299 21 131 -306 0
-276 -299 -22 -132 -307 0
-276 -299 -22 132 307 0
-276 -299 22 -132 307 0
-276 -299 22 132 -307 0
-276 -299 -23 -133 -308 0
-276 -299 -23 133 308 0
-276 -299 23 -133 308 0
-276 -299 23 133 -308 0
-276 -299 -24 -134 -309 0
-276 -299 -24 134 309 0
-276 -299 24 -134 309 0
-276 -299 24 134 -309 0
-276 -299 -25 -135 -310 0
-276 -299 -25 135 310 0
-276 -299 25 -135 310 0
-276 -299 25 135 -310 0
-276 -299 -26 -136 -311 0
-276 -299 -26 136 311 0
-276 -299 26 -136 311 0
-276 -299 26 136 -311 0
-276 -299 -27 -137 -312 0
-276 -299 -27 137 312 0
-276 -299 27 -137 312 0
-276 -299 27 137 -312 0
-276 -300 -19 -160 -304 0
-276 -300 -19 160 304 0
-276 -300 19 -160 304 0
-276 -300 19 160 -304 0
-276 -300 -20 -161 -305 0
-276 -300 -20 161 305 0
-276 -300 20 -161 305 0
-276 -300 20 161 -305 0
-276 -300 -21 -162 -306 0
-276 -300 -21 162 306 0
-276 -300 21 -162 306 0
-276 -300 21 162 -306 0
-276 -300 -22 -163 -307 0
-276 -300 -22 163 307 0
-276 -300 22 -163 307 0
-276 -300 22 163 -307 0
-276 -300 -23 -164 -308 0
-276 -300 -23 164 308 0
-276 -300 23 -164 308 0
-276 -300 23 164 -308 0
-276 -300 -24 -165 -309 0
-276 -300 -24 165 309 0
-276 -300 24 -165 309 0
-276 -300 24 165 -309 0
-276 -300 -25 -166 -310 0
-276 -300 -25 166 310 0
-276 -300 25 -166 310 0
-276 -300 25 166 -310 0
-276 -300 -26 -167 -311 0
-276 -300 -26 167 311 0
-276 -300 26 -167 311 0
-276 -300 26 167 -311 0
-276 -300 -27 -168 -312 0
-276 -300 -27 168 312 0
-276 -300 27 -168 312 0
-276 -300 27 168 -312 0
-276 -301 -19 -193 -304 0
-276 -301 -19 193 304 0
-276 -301 19 -193 304 0
-276 -301 19 193 -304 0
-276 -301 -20 -194 -305 0
-276 -301 -20 194 305 0
-276 -301 20 -194 305 0
-276 -301 20 194 -305 0
-276 -301 -21 -195 -306 0
-276 -301 -21 195 306 0
-276 -301 21 -195 306 0
-276 -301 21 195 -306 0
-276 -301 -22 -196 -307 0
-276 -301 -22 196 307 0
-276 -301 22 -196 307 0
-276 -301 22 196 -307 0
-276 -301 -23 -197 -308 0
-276 -301 -23 197 308 0
-276 -301 23 -197 308 0
-276 -301 23 197 -308 0
-276 -301 -24 -198 -309 0
-276 -301 -24 198 309 0
-276 -301 24 -198 309 0
-276 -301 24 198 -309 0
-276 -301 -25 -199 -310 0
-276 -301 -25 199 310 0
-276 -301 25 -199 310 0
-276 -301 25 199 -310 0
-276 -301 -26 -200 -311 0
-276 -301 -26 200 311 0
-276 -301 26 -200 311 0
-276 -301 26 200 -311 0
-276 -301 -27 -201 -312 0
-276 -301 -27 201 312 0
-276 -301 27 -201 312 0
-276 -301 27 201 -312 0
-276 -302 -19 -228 -304 0
-276 -302 -19 228 304 0
-276 -302 19 -228 304 0
-276 -302 19 228 -304 0
-276 -302 -20 -229 -305 0
-276 -302 -20 229 305 0
-276 -302 20 -229 305 0
-276 -302 20 229 -305 0
-276 -302 -21 -230 -306 0
-276 -302 -21 230 306 0
-276 -302 21 -230 306 0
-276 -302 21 230 -306 0
-276 -302 -22 -231 -307 0
-276 -302 -22 231 307 0
-276 -302 22 -231 307 0
-276 -302 22 231 -307 0
-276 -302 -23 -232 -308 0
-276 -302 -23 232 308 0
-276 -302 23 -232 308 0
-276 -302 23 232 -308 0
-276 -302 -24 -233 -309 0
-276 -302 -24 233 309 0
-276 -302 24 -233 309 0
-276 -302 24 233 -309 0
-276 -302 -25 -234 -310 0
-276 -302 -25 234 310 0
-276 -302 25 -234 310 0
-276 -302 25 234 -310 0
-276 -302 -26 -235 -311 0
-276 -302 -26 235 311 0
-276 -302 26 -235 311 0
-276 -302 26 235 -311 0
-276 -302 -27 -236 -312 0
-276 -302 -27 236 312 0
-276 -302 27 -236 312 0
-276 -302 27 236 -312 0
-276 -303 -19 -265 -304 0
-276 -303 -19 265 304 0
-276 -303 19 -265 304 0
-276 -303 19 265 -304 0
-276 -303 -20 -266 -305 0
-276 -303 -20 266 305 0
-276 -303 20 -266 305 0
-276 -303 20 266 -305 0
-276 -303 -21 -267 -306 0
-276 -303 -21 267 306 0
-276 -303 21 -267 306 0
-276 -303 21 267 -306 0
-276 -303 -22 -268 -307 0
-276 -303 -22 268 307 0
-276 -303 22 -268 307 0
-276 -303 22 268 -307 0
-276 -303 -23 -269 -308 0
-276 -303 -23 269 308 0
-276 -303 23 -269 308 0
-276 -303 23 269 -308 0
-276 -303 -24 -270 -309 0
-276 -303 -24 270 309 0
-276 -303 24 -270 309 0
-276 -303 24 270 -309 0
-276 -303 -25 -271 -310 0
-276 -303 -25 271 310 0
-276 -303 25 -271 310 0
-276 -303 25 271 -310 0
-276 -303 -26 -272 -311 0
-276 -303 -26 272 311 0
-276 -303 26 -272 311 0
-276 -303 26 272 -311 0
-276 -303 -27 -273 -312 0
-276 -303 -27 273 312 0
-276 -303 27 -273 312 0
-276 -303 27 273 -312 0
-277 -293 -28 -37 -304 0
-277 -293 -28 37 304 0
-277 -293 28 -37 304 0
-277 -293 28 37 -304 0
-277 -293 -29 -38 -305 0
-277 -293 -29 38 305 0
-277 -293 29 -38 305 0
-277 -293 29 38 -305 0
-277 -293 -30 -39 -306 0
-277 -293 -30 39 306 0
-277 -293 30 -39 306 0
-277 -293 30 39 -306 0
-277 -293 -31 -40 -307 0
-277 -293 -31 40 307 0
-277 -293 31 -40 307 0
-277 -293 31 40 -307 0
-277 -293 -32 -41 -308 0
-277 -293 -32 41 308 0
-277 -293 32 -41 308 0
-277 -293 32 41 -308 0
-277 -293 -33 -42 -309 0
-277 -293 -33 42 309 0
-277 -293 33 -42 309 0
-277 -293 33 42 -309 0
-277 -293 -34 -43 -310 0
-277 -293 -34 43 310 0
-277 -293 34 -43 310 0
-277 -293 34 43 -310 0
-277 -293 -35 -44 -311 0
-277 -293 -35 44 311 0
-277 -293 35 -44 311 0
-277 -293 35 44 -311 0
-277 -293 -36 -45 -312 0
-277 -293 -36 45 312 0
-277 -293 36 -45 312 0
-277 -293 36 45 -312 0
-277 -294 -28 -46 -304 0
-277 -294 -28 46 304 0
-277 -294 28 -46 304 0
-277 -294 28 46 -304 0
-277 -294 -29 -47 -305 0
-277 -294 -29 47 305 0
-277 -294 29 -47 305 0
-277 -294 29 47 -305 0
-277 -294 -30 -48 -306 0
-277 -294 -30 48 306 0
-277 -294 30 -48 306 0
-277 -294 30 48 -306 0
-277 -294 -31 -49 -307 0
-277 -294 -31 49 307 0
-277 -294 31 -49 307 0
-277 -294 31 49 -307 0
-277 -294 -32 -50 -308 0
-277 -294 -32 50 308 0
-277 -294 32 -50 308 0
-277 -294 32 50 -308 0
-277 -294 -33 -51 -309 0
-277 -294 -33 51 309 0
-277 -294 33 -51 309 0
-277 -294 33 51 -309 0
-277 -294 -34 -52 -310 0
-277 -294 -34 52 310 0
-277 -294 34 -52 310 0
-277 -294 34 52 -310 0
-277 -294 -35 -53 -311 0
-277 -294 -35 53 311 0
-277 -294 35 -53 311 0
-277 -294 35 53 -311 0
-277 -294 -36 -54 -312 0
-277 -294 -36 54 312 0
-277 -294 36 -54 312 0
-277 -294 36 54 -312 0
-277 -295 -28 -55 -304 0
-277 -295 -28 55 304 0
-277 -295 28 -55 304 0
-277 -295 28 55 -304 0
-277 -295 -29 -56 -305 0
-277 -295 -29 56 305 0
-277 -295 29 -56 305 0
-277 -295 29 56 -305 0
-277 -295 -30 -57 -306 0
-277 -295 -30 57 306 0
-277 -295 30 -57 306 0
-277 -295 30 57 -306 0
-277 -295 -31 -58 -307 0
-277 -295 -31 58 307 0
-277 -295 31 -58 307 0
-277 -295 31 58 -307 0
-277 -295 -32 -59 -308 0
-277 -295 -32 59 308 0
-277 -295 32 -59 308 0
-277 -295 32 59 -308 0
-277 -295 -33 -60 -309 0
-277 -295 -33 60 309 0
-277 -295 33 -60 309 0
-277 -295 33 60 -309 0
-277 -295 -34 -61 -310 0
-277 -295 -34 61 310 0
-277 -295 34 -61 310 0
-277 -295 34 61 -310 0
-277 -295 -35 -62 -311 0
-277 -295 -35 62 311 0
-277 -295 35 -62 311 0
-277 -295 35 62 -311 0
-277 -295 -36 -63 -312 0
-277 -295 -36 63 312 0
-277 -295 36 -63 312 0
-277 -295 36 63 -312 0
-277 -296 -28 -64 -304 0
-277 -296 -28 64 304 0
-277 -296 28 -64 304 0
-277 -296 28 64 -304 0
-277 -296 -29 -65 -305 0
-277 -296 -29 65 305 0
-277 -296 29 -65 305 0
-277 -296 29 65 -305 0
-277 -296 -30 -66 -306 0
-277 -296 -30 66 306 0
-277 -296 30 -66 306 0
-277 -296 30 66 -306 0
-277 -296 -31 -67 -307 0
-277 -296 -31 67 307 0
-277 -296 31 -67 307 0
-277 -296 31 67 -307 0
-277 -296 -32 -68 -308 0
-277 -296 -32 68 308 0
-277 -296 32 -68 308 0
-277 -296 32 68 -308 0
-277 -296 -33 -69 -309 0
-277 -296 -33 69 309 0
-277 -296 33 -69 309 0
-277 -296 33 69 -309 0
-277 -296 -34 -70 -310 0
-277 -296 -34 70 310 0
-277 -296 34 -70 310 0
-277 -296 34 70 -310 0
-277 -296 -35 -71 -311 0
-277 -296 -35 71 311 0
-277 -296 35 -71 311 0
-277 -296 35 71 -311 0
-277 -296 -36 -72 -312 0
-277 -296 -36 72 312 0
-277 -296 36 -72 312 0
-277 -296 36 72 -312 0
-277 -297 -28 -73 -304 0
-277 -297 -28 73 304 0
-277 -297 28 -73 304 0
-277 -297 28 73 -304 0
-277 -297 -29 -74 -305 0
-277 -297 -29 74 305 0
-277 -297 29 -74 305 0
-277 -297 29 74 -305 0
-277 -297 -30 -75 -306 0
-277 -297 -30 75 306 0
-277 -297 30 -75 306 0
-277 -297 30 75 -306 0
-277 -297 -31 -76 -307 0
-277 -297 -31 76 307 0
-277 -297 31 -76 307 0
-277 -297 31 76 -307 0
-277 -297 -32 -77 -308 0
-277 -297 -32 77 308 0
-277 -297 32 -77 308 0
-277 -297 32 77 -308 0
-277 -297 -33 -78 -309 0
-277 -297 -33 78 309 0
-277 -297 33 -78 309 0
-277 -297 33 78 -309 0
-277 -297 -34 -79 -310 0
-277 -297 -34 79 310 0
-277 -297 34 -79 310 0
-277 -297 34 79 -310 0
-277 -297 -35 -80 -311 0
-277 -297 -35 80 311 0
-277 -297 35 -80 311 0
-277 -297 35 80 -311 0
-277 -297 -36 -81 -312 0
-277 -297 -36 81 312 0
-277 -297 36 -81 312 0
-277 -297 36 81 -312 0
-277 -298 -28 -100 -304 0
-277 -298 -28 100 304 0
-277 -298 28 -100 304 0
-277 -298 28 100 -304 0
-277 -298 -29 -101 -305 0
-277 -298 -29 101 305 0
-277 -298 29 -101 305 0
-277 -298 29 101 -305 0
-277 -298 -30 -102 -306 0
-277 -298 -30 102 306 0
-277 -298 30 -102 306 0
-277 -298 30 102 -306 0
-277 -298 -31 -103 -307 0
-277 -298 -31 103 307 0
-277 -298 31 -103 307 0
-277 -298 31 103 -307 0
-277 -298 -32 -104 -308 0
-277 -298 -32 104 308 0
-277 -298 32 -104 308 0
-277 -298 32 104 -308 0
-277 -298 -33 -105 -309 0
-277 -298 -33 105 309 0
-277 -298 33 -105 309 0
-277 -298 33 105 -309 0
-277 -298 -34 -106 -310 0
-277 -298 -34 106 310 0
-277 -298 34 -106 310 0
-277 -298 34 106 -310 0
-277 -298 -35 -107 -311 0
-277 -298 -35 107 311 0
-277 -298 35 -107 311 0
-277 -298 35 107 -311 0
-277 -298 -36 -108 -312 0
-277 -298 -36 108 312 0
-277 -298 36 -108 312 0
-277 -298 36 108 -312 0
-277 -299 -28 -129 -304 0
-277 -299 -28 129 304 0
-277 -299 28 -129 304 0
-277 -299 28 129 -304 0
-277 -299 -29 -130 -305 0
-277 -299 -29 130 305 0
-277 -299 29 -130 305 0
-277 -299 29 130 -305 0
-277 -299 -30 -131 -306 0
-277 -299 -30 131 306 0
-277 -299 30 -131 306 0
-277 -299 30 131 -306 0
-277 -299 -31 -132 -307 0
-277 -299 -31 132 307 0
-277 -299 31 -132 307 0
-277 -299 31 132 -307 0
-277 -299 -32 -133 -308 0
-277 -299 -32 133 308 0
-277 -299 32 -133 308 0
-277 -299 32 133 -308 0
-277 -299 -33 -134 -309 0
-277 -299 -33 134 309 0
-277 -299 33 -134 309 0
-277 -299 33 134 -309 0
-277 -299 -34 -135 -310 0
-277 -299 -34 135 310 0
-277 -299 34 -135 310 0
-277 -299 34 135 -310 0
-277 -299 -35 -136 -311 0
-277 -299 -35 136 311 0
-277 -299 35 -136 311 0
-277 -299 35 136 -311 0
-277 -299 -36 -137 -312 0
-277 -299 -36 137 312 0
-277 -299 36 -137 312 0
-277 -299 36 137 -312 0
-277 -300 -28 -160 -304 0
-277 -300 -28 160 304 0
-277 -300 28 -160 304 0
-277 -300 28 160 -304 0
-277 -300 -29 -161 -305 0
-277 -300 -29 161 305 0
-277 -300 29 -161 305 0
-277 -300 29 161 -305 0
-277 -300 -30 -162 -306 0
-277 -300 -30 162 306 0
-277 -300 30 -162 306 0
-277 -300 30 162 -306 0
-277 -300 -31 -163 -307 0
-277 -300 -31 163 307 0
-277 -300 31 -163 307 0
-277 -300 31 163 -307 0
-277 -300 -32 -164 -308 0
-277 -300 -32 164 308 0
-277 -300 32 -164 308 0
-277 -300 32 164 -308 0
-277 -300 -33 -165 -309 0
-277 -300 -33 165 309 0
-277 -300 33 -165 309 0
-277 -300 33 165 -309 0
-277 -300 -34 -166 -310 0
-277 -300 -34 166 310 0
-277 -300 34 -166 310 0
-277 -300 34 166 -310 0
-277 -300 -35 -167 -311 0
-277 -300 -35 167 311 0
-277 -300 35 -167 311 0
-277 -300 35 167 -311 0
-277 -300 -36 -168 -312 0
-277 -300 -36 168 312 0
-277 -300 36 -168 312 0
-277 -300 36 168 -312 0
-277 -301 -28 -193 -304 0
-277 -301 -28 193 304 0
-277 -301 28 -193 304 0
-277 -301 28 193 -304 0
-277 -301 -29 -194 -305 0
-277 -301 -29 194 305 0
-277 -301 29 -194 305 0
-277 -301 29 194 -305 0
-277 -301 -30 -195 -306 0
-277 -301 -30 195 306 0
-277 -301 30 -195 306 0
-277 -301 30 195 -306 0
-277 -301 -31 -196 -307 0
-277 -301 -31 196 307 0
-277 -301 31 -196 307 0
-277 -301 31 196 -307 0
-277 -301 -32 -197 -308 0
-277 -301 -32 197 308 0
-277 -301 32 -197 308 0
-277 -301 32 197 -308 0
-277 -301 -33 -198 -309 0
-277 -301 -33 198 309 0
-277 -301 33 -198 309 0
-277 -301 33 198 -309 0
-277 -301 -34 -199 -310 0
-277 -301 -34 199 310 0
-277 -301 34 -199 310 0
-277 -301 34 199 -310 0
-277 -301 -35 -200 -311 0
-277 -301 -35 200 311 0
-277 -301 35 -200 311 0
-277 -301 35 200 -311 0
-277 -301 -36 -201 -312 0
-277 -301 -36 201 312 0
-277 -301 36 -201 312 0
-277 -301 36 201 -312 0
-277 -302 -28 -228 -304 0
-277 -302 -28 228 304 0
-277 -302 28 -228 304 0
-277 -302 28 228 -304 0
-277 -302 -29 -229 -305 0
-277 -302 -29 229 305 0
-277 -302 29 -229 305 0
-277 -302 29 229 -305 0
-277 -302 -30 -230 -306 0
-277 -302 -30 230 306 0
-277 -302 30 -230 306 0
-277 -302 30 230 -306 0
-277 -302 -31 -231 -307 0
-277 -302 -31 231 307 0
-277 -302 31 -231 307 0
-277 -302 31 231 -307 0
-277 -302 -32 -232 -308 0
-277 -302 -32 232 308 0
-277 -302 32 -232 308 0
-277 -302 32 232 -308 0
-277 -302 -33 -233 -309 0
-277 -302 -33 233 309 0
-277 -302 33 -233 309 0
-277 -302 33 233 -309 0
-277 -302 -34 -234 -310 0
-277 -302 -34 234 310 0
-277 -302 34 -234 310 0
-277 -302 34 234 -310 0
-277 -302 -35 -235 -311 0
-277 -302 -35 235 311 0
-277 -302 35 -235 311 0
-277 -302 35 235 -311 0
-277 -302 -36 -236 -312 0
-277 -302 -36 236 312 0
-277 -302 36 -236 312 0
-277 -302 36 236 -312 0
-277 -303 -28 -265 -304 0
-277 -303 -28 265 304 0
-277 -303 28 -265 304 0
-277 -303 28 265 -304 0
-277 -303 -29 -266 -305 0
-277 -303 -29 266 305 0
-277 -303 29 -266 305 0
-277 -303 29 266 -305 0
-277 -303 -30 -267 -306 0
-277 -303 -30 267 306 0
-277 -303 30 -267 306 0
-277 -303 30 267 -306 0
-277 -303 -31 -268 -307 0
-277 -303 -31 268 307 0
-277 -303 31 -268 307 0
-277 -303 31 268 -307 0
-277 -303 -32 -269 -308 0
-277 -303 -32 269 308 0
-277 -303 32 -269 308 0
-277 -303 32 269 -308 0
-277 -303 -33 -270 -309 0
-277 -303 -33 270 309 0
-277 -303 33 -270 309 0
-277 -303 33 270 -309 0
-277 -303 -34 -271 -310 0
-277 -303 -34 271 310 0
-277 -303 34 -271 310 0
-277 -303 34 271 -310 0
-277 -303 -35 -272 -311 0
-277 -303 -35 272 311 0
-277 -303 35 -272 311 0
-277 -303 35 272 -311 0
-277 -303 -36 -273 -312 0
-277 -303 -36 273 312 0
-277 -303 36 -273 312 0
-277 -303 36 273 -312 0
-278 -294 -37 -46 -304 0
-278 -294 -37 46 304 0
-278 -294 37 -46 304 0
-278 -294 37 46 -304 0
-278 -294 -38 -47 -305 0
-278 -294 -38 47 305 0
-278 -294 38 -47 305 0
-278 -294 38 47 -305 0
-278 -294 -39 -48 -306 0
-278 -294 -39 48 306 0
-278 -294 39 -48 306 0
-278 -294 39 48 -306 0
-278 -294 -40 -49 -307 0
-278 -294 -40 49 307 0
-278 -294 40 -49 307 0
-278 -294 40 49 -307 0
-278 -294 -41 -50 -308 0
-278 -294 -41 50 308 0
-278 -294 41 -50 308 0
-278 -294 41 50 -308 0
-278 -294 -42 -51 -309 0
-278 -294 -42 51 309 0
-278 -294 42 -51 309 0
-278 -294 42 51 -309 0
-278 -294 -43 -52 -310 0
-278 -294 -43 52 310 0
-278 -294 43 -52 310 0
-278 -294 43 52 -310 0
-278 -294 -44 -53 -311 0
-278 -294 -44 53 311 0
-278 -294 44 -53 311 0
-278 -294 44 53 -311 0
-278 -294 -45 -54 -312 0
-278 -294 -45 54 312 0
-278 -294 45 -54 312 0
-278 -294 45 54 -312 0
-278 -295 -37 -55 -304 0
-278 -295 -37 55 304 0
-278 -295 37 -55 304 0
-278 -295 37 55 -304 0
-278 -295 -38 -56 -305 0
-278 -295 -38 56 305 0
-278 -295 38 -56 305 0
-278 -295 38 56 -305 0
-278 -295 -39 -57 -306 0
-278 -295 -39 57 306 0
-278 -295 39 -57 306 0
-278 -295 39 57 -306 0
-278 -295 -40 -58 -307 0
-278 -295 -40 58 307 0
-278 -295 40 -58 307 0
-278 -295 40 58 -307 0
-278 -295 -41 -59 -308 0
-278 -295 -41 59 308 0
-278 -295 41 -59 308 0
-278 -295 41 59 -308 0
-278 -295 -42 -60 -309 0
-278 -295 -42 60 309 0
-278 -295 42 -60 309 0
-278 -295 42 60 -309 0
-278 -295 -43 -61 -310 0
-278 -295 -43 61 310 0
-278 -295 43 -61 310 0
-278 -295 43 61 -310 0
-278 -295 -44 -62 -311 0
-278 -295 -44 62 311 0
-278 -295 44 -62 311 0
-278 -295 44 62 -311 0
-278 -295 -45 -63 -312 0
-278 -295 -45 63 312 0
-278 -295 45 -63 312 0
-278 -295 45 63 -312 0
-278 -296 -37 -64 -304 0
-278 -296 -37 64 304 0
-278 -296 37 -64 304 0
-278 -296 37 64 -304 0
-278 -296 -38 -65 -305 0
-278 -296 -38 65 305 0
-278 -296 38 -65 305 0
-278 -296 38 65 -305 0
-278 -296 -39 -66 -306 0
-278 -296 -39 66 306 0
-278 -296 39 -66 306 0
-278 -296 39 66 -306 0
-278 -296 -40 -67 -307 0
-278 -296 -40 67 307 0
-278 -296 40 -67 307 0
-278 -296 40 67 -307 0
-278 -296 -41 -68 -308 0
-278 -296 -41 68 308 0
-278 -296 41 -68 308 0
-278 -296 41 68 -308 0
-278 -296 -42 -69 -309 0
-278 -296 -42 69 309 0
-278 -296 42 -69 309 0
-278 -296 42 69 -309 0
-278 -296 -43 -70 -310 0
-278 -296 -43 70 310 0
-278 -296 43 -70 310 0
-278 -296 43 70 -310 0
-278 -296 -44 -71 -311 0
-278 -296 -44 71 311 0
-278 -296 44 -71 311 0
-278 -296 44 71 -311 0
-278 -296 -45 -72 -312 0
-278 -296 -45 72 312 0
-278 -296 45 -72 312 0
-278 -296 45 72 -312 0
-278 -297 -37 -73 -304 0
-278 -297 -37 73 304 0
-278 -297 37 -73 304 0
-278 -297 37 73 -304 0
-278 -297 -38 -74 -305 0
-278 -297 -38 74 305 0
-278 -297 38 -74 305 0
-278 -297 38 74 -305 0
-278 -297 -39 -75 -306 0
-278 -297 -39 75 306 0
-278 -297 39 -75 306 0
-278 -297 39 75 -306 0
-278 -297 -40 -76 -307 0
-278 -297 -40 76 307 0
-278 -297 40 -76 307 0
-278 -297 40 76 -307 0
-278 -297 -41 -77 -308 0
-278 -297 -41 77 308 0
-278 -297 41 -77 308 0
-278 -297 41 77 -308 0
-278 -297 -42 -78 -309 0
-278 -297 -42 78 309 0
-278 -297 42 -78 309 0
-278 -297 42 78 -309 0
-278 -297 -43 -79 -310 0
-278 -297 -43 79 310 0
-278 -297 43 -79 310 0
-278 -297 43 79 -310 0
-278 -297 -44 -80 -311 0
-278 -297 -44 80 311 0
-278 -297 44 -80 311 0
-278 -297 44 80 -311 0
-278 -297 -45 -81 -312 0
-278 -297 -45 81 312 0
-278 -297 45 -81 312 0
-278 -297 45 81 -312 0
-278 -298 -37 -100 -304 0
-278 -298 -37 100 304 0
-278 -298 37 -100 304 0
-278 -298 37 100 -304 0
-278 -298 -38 -101 -305 0
-278 -298 -38 101 305 0
-278 -298 38 -101 305 0
-278 -298 38 101 -305 0
-278 -298 -39 -102 -306 0
-278 -298 -39 102 306 0
-278 -298 39 -102 306 0
-278 -298 39 102 -306 0
-278 -298 -40 -103 -307 0
-278 -298 -40 103 307 0
-278 -298 40 -103 307 0
-278 -298 40 103 -307 0
-278 -298 -41 -104 -308 0
-278 -298 -41 104 308 0
-278 -298 41 -104 308 0
-278 -298 41 104 -308 0
-278 -298 -42 -105 -309 0
-278 -298 -42 105 309 0
-278 -298 42 -105 309 0
-278 -298 42 105 -309 0
-278 -298 -43 -106 -310 0
-278 -298 -43 106 310 0
-278 -298 43 -106 310 0
-278 -298 43 106 -310 0
-278 -298 -44 -107 -311 0
-278 -298 -44 107 311 0
-278 -298 44 -107 311 0
-278 -298 44 107 -311 0
-278 -298 -45 -108 -312 0
-278 -298 -45 108 312 0
-278 -298 45 -108 312 0
-278 -298 45 108 -312 0
-278 -299 -37 -129 -304 0
-278 -299 -37 129 304 0
-278 -299 37 -129 304 0
-278 -299 37 129 -304 0
-278 -299 -38 -130 -305 0
-278 -299 -38 130 305 0
-278 -299 38 -130 305 0
-278 -299 38 130 -305 0
-278 -299 -39 -131 -306 0
-278 -299 -39 131 306 0
-278 -299 39 -131 306 0
-278 -299 39 131 -306 0
-278 -299 -40 -132 -307 0
-278 -299 -40 132 307 0
-278 -299 40 -132 307 0
-278 -299 40 132 -307 0
-278 -299 -41 -133 -308 0
-278 -299 -41 133 308 0
-278 -299 41 -133 308 0
-278 -299 41 133 -308 0
-278 -299 -42 -134 -309 0
-278 -299 -42 134 309 0
-278 -299 42 -134 309 0
-278 -299 42 134 -309 0
-278 -299 -43 -135 -310 0
-278 -299 -43 135 310 0
-278 -299 43 -135 310 0
-278 -299 43 135 -310 0
-278 -299 -44 -136 -311 0
-278 -299 -44 136 311 0
-278 -299 44 -136 311 0
-278 -299 44 136 -311 0
-278 -299 -45 -137 -312 0
-278 -299 -45 137 312 0
-278 -299 45 -137 312 0
-278 -299 45 137 -312 0
-278 -300 -37 -160 -304 0
-278 -300 -37 160 304 0
-278 -300 37 -160 304 0
-278 -300 37 160 -304 0
-278 -300 -38 -161 -305 0
-278 -300 -38 161 305 0
-278 -300 38 -161 305 0
-278 -300 38 161 -305 0
-278 -300 -39 -162 -306 0
-278 -300 -39 162 306 0
-278 -300 39 -162 306 0
-278 -300 39 162 -306 0
-278 -300 -40 -163 -307 0
-278 -300 -40 163 307 0
-278 -300 40 -163 307 0
-278 -300 40 163 -307 0
-278 -300 -41 -164 -308 0
-278 -300 -41 164 308 0
-278 -300 41 -164 308 0
-278 -300 41 164 -308 0
-278 -300 -42 -165 -309 0
-278 -300 -42 165 309 0
-278 -300 42 -165 309 0
-278 -300 42 165 -309 0
-278 -300 -43 -166 -310 0
-278 -300 -43 166 310 0
-278 -300 43 -166 310 0
-278 -300 43 166 -310 0
-278 -300 -44 -167 -311 0
-278 -300 -44 167 311 0
-278 -300 44 -167 311 0
-278 -300 44 167 -311 0
-278 -300 -45 -168 -312 0
-278 -300 -45 168 312 0
-278 -300 45 -168 312 0
-278 -300 45 168 -312 0
-278 -301 -37 -193 -304 0
-278 -301 -37 193 304 0
-278 -301 37 -193 304 0
-278 -301 37 193 -304 0
-278 -301 -38 -194 -305 0
-278 -301 -38 194 305 0
-278 -301 38 -194 305 0
-278 -301 38 194 -305 0
-278 -301 -39 -195 -306 0
-278 -301 -39 195 306 0
-278 -301 39 -195 306 0
-278 -301 39 195 -306 0
-278 -301 -40 -196 -307 0
-278 -301 -40 196 307 0
-278 -301 40 -196 307 0
-278 -301 40 196 -307 0
-278 -301 -41 -197 -308 0
-278 -301 -41 197 308 0
-278 -301 41 -197 308 0
-278 -301 41 197 -308 0
-278 -301 -42 -198 -309 0
-278 -301 -42 198 309 0
-278 -301 42 -198 309 0
-278 -301 42 198 -309 0
-278 -301 -43 -199 -310 0
-278 -301 -43 199 310 0
-278 -301 43 -199 310 0
-278 -301 43 199 -310 0
-278 -301 -44 -200 -311 0
-278 -301 -44 200 311 0
-278 -301 44 -200 311 0
-278 -301 44 200 -311 0
-278 -301 -45 -201 -312 0
-278 -301 -45 201 312 0
-278 -301 45 -201 312 0
-278 -301 45 201 -312 0
-278 -302 -37 -228 -304 0
-278 -302 -37 228 304 0
-278 -302 37 -228 304 0
-278 -302 37 228 -304 0
-278 -302 -38 -229 -305 0
-278 -302 -38 229 305 0
-278 -302 38 -229 305 0
-278 -302 38 229 -305 0
-278 -302 -39 -230 -306 0
-278 -302 -39 230 306 0
-278 -302 39 -230 306 0
-278 -302 39 230 -306 0
-278 -302 -40 -231 -307 0
-278 -302 -40 231 307 0
-278 -302 40 -231 307 0
-278 -302 40 231 -307 0
-278 -302 -41 -232 -308 0
-278 -302 -41 232 308 0
-278 -302 41 -232 308 0
-278 -302 41 232 -308 0
-278 -302 -42 -233 -309 0
-278 -302 -42 233 309 0
-278 -302 42 -233 309 0
-278 -302 42 233 -309 0
-278 -302 -43 -234 -310 0
-278 -302 -43 234 310 0
-278 -302 43 -234 310 0
-278 -302 43 234 -310 0
-278 -302 -44 -235 -311 0
-278 -302 -44 235 311 0
-278 -302 44 -235 311 0
-278 -302 44 235 -311 0
-278 -302 -45 -236 -312 0
-278 -302 -45 236 312 0
-278 -302 45 -236 312 0
-278 -302 45 236 -312 0
-278 -303 -37 -265 -304 0
-278 -303 -37 265 304 0
-278 -303 37 -265 304 0
-278 -303 37 265 -304 0
-278 -303 -38 -266 -305 0
-278 -303 -38 266 305 0
-278 -303 38 -266 305 0
-278 -303 38 266 -305 0
-278 -303 -39 -267 -306 0
-278 -303 -39 267 306 0
-278 -303 39 -267 306 0
-278 -303 39 267 -306 0
-278 -303 -40 -268 -307 0
-278 -303 -40 268 307 0
-278 -303 40 -268 307 0
-278 -303 40 268 -307 0
-278 -303 -41 -269 -308 0
-278 -303 -41 269 308 0
-278 -303 41 -269 308 0
-278 -303 41 269 -308 0
-278 -303 -42 -270 -309 0
-278 -303 -42 270 309 0
-278 -303 42 -270 309 0
-278 -303 42 270 -309 0
-278 -303 -43 -271 -310 0
-278 -303 -43 271 310 0
-278 -303 43 -271 310 0
-278 -303 43 271 -310 0
-278 -303 -44 -272 -311 0
-278 -303 -44 272 311 0
-278 -303 44 -272 311 0
-278 -303 44 272 -311 0
-278 -303 -45 -273 -312 0
-278 -303 -45 273 312 0
-278 -303 45 -273 312 0
-278 -303 45 273 -312 0
-279 -295 -46 -55 -304 0
-279 -295 -46 55 304 0
-279 -295 46 -55 304 0
-279 -295 46 55 -304 0
-279 -295 -47 -56 -305 0
-279 -295 -47 56 305 0
-279 -295 47 -56 305 0
-279 -295 47 56 -305 0
-279 -295 -48 -57 -306 0
-279 -295 -48 57 306 0
-279 -295 48 -57 306 0
-279 -295 48 57 -306 0
-279 -295 -49 -58 -307 0
-279 -295 -49 58 307 0
-279 -295 49 -58 307 0
-279 -295 49 58 -307 0
-279 -295 -50 -59 -308 0
-279 -295 -50 59 308 0
-279 -295 50 -59 308 0
-279 -295 50 59 -308 0
-279 -295 -51 -60 -309 0
-279 -295 -51 60 309 0
-279 -295 51 -60 309 0
-279 -295 51 60 -309 0
-279 -295 -52 -61 -310 0
-279 -295 -52 61 310 0
-279 -295 52 -61 310 0
-279 -295 52 61 -310 0
-279 -295 -53 -62 -311 0
-279 -295 -53 62 311 0
-279 -295 53 -62 311 0
-279 -295 53 62 -311 0
-279 -295 -54 -63 -312 0
-279 -295 -54 63 312 0
-279 -295 54 -63 312 0
-279 -295 54 63 -312 0
-279 -296 -46 -64 -304 0
-279 -296 -46 64 304 0
-279 -296 46 -64 304 0
-279 -296 46 64 -304 0
-279 -296 -47 -65 -305 0
-279 -296 -47 65 305 0
-279 -296 47 -65 305 0
-279 -296 47 65 -305 0
-279 -296 -48 -66 -306 0
-279 -296 -48 66 306 0
-279 -296 48 -66 306 0
-279 -296 48 66 -306 0
-279 -296 -49 -67 -307 0
-279 -296 -49 67 307 0
-279 -296 49 -67 307 0
-279 -296 49 67 -307 0
-279 -296 -50 -68 -308 0
-279 -296 -50 68 308 0
-279 -296 50 -68 308 0
-279 -296 50 68 -308 0
-279 -296 -51 -69 -309 0
-279 -296 -51 69 309 0
-279 -296 51 -69 309 0
-279 -296 51 69 -309 0
-279 -296 -52 -70 -310 0
-279 -296 -52 70 310 0
-279 -296 52 -70 310 0
-279 -296 52 70 -310 0
-279 -296 -53 -71 -311 0
-279 -296 -53 71 311 0
-279 -296 53 -71 311 0
-279 -296 53 71 -311 0
-279 -296 -54 -72 -312 0
-279 -296 -54 72 312 0
-279 -296 54 -72 312 0
-279 -296 54 72 -312 0
-279 -297 -46 -73 -304 0
-279 -297 -46 73 304 0
-279 -297 46 -73 304 0
-279 -297 46 73 -304 0
-279 -297 -47 -74 -305 0
-279 -297 -47 74 305 0
-279 -297 47 -74 305 0
-279 -297 47 74 -305 0
-279 -297 -48 -75 -306 0
-279 -297 -48 75 306 0
-279 -297 48 -75 306 0
-279 -297 48 75 -306 0
-279 -297 -49 -76 -307 0
-279 -297 -49 76 307 0
-279 -297 49 -76 307 0
-279 -297 49 76 -307 0
-279 -297 -50 -77 -308 0
-279 -297 -50 77 308 0
-279 -297 50 -77 308 0
-279 -297 50 77 -308 0
-279 -297 -51 -78 -309 0
-279 -297 -51 78 309 0
-279 -297 51 -78 309 0
-279 -297 51 78 -309 0
-279 -297 -52 -79 -310 0
-279 -297 -52 79 310 0
-279 -297 52 -79 310 0
-279 -297 52 79 -310 0
-279 -297 -53 -80 -311 0
-279 -297 -53 80 311 0
-279 -297 53 -80 311 0
-279 -297 53 80 -311 0
-279 -297 -54 -81 -312 0
-279 -297 -54 81 312 0
-279 -297 54 -81 312 0
-279 -297 54 81 -312 0
-279 -298 -46 -100 -304 0
-279 -298 -46 100 304 0
-279 -298 46 -100 304 0
-279 -298 46 100 -304 0
-279 -298 -47 -101 -305 0
-279 -298 -47 101 305 0
-279 -298 47 -101 305 0
-279 -298 47 101 -305 0
-279 -298 -48 -102 -306 0
-279 -298 -48 102 306 0
-279 -298 48 -102 306 0
-279 -298 48 102 -306 0
-279 -298 -49 -103 -307 0
-279 -298 -49 103 307 0
-279 -298 49 -103 307 0
-279 -298 49 103 -307 0
-279 -298 -50 -104 -308 0
-279 -298 -50 104 308 0
-279 -298 50 -104 308 0
-279 -298 50 104 -308 0
-279 -298 -51 -105 -309 0
-279 -298 -51 105 309 0
-279 -298 51 -105 309 0
-279 -298 51 105 -309 0
-279 -298 -52 -106 -310 0
-279 -298 -52 106 310 0
-279 -298 52 -106 310 0
-279 -298 52 106 -310 0
-279 -298 -53 -107 -311 0
-279 -298 -53 107 311 0
-279 -298 53 -107 311 0
-279 -298 53 107 -311 0
-279 -298 -54 -108 -312 0
-279 -298 -54 108 312 0
-279 -298 54 -108 312 0
-279 -298 54 108 -312 0
-279 -299 -46 -129 -304 0
-279 -299 -46 129 304 0
-279 -299 46 -129 304 0
-279 -299 46 129 -304 0
-279 -299 -47 -130 -305 0
-279 -299 -47 130 305 0
-279 -299 47 -130 305 0
-279 -299 47 130 -305 0
-279 -299 -48 -131 -306 0
-279 -299 -48 131 306 0
-279 -299 48 -131 306 0
-279 -299 48 131 -306 0
-279 -299 -49 -132 -307 0
-279 -299 -49 132 307 0
-279 -299 49 -132 307 0
-279 -299 49 132 -307 0
-279 -299 -50 -133 -308 0
-279 -299 -50 133 308 0
-279 -299 50 -133 308 0
-279 -299 50 133 -308 0
-279 -299 -51 -134 -309 0
-279 -299 -51 134 309 0
-279 -299 51 -134 309 0
-279 -299 51 134 -309 0
-279 -299 -52 -135 -310 0
-279 -299 -52 135 310 0
-279 -299 52 -135 310 0
-279 -299 52 135 -310 0
-279 -299 -53 -136 -311 0
-279 -299 -53 136 311 0
-279 -299 53 -136 311 0
-279 -299 53 136 -311 0
-279 -299 -54 -137 -312 0
-279 -299 -54 137 312 0
-279 -299 54 -137 312 0
-279 -299 54 137 -312 0
-279 -300 -46 -160 -304 0
-279 -300 -46 160 304 0
-279 -300 46 -160 304 0
-279 -300 46 160 -304 0
-279 -300 -47 -161 -305 0
-279 -300 -47 161 305 0
-279 -300 47 -161 305 0
-279 -300 47 161 -305 0
-279 -300 -48 -162 -306 0
-279 -300 -48 162 306 0
-279 -300 48 -162 306 0
-279 -300 48 162 -306 0
-279 -300 -49 -163 -307 0
-279 -300 -49 163 307 0
-279 -300 49 -163 307 0
-279 -300 49 163 -307 0
-279 -300 -50 -164 -308 0
-279 -300 -50 164 308 0
-279 -300 50 -164 308 0
-279 -300 50 164 -308 0
-279 -300 -51 -165 -309 0
-279 -300 -51 165 309 0
-279 -300 51 -165 309 0
-279 -300 51 165 -309 0
-279 -300 -52 -166 -310 0
-279 -300 -52 166 310 0
-279 -300 52 -166 310 0
-279 -300 52 166 -310 0
-279 -300 -53 -167 -311 0
-279 -300 -53 167 311 0
-279 -300 53 -167 311 0
-279 -300 53 167 -311 0
-279 -300 -54 -168 -312 0
-279 -300 -54 168 312 0
-279 -300 54 -168 312 0
-279 -300 54 168 -312 0
-279 -301 -46 -193 -304 0
-279 -301 -46 193 304 0
-279 -301 46 -193 304 0
-279 -301 46 193 -304 0
-279 -301 -47 -194 -305 0
-279 -301 -47 194 305 0
-279 -301 47 -194 305 0
-279 -301 47 194 -305 0
-279 -301 -48 -195 -306 0
-279 -301 -48 195 306 0
-279 -301 48 -195 306 0
-279 -301 48 195 -306 0
-279 -301 -49 -196 -307 0
-279 -301 -49 196 307 0
-279 -301 49 -196 307 0
-279 -301 49 196 -307 0
-279 -301 -50 -197 -308 0
-279 -301 -50 197 308 0
-279 -301 50 -197 308 0
-279 -301 50 197 -308 0
-279 -301 -51 -198 -309 0
-279 -301 -51 198 309 0
-279 -301 51 -198 309 0
-279 -301 51 198 -309 0
-279 -301 -52 -199 -310 0
-279 -301 -52 199 310 0
-279 -301 52 -199 310 0
-279 -301 52 199 -310 0
-279 -301 -53 -200 -311 0
-279 -301 -53 200 311 0
-279 -301 53 -200 311 0
-279 -301 53 200 -311 0
-279 -301 -54 -201 -312 0
-279 -301 -54 201 312 0
-279 -301 54 -201 312 0
-279 -301 54 201 -312 0
-279 -302 -46 -228 -304 0
-279 -302 -46 228 304 0
-279 -302 46 -228 304 0
-279 -302 46 228 -304 0
-279 -302 -47 -229 -305 0
-279 -302 -47 229 305 0
-279 -302 47 -229 305 0
-279 -302 47 229 -305 0
-279 -302 -48 -230 -306 0
-279 -302 -48 230 306 0
-279 -302 48 -230 306 0
-279 -302 48 230 -306 0
-279 -302 -49 -231 -307 0
-279 -302 -49 231 307 0
-279 -302 49 -231 307 0
-279 -302 49 231 -307 0
-279 -302 -50 -232 -308 0
-279 -302 -50 232 308 0
-279 -302 50 -232 308 0
-279 -302 50 232 -308 0
-279 -302 -51 -233 -309 0
-279 -302 -51 233 309 0
-279 -302 51 -233 309 0
-279 -302 51 233 -309 0
-279 -302 -52 -234 -310 0
-279 -302 -52 234 310 0
-279 -302 52 -234 310 0
-279 -302 52 234 -310 0
-279 -302 -53 -235 -311 0
-279 -302 -53 235 311 0
-279 -302 53 -235 311 0
-279 -302 53 235 -311 0
-279 -302 -54 -236 -312 0
-279 -302 -54 236 312 0
-279 -302 54 -236 312 0
-279 -302 54 236 -312 0
-279 -303 -46 -265 -304 0
-279 -303 -46 265 304 0
-279 -303 46 -265 304 0
-279 -303 46 265 -304 0
-279 -303 -47 -266 -305 0
-279 -303 -47 266 305 0
-279 -303 47 -266 305 0
-279 -303 47 266 -305 0
-279 -303 -48 -267 -306 0
-279 -303 -48 267 306 0
-279 -303 48 -267 306 0
-279 -303 48 267 -306 0
-279 -303 -49 -268 -307 0
-279 -303 -49 268 307 0
-279 -303 49 -268 307 0
-279 -303 49 268 -307 0
-279 -303 -50 -269 -308 0
-279 -303 -50 269 308 0
-279 -303 50 -269 308 0
-279 -303 50 269 -308 0
-279 -303 -51 -270 -309 0
-279 -303 -51 270 309 0
-279 -303 51 -270 309 0
-279 -303 51 270 -309 0
-279 -303 -52 -271 -310 0
-279 -303 -52 271 310 0
-279 -303 52 -271 310 0
-279 -303 52 271 -310 0
-279 -303 -53 -272 -311 0
-279 -303 -53 272 311 0
-279 -303 53 -272 311 0
-279 -303 53 272 -311 0
-279 -303 -54 -273 -312 0
-279 -303 -54 273 312 0
-279 -303 54 -273 312 0
-279 -303 54 273 -312 0
-280 -296 -55 -64 -304 0
-280 -296 -55 64 304 0
-280 -296 55 -64 304 0
-280 -296 55 64 -304 0
-280 -296 -56 -65 -305 0
-280 -296 -56 65 305 0
-280 -296 56 -65 305 0
-280 -296 56 65 -305 0
-280 -296 -57 -66 -306 0
-280 -296 -57 66 306 0
-280 -296 57 -66 306 0
-280 -296 57 66 -306 0
-280 -296 -58 -67 -307 0
-280 -296 -58 67 307 0
-280 -296 58 -67 307 0
-280 -296 58 67 -307 0
-280 -296 -59 -68 -308 0
-280 -296 -59 68 308 0
-280 -296 59 -68 308 0
-280 -296 59 68 -308 0
-280 -296 -60 -69 -309 0
-280 -296 -60 69 309 0
-280 -296 60 -69 309 0
-280 -296 60 69 -309 0
-280 -296 -61 -70 -310 0
-280 -296 -61 70 310 0
-280 -296 61 -70 310 0
-280 -296 61 70 -310 0
-280 -296 -62 -71 -311 0
-280 -296 -62 71 311 0
-280 -296 62 -71 311 0
-280 -296 62 71 -311 0
-280 -296 -63 -72 -312 0
-280 -296 -63 72 312 0
-280 -296 63 -72 312 0
-280 -296 63 72 -312 0
-280 -297 -55 -73 -304 0
-280 -297 -55 73 304 0
-280 -297 55 -73 304 0
-280 -297 55 73 -304 0
-280 -297 -56 -74 -305 0
-280 -297 -56 74 305 0
-280 -297 56 -74 305 0
-280 -297 56 74 -305 0
-280 -297 -57 -75 -306 0
-280 -297 -57 75 306 0
-280 -297 57 -75 306 0
-280 -297 57 75 -306 0
-280 -297 -58 -76 -307 0
-280 -297 -58 76 307 0
-280 -297 58 -76 307 0
-280 -297 58 76 -307 0
-280 -297 -59 -77 -308 0
-280 -297 -59 77 308 0
-280 -297 59 -77 308 0
-280 -297 59 77 -308 0
-280 -297 -60 -78 -309 0
-280 -297 -60 78 309 0
-280 -297 60 -78 309 0
-280 -297 60 78 -309 0
-280 -297 -61 -79 -310 0
-280 -297 -61 79 310 0
-280 -297 61 -79 310 0
-280 -297 61 79 -310 0
-280 -297 -62 -80 -311 0
-280 -297 -62 80 311 0
-280 -297 62 -80 311 0
-280 -297 62 80 -311 0
-280 -297 -63 -81 -312 0
-280 -297 -63 81 312 0
-280 -297 63 -81 312 0
-280 -297 63 81 -312 0
-280 -298 -55 -100 -304 0
-280 -298 -55 100 304 0
-280 -298 55 -100 304 0
-280 -298 55 100 -304 0
-280 -298 -56 -101 -305 0
-280 -298 -56 101 305 0
-280 -298 56 -101 305 0
-280 -298 56 101 -305 0
-280 -298 -57 -102 -306 0
-280 -298 -57 102 306 0
-280 -298 57 -102 306 0
-280 -298 57 102 -306 0
-280 -298 -58 -103 -307 0
-280 -298 -58 103 307 0
-280 -298 58 -103 307 0
-280 -298 58 103 -307 0
-280 -298 -59 -104 -308 0
-280 -298 -59 104 308 0
-280 -298 59 -104 308 0
-280 -298 59 104 -308 0
-280 -298 -60 -105 -309 0
-280 -298 -60 105 309 0
-280 -298 60 -105 309 0
-280 -298 60 105 -309 0
-280 -298 -61 -106 -310 0
-280 -298 -61 106 310 0
-280 -298 61 -106 310 0
-280 -298 61 106 -310 0
-280 -298 -62 -107 -311 0
-280 -298 -62 107 311 0
-280 -298 62 -107 311 0
-280 -298 62 107 -311 0
-280 -298 -63 -108 -312 0
-280 -298 -63 108 312 0
-280 -298 63 -108 312 0
-280 -298 63 108 -312 0
-280 -299 -55 -129 -304 0
-280 -299 -55 129 304 0
-280 -299 55 -129 304 0
-280 -299 55 129 -304 0
-280 -299 -56 -130 -305 0
-280 -299 -56 130 305 0
-280 -299 56 -130 305 0
-280 -299 56 130 -305 0
-280 -299 -57 -131 -306 0
-280 -299 -57 131 306 0
-280 -299 57 -131 306 0
-280 -299 57 131 -306 0
-280 -299 -58 -132 -307 0
-280 -299 -58 132 307 0
-280 -299 58 -132 307 0
-280 -299 58 132 -307 0
-280 -299 -59 -133 -308 0
-280 -299 -59 133 308 0
-280 -299 59 -133 308 0
-280 -299 59 133 -308 0
-280 -299 -60 -134 -309 0
-280 -299 -60 134 309 0
-280 -299 60 -134 309 0
-280 -299 60 134 -309 0
-280 -299 -61 -135 -310 0
-280 -299 -61 135 310 0
-280 -299 61 -135 310 0
-280 -299 61 135 -310 0
-280 -299 -62 -136 -311 0
-280 -299 -62 136 311 0
-280 -299 62 -136 311 0
-280 -299 62 136 -311 0
-280 -299 -63 -137 -312 0
-280 -299 -63 137 312 0
-280 -299 63 -137 312 0
-280 -299 63 137 -312 0
-280 -300 -55 -160 -304 0
-280 -300 -55 160 304 0
-280 -300 55 -160 304 0
-280 -300 55 160 -304 0
-280 -300 -56 -161 -305 0
-280 -300 -56 161 305 0
-280 -300 56 -161 305 0
-280 -300 56 161 -305 0
-280 -300 -57 -162 -306 0
-280 -300 -57 162 306 0
-280 -300 57 -162 306 0
-280 -300 57 162 -306 0
-280 -300 -58 -163 -307 0
-280 -300 -58 163 307 0
-280 -300 58 -163 307 0
-280 -300 58 163 -307 0
-280 -300 -59 -164 -308 0
-280 -300 -59 164 308 0
-280 -300 59 -164 308 0
-280 -300 59 164 -308 0
-280 -300 -60 -165 -309 0
-280 -300 -60 165 309 0
-280 -300 60 -165 309 0
-280 -300 60 165 -309 0
-280 -300 -61 -166 -310 0
-280 -300 -61 166 310 0
-280 -300 61 -166 310 0
-280 -300 61 166 -310 0
-280 -300 -62 -167 -311 0
-280 -300 -62 167 311 0
-280 -300 62 -167 311 0
-280 -300 62 167 -311 0
-280 -300 -63 -168 -312 0
-280 -300 -63 168 312 0
-280 -300 63 -168 312 0
-280 -300 63 168 -312 0
-280 -301 -55 -193 -304 0
-280 -301 -55 193 304 0
-280 -301 55 -193 304 0
-280 -301 55 193 -304 0
-280 -301 -56 -194 -305 0
-280 -301 -56 194 305 0
-280 -301 56 -194 305 0
-280 -301 56 194 -305 0
-280 -301 -57 -195 -306 0
-280 -301 -57 195 306 0
-280 -301 57 -195 306 0
-280 -301 57 195 -306 0
-280 -301 -58 -196 -307 0
-280 -301 -58 196 307 0
-280 -301 58 -196 307 0
-280 -301 58 196 -307 0
-280 -301 -59 -197 -308 0
-280 -301 -59 197 308 0
-280 -301 59 -197 308 0
-280 -301 59 197 -308 0
-280 -301 -60 -198 -309 0
-280 -301 -60 198 309 0
-280 -301 60 -198 309 0
-280 -301 60 198 -309 0
-280 -301 -61 -199 -310 0
-280 -301 -61 199 310 0
-280 -301 61 -199 310 0
-280 -301 61 199 -310 0
-280 -301 -62 -200 -311 0
-280 -301 -62 200 311 0
-280 -301 62 -200 311 0
-280 -301 62 200 -311 0
-280 -301 -63 -201 -312 0
-280 -301 -63 201 312 0
-280 -301 63 -201 312 0
-280 -301 63 201 -312 0
-280 -302 -55 -228 -304 0
-280 -302 -55 228 304 0
-280 -302 55 -228 304 0
-280 -302 55 228 -304 0
-280 -302 -56 -229 -305 0
-280 -302 -56 229 305 0
-280 -302 56 -229 305 0
-280 -302 56 229 -305 0
-280 -302 -57 -230 -306 0
-280 -302 -57 230 306 0
-280 -302 57 -230 306 0
-280 -302 57 230 -306 0
-280 -302 -58 -231 -307 0
-280 -302 -58 231 307 0
-280 -302 58 -231 307 0
-280 -302 58 231 -307 0
-280 -302 -59 -232 -308 0
-280 -302 -59 232 308 0
-280 -302 59 -232 308 0
-280 -302 59 232 -308 0
-280 -302 -60 -233 -309 0
-280 -302 -60 233 309 0
-280 -302 60 -233 309 0
-280 -302 60 233 -309 0
-280 -302 -61 -234 -310 0
-280 -302 -61 234 310 0
-280 -302 61 -234 310 0
-280 -302 61 234 -310 0
-280 -302 -62 -235 -311 0
-280 -302 -62 235 311 0
-280 -302 62 -235 311 0
-280 -302 62 235 -311 0
-280 -302 -63 -236 -312 0
-280 -302 -63 236 312 0
-280 -302 63 -236 312 0
-280 -302 63 236 -312 0
-280 -303 -55 -265 -304 0
-280 -303 -55 265 304 0
-280 -303 55 -265 304 0
-280 -303 55 265 -304 0
-280 -303 -56 -266 -305 0
-280 -303 -56 266 305 0
-280 -303 56 -266 305 0
-280 -303 56 266 -305 0
-280 -303 -57 -267 -306 0
-280 -303 -57 267 306 0
-280 -303 57 -267 306 0
-280 -303 57 267 -306 0
-280 -303 -58 -268 -307 0
-280 -303 -58 268 307 0
-280 -303 58 -268 307 0
-280 -303 58 268 -307 0
-280 -303 -59 -269 -308 0
-280 -303 -59 269 308 0
-280 -303 59 -269 308 0
-280 -303 59 269 -308 0
-280 -303 -60 -270 -309 0
-280 -303 -60 270 309 0
-280 -303 60 -270 309 0
-280 -303 60 270 -309 0
-280 -303 -61 -271 -310 0
-280 -303 -61 271 310 0
-280 -303 61 -271 310 0
-280 -303 61 271 -310 0
-280 -303 -62 -272 -311 0
-280 -303 -62 272 311 0
-280 -303 62 -272 311 0
-280 -303 62 272 -311 0
-280 -303 -63 -273 -312 0
-280 -303 -63 273 312 0
-280 -303 63 -273 312 0
-280 -303 63 273 -312 0
-281 -297 -64 -73 -304 0
-281 -297 -64 73 304 0
-281 -297 64 -73 304 0
-281 -297 64 73 -304 0
-281 -297 -65 -74 -305 0
-281 -297 -65 74 305 0
-281 -297 65 -74 305 0
-281 -297 65 74 -305 0
-281 -297 -66 -75 -306 0
-281 -297 -66 75 306 0
-281 -297 66 -75 306 0
-281 -297 66 75 -306 0
-281 -297 -67 -76 -307 0
-281 -297 -67 76 307 0
-281 -297 67 -76 307 0
-281 -297 67 76 -307 0
-281 -297 -68 -77 -308 0
-281 -297 -68 77 308 0
-281 -297 68 -77 308 0
-281 -297 68 77 -308 0
-281 -297 -69 -78 -309 0
-281 -297 -69 78 309 0
-281 -297 69 -78 309 0
-281 -297 69 78 -309 0
-281 -297 -70 -79 -310 0
-281 -297 -70 79 310 0
-281 -297 70 -79 310 0
-281 -297 70 79 -310 0
-281 -297 -71 -80 -311 0
-281 -297 -71 80 311 0
-281 -297 71 -80 311 0
-281 -297 71 80 -311 0
-281 -297 -72 -81 -312 0
-281 -297 -72 81 312 0
-281 -297 72 -81 312 0
-281 -297 72 81 -312 0
-281 -298 -64 -100 -304 0
-281 -298 -64 100 304 0
-281 -298 64 -100 304 0
-281 -298 64 100 -304 0
-281 -298 -65 -101 -305 0
-281 -298 -65 101 305 0
-281 -298 65 -101 305 0
-281 -298 65 101 -305 0
-281 -298 -66 -102 -306 0
-281 -298 -66 102 306 0
-281 -298 66 -102 306 0
-281 -298 66 102 -306 0
-281 -298 -67 -103 -307 0
-281 -298 -67 103 307 0
-281 -298 67 -103 307 0
-281 -298 67 103 -307 0
-281 -298 -68 -104 -308 0
-281 -298 -68 104 308 0
-281 -298 68 -104 308 0
-281 -298 68 104 -308 0
-281 -298 -69 -105 -309 0
-281 -298 -69 105 309 0
-281 -298 69 -105 309 0
-281 -298 69 105 -309 0
-281 -298 -70 -106 -310 0
-281 -298 -70 106 310 0
-281 -298 70 -106 310 0
-281 -298 70 106 -310 0
-281 -298 -71 -107 -311 0
-281 -298 -71 107 311 0
-281 -298 71 -107 311 0
-281 -298 71 107 -311 0
-281 -298 -72 -108 -312 0
-281 -298 -72 108 312 0
-281 -298 72 -108 312 0
-281 -298 72 108 -312 0
-281 -299 -64 -129 -304 0
-281 -299 -64 129 304 0
-281 -299 64 -129 304 0
-281 -299 64 129 -304 0
-281 -299 -65 -130 -305 0
-281 -299 -65 130 305 0
-281 -299 65 -130 305 0
-281 -299 65 130 -305 0
-281 -299 -66 -131 -306 0
-281 -299 -66 131 306 0
-281 -299 66 -131 306 0
-281 -299 66 131 -306 0
-281 -299 -67 -132 -307 0
-281 -299 -67 132 307 0
-281 -299 67 -132 307 0
-281 -299 67 132 -307 0
-281 -299 -68 -133 -308 0
-281 -299 -68 133 308 0
-281 -299 68 -133 308 0
-281 -299 68 133 -308 0
-281 -299 -69 -134 -309 0
-281 -299 -69 134 309 0
-281 -299 69 -134 309 0
-281 -299 69 134 -309 0
-281 -299 -70 -135 -310 0
-281 -299 -70 135 310 0
-281 -299 70 -135 310 0
-281 -299 70 135 -310 0
-281 -299 -71 -136 -311 0
-281 -299 -71 136 311 0
-281 -299 71 -136 311 0
-281 -299 71 136 -311 0
-281 -299 -72 -137 -312 0
-281 -299 -72 137 312 0
-281 -299 72 -137 312 0
-281 -299 72 137 -312 0
-281 -300 -64 -160 -304 0
-281 -300 -64 160 304 0
-281 -300 64 -160 304 0
-281 -300 64 160 -304 0
-281 -300 -65 -161 -305 0
-281 -300 -65 161 305 0
-281 -300 65 -161 305 0
-281 -300 65 161 -305 0
-281 -300 -66 -162 -306 0
-281 -300 -66 162 306 0
-281 -300 66 -162 306 0
-281 -300 66 162 -306 0
-281 -300 -67 -163 -307 0
-281 -300 -67 163 307 0
-281 -300 67 -163 307 0
-281 -300 67 163 -307 0
-281 -300 -68 -164 -308 0
-281 -300 -68 164 308 0
-281 -300 68 -164 308 0
-281 -300 68 164 -308 0
-281 -300 -69 -165 -309 0
-281 -300 -69 165 309 0
-281 -300 69 -165 309 0
-281 -300 69 165 -309 0
-281 -300 -70 -166 -310 0
-281 -300 -70 166 310 0
-281 -300 70 -166 310 0
-281 -300 70 166 -310 0
-281 -300 -71 -167 -311 0
-281 -300 -71 167 311 0
-281 -300 71 -167 311 0
-281 -300 71 167 -311 0
-281 -300 -72 -168 -312 0
-281 -300 -72 168 312 0
-281 -300 72 -168 312 0
-281 -300 72 168 -312 0
-281 -301 -64 -193 -304 0
-281 -301 -64 193 304 0
-281 -301 64 -193 304 0
-281 -301 64 193 -304 0
-281 -301 -65 -194 -305 0
-281 -301 -65 194 305 0
-281 -301 65 -194 305 0
-281 -301 65 194 -305 0
-281 -301 -66 -195 -306 0
-281 -301 -66 195 306 0
-281 -301 66 -195 306 0
-281 -301 66 195 -306 0
-281 -301 -67 -196 -307 0
-281 -301 -67 196 307 0
-281 -301 67 -196 307 0
-281 -301 67 196 -307 0
-281 -301 -68 -197 -308 0
-281 -301 -68 197 308 0
-281 -301 68 -197 308 0
-281 -301 68 197 -308 0
-281 -301 -69 -198 -309 0
-281 -301 -69 198 309 0
-281 -301 69 -198 309 0
-281 -301 69 198 -309 0
-281 -301 -70 -199 -310 0
-281 -301 -70 199 310 0
-281 -301 70 -199 310 0
-281 -301 70 199 -310 0
-281 -301 -71 -200 -311 0
-281 -301 -71 200 311 0
-281 -301 71 -200 311 0
-281 -301 71 200 -311 0
-281 -301 -72 -201 -312 0
-281 -301 -72 201 312 0
-281 -301 72 -201 312 0
-281 -301 72 201 -312 0
-281 -302 -64 -228 -304 0
-281 -302 -64 228 304 0
-281 -302 64 -228 304 0
-281 -302 64 228 -304 0
-281 -302 -65 -229 -305 0
-281 -302 -65 229 305 0
-281 -302 65 -229 305 0
-281 -302 65 229 -305 0
-281 -302 -66 -230 -306 0
-281 -302 -66 230 306 0
-281 -302 66 -230 306 0
-281 -302 66 230 -306 0
-281 -302 -67 -231 -307 0
-281 -302 -67 231 307 0
-281 -302 67 -231 307 0
-281 -302 67 231 -307 0
-281 -302 -68 -232 -308 0
-281 -302 -68 232 308 0
-281 -302 68 -232 308 0
-281 -302 68 232 -308 0
-281 -302 -69 -233 -309 0
-281 -302 -69 233 309 0
-281 -302 69 -233 309 0
-281 -302 69 233 -309 0
-281 -302 -70 -234 -310 0
-281 -302 -70 234 310 0
-281 -302 70 -234 310 0
-281 -302 70 234 -310 0
-281 -302 -71 -235 -311 0
-281 -302 -71 235 311 0
-281 -302 71 -235 311 0
-281 -302 71 235 -311 0
-281 -302 -72 -236 -312 0
-281 -302 -72 236 312 0
-281 -302 72 -236 312 0
-281 -302 72 236 -312 0
-281 -303 -64 -265 -304 0
-281 -303 -64 265 304 0
-281 -303 64 -265 304 0
-281 -303 64 265 -304 0
-281 -303 -65 -266 -305 0
-281 -303 -65 266 305 0
-281 -303 65 -266 305 0
-281 -303 65 266 -305 0
-281 -303 -66 -267 -306 0
-281 -303 -66 267 306 0
-281 -303 66 -267 306 0
-281 -303 66 267 -306 0
-281 -303 -67 -268 -307 0
-281 -303 -67 268 307 0
-281 -303 67 -268 307 0
-281 -303 67 268 -307 0
-281 -303 -68 -269 -308 0
-281 -303 -68 269 308 0
-281 -303 68 -269 308 0
-281 -303 68 269 -308 0
-281 -303 -69 -270 -309 0
-281 -303 -69 270 309 0
-281 -303 69 -270 309 0
-281 -303 69 270 -309 0
-281 -303 -70 -271 -310 0
-281 -303 -70 271 310 0
-281 -303 70 -271 310 0
-281 -303 70 271 -310 0
-281 -303 -71 -272 -311 0
-281 -303 -71 272 311 0
-281 -303 71 -272 311 0
-281 -303 71 272 -311 0
-281 -303 -72 -273 -312 0
-281 -303 -72 273 312 0
-281 -303 72 -273 312 0
-281 -303 72 273 -312 0
-282 -298 -73 -100 -304 0
-282 -298 -73 100 304 0
-282 -298 73 -100 304 0
-282 -298 73 100 -304 0
-282 -298 -74 -101 -305 0
-282 -298 -74 101 305 0
-282 -298 74 -101 305 0
-282 -298 74 101 -305 0
-282 -298 -75 -102 -306 0
-282 -298 -75 102 306 0
-282 -298 75 -102 306 0
-282 -298 75 102 -306 0
-282 -298 -76 -103 -307 0
-282 -298 -76 103 307 0
-282 -298 76 -103 307 0
-282 -298 76 103 -307 0
-282 -298 -77 -104 -308 0
-282 -298 -77 104 308 0
-282 -298 77 -104 308 0
-282 -298 77 104 -308 0
-282 -298 -78 -105 -309 0
-282 -298 -78 105 309 0
-282 -298 78 -105 309 0
-282 -298 78 105 -309 0
-282 -298 -79 -106 -310 0
-282 -298 -79 106 310 0
-282 -298 79 -106 310 0
-282 -298 79 106 -310 0
-282 -298 -80 -107 -311 0
-282 -298 -80 107 311 0
-282 -298 80 -107 311 0
-282 -298 80 107 -311 0
-282 -298 -81 -108 -312 0
-282 -298 -81 108 312 0
-282 -298 81 -108 312 0
-282 -298 81 108 -312 0
-282 -299 -73 -129 -304 0
-282 -299 -73 129 304 0
-282 -299 73 -129 304 0
-282 -299 73 129 -304 0
-282 -299 -74 -130 -305 0
-282 -299 -74 130 305 0
-282 -299 74 -130 305 0
-282 -299 74 130 -305 0
-282 -299 -75 -131 -306 0
-282 -299 -75 131 306 0
-282 -299 75 -131 306 0
-282 -299 75 131 -306 0
-282 -299 -76 -132 -307 0
-282 -299 -76 132 307 0
-282 -299 76 -132 307 0
-282 -299 76 132 -307 0
-282 -299 -77 -133 -308 0
-282 -299 -77 133 308 0
-282 -299 77 -133 308 0
-282 -299 77 133 -308 0
-282 -299 -78 -134 -309 0
-282 -299 -78 134 309 0
-282 -299 78 -134 309 0
-282 -299 78 134 -309 0
-282 -299 -79 -135 -310 0
-282 -299 -79 135 310 0
-282 -299 79 -135 310 0
-282 -299 79 135 -310 0
-282 -299 -80 -136 -311 0
-282 -299 -80 136 311 0
-282 -299 80 -136 311 0
-282 -299 80 136 -311 0
-282 -299 -81 -137 -312 0
-282 -299 -81 137 312 0
-282 -299 81 -137 312 0
-282 -299 81 137 -312 0
-282 -300 -73 -160 -304 0
-282 -300 -73 160 304 0
-282 -300 73 -160 304 0
-282 -300 73 160 -304 0
-282 -300 -74 -161 -305 0
-282 -300 -74 161 305 0
-282 -300 74 -161 305 0
-282 -300 74 161 -305 0
-282 -300 -75 -162 -306 0
-282 -300 -75 162 306 0
-282 -300 75 -162 306 0
-282 -300 75 162 -306 0
-282 -300 -76 -163 -307 0
-282 -300 -76 163 307 0
-282 -300 76 -163 307 0
-282 -300 76 163 -307 0
-282 -300 -77 -164 -308 0
-282 -300 -77 164 308 0
-282 -300 77 -164 308 0
-282 -300 77 164 -308 0
-282 -300 -78 -165 -309 0
-282 -300 -78 165 309 0
-282 -300 78 -165 309 0
-282 -300 78 165 -309 0
-282 -300 -79 -166 -310 0
-282 -300 -79 166 310 0
-282 -300 79 -166 310 0
-282 -300 79 166 -310 0
-282 -300 -80 -167 -311 0
-282 -300 -80 167 311 0
-282 -300 80 -167 311 0
-282 -300 80 167 -311 0
-282 -300 -81 -168 -312 0
-282 -300 -81 168 312 0
-282 -300 81 -168 312 0
-282 -300 81 168 -312 0
-282 -301 -73 -193 -304 0
-282 -301 -73 193 304 0
-282 -301 73 -193 304 0
-282 -301 73 193 -304 0
-282 -301 -74 -194 -305 0
-282 -301 -74 194 305 0
-282 -301 74 -194 305 0
-282 -301 74 194 -305 0
-282 -301 -75 -195 -306 0
-282 -301 -75 195 306 0
-282 -301 75 -195 306 0
-282 -301 75 195 -306 0
-282 -301 -76 -196 -307 0
-282 -301 -76 196 307 0
-282 -301 76 -196 307 0
-282 -301 76 196 -307 0
-282 -301 -77 -197 -308 0
-282 -301 -77 197 308 0
-282 -301 77 -197 308 0
-282 -301 77 197 -308 0
-282 -301 -78 -198 -309 0
-282 -301 -78 198 309 0
-282 -301 78 -198 309 0
-282 -301 78 198 -309 0
-282 -301 -79 -199 -310 0
-282 -301 -79 199 310 0
-282 -301 79 -199 310 0
-282 -301 79 199 -310 0
-282 -301 -80 -200 -311 0
-282 -301 -80 200 311 0
-282 -301 80 -200 311 0
-282 -301 80 200 -311 0
-282 -301 -81 -201 -312 0
-282 -301 -81 201 312 0
-282 -301 81 -201 312 0
-282 -301 81 201 -312 0
-282 -302 -73 -228 -304 0
-282 -302 -73 228 304 0
-282 -302 73 -228 304 0
-282 -302 73 228 -304 0
-282 -302 -74 -229 -305 0
-282 -302 -74 229 305 0
-282 -302 74 -229 305 0
-282 -302 74 229 -305 0
-282 -302 -75 -230 -306 0
-282 -302 -75 230 306 0
-282 -302 75 -230 306 0
-282 -302 75 230 -306 0
-282 -302 -76 -231 -307 0
-282 -302 -76 231 307 0
-282 -302 76 -231 307 0
-282 -302 76 231 -307 0
-282 -302 -77 -232 -308 0
-282 -302 -77 232 308 0
-282 -302 77 -232 308 0
-282 -302 77 232 -308 0
-282 -302 -78 -233 -309 0
-282 -302 -78 233 309 0
-282 -302 78 -233 309 0
-282 -302 78 233 -309 0
-282 -302 -79 -234 -310 0
-282 -302 -79 234 310 0
-282 -302 79 -234 310 0
-282 -302 79 234 -310 0
-282 -302 -80 -235 -311 0
-282 -302 -80 235 311 0
-282 -302 80 -235 311 0
-282 -302 80 235 -311 0
-282 -302 -81 -236 -312 0
-282 -302 -81 236 312 0
-282 -302 81 -236 312 0
-282 -302 81 236 -312 0
-282 -303 -73 -265 -304 0
-282 -303 -73 265 304 0
-282 -303 73 -265 304 0
-282 -303 73 265 -304 0
-282 -303 -74 -266 -305 0
-282 -303 -74 266 305 0
-282 -303 74 -266 305 0
-282 -303 74 266 -305 0
-282 -303 -75 -267 -306 0
-282 -303 -75 267 306 0
-282 -303 75 -267 306 0
-282 -303 75 267 -306 0
-282 -303 -76 -268 -307 0
-282 -303 -76 268 307 0
-282 -303 76 -268 307 0
-282 -303 76 268 -307 0
-282 -303 -77 -269 -308 0
-282 -303 -77 269 308 0
-282 -303 77 -269 308 0
-282 -303 77 269 -308 0
-282 -303 -78 -270 -309 0
-282 -303 -78 270 309 0
-282 -303 78 -270 309 0
-282 -303 78 270 -309 0
-282 -303 -79 -271 -310 0
-282 -303 -79 271 310 0
-282 -303 79 -271 310 0
-282 -303 79 271 -310 0
-282 -303 -80 -272 -311 0
-282 -303 -80 272 311 0
-282 -303 80 -272 311 0
-282 -303 80 272 -311 0
-282 -303 -81 -273 -312 0
-282 -303 -81 273 312 0
-282 -303 81 -273 312 0
-282 -303 81 273 -312 0
-283 -299 -100 -129 -304 0
-283 -299 -100 129 304 0
-283 -299 100 -129 304 0
-283 -299 100 129 -304 0
-283 -299 -101 -130 -305 0
-283 -299 -101 130 305 0
-283 -299 101 -130 305 0
-283 -299 101 130 -305 0
-283 -299 -102 -131 -306 0
-283 -299 -102 131 306 0
-283 -299 102 -131 306 0
-283 -299 102 131 -306 0
-283 -299 -103 -132 -307 0
-283 -299 -103 132 307 0
-283 -299 103 -132 307 0
-283 -299 103 132 -307 0
-283 -299 -104 -133 -308 0
-283 -299 -104 133 308 0
-283 -299 104 -133 308 0
-283 -299 104 133 -308 0
-283 -299 -105 -134 -309 0
-283 -299 -105 134 309 0
-283 -299 105 -134 309 0
-283 -299 105 134 -309 0
-283 -299 -106 -135 -310 0
-283 -299 -106 135 310 0
-283 -299 106 -135 310 0
-283 -299 106 135 -310 0
-283 -299 -107 -136 -311 0
-283 -299 -107 136 311 0
-283 -299 107 -136 311 0
-283 -299 107 136 -311 0
-283 -299 -108 -137 -312 0
-283 -299 -108 137 312 0
-283 -299 108 -137 312 0
-283 -299 108 137 -312 0
-283 -300 -100 -160 -304 0
-283 -300 -100 160 304 0
-283 -300 100 -160 304 0
-283 -300 100 160 -304 0
-283 -300 -101 -161 -305 0
-283 -300 -101 161 305 0
-283 -300 101 -161 305 0
-283 -300 101 161 -305 0
-283 -300 -102 -162 -306 0
-283 -300 -102 162 306 0
-283 -300 102 -162 306 0
-283 -300 102 162 -306 0
-283 -300 -103 -163 -307 0
-283 -300 -103 163 307 0
-283 -300 103 -163 307 0
-283 -300 103 163 -307 0
-283 -300 -104 -164 -308 0
-283 -300 -104 164 308 0
-283 -300 104 -164 308 0
-283 -300 104 164 -308 0
-283 -300 -105 -165 -309 0
-283 -300 -105 165 309 0
-283 -300 105 -165 309 0
-283 -300 105 165 -309 0
-283 -300 -106 -166 -310 0
-283 -300 -106 166 310 0
-283 -300 106 -166 310 0
-283 -300 106 166 -310 0
-283 -300 -107 -167 -311 0
-283 -300 -107 167 311 0
-283 -300 107 -167 311 0
-283 -300 107 167 -311 0
-283 -300 -108 -168 -312 0
-283 -300 -108 168 312 0
-283 -300 108 -168 312 0
-283 -300 108 168 -312 0
-283 -301 -100 -193 -304 0
-283 -301 -100 193 304 0
-283 -301 100 -193 304 0
-283 -301 100 193 -304 0
-283 -301 -101 -194 -305 0
-283 -301 -101 194 305 0
-283 -301 101 -194 305 0
-283 -301 101 194 -305 0
-283 -301 -102 -195 -306 0
-283 -301 -102 195 306 0
-283 -301 102 -195 306 0
-283 -301 102 195 -306 0
-283 -301 -103 -196 -307 0
-283 -301 -103 196 307 0
-283 -301 103 -196 307 0
-283 -301 103 196 -307 0
-283 -301 -104 -197 -308 0
-283 -301 -104 197 308 0
-283 -301 104 -197 308 0
-283 -301 104 197 -308 0
-283 -301 -105 -198 -309 0
-283 -301 -105 198 309 0
-283 -301 105 -198 309 0
-283 -301 105 198 -309 0
-283 -301 -106 -199 -310 0
-283 -301 -106 199 310 0
-283 -301 106 -199 310 0
-283 -301 106 199 -310 0
-283 -301 -107 -200 -311 0
-283 -301 -107 200 311 0
-283 -301 107 -200 311 0
-283 -301 107 200 -311 0
-283 -301 -108 -201 -312 0
-283 -301 -108 201 312 0
-283 -301 108 -201 312 0
-283 -301 108 201 -312 0
-283 -302 -100 -228 -304 0
-283 -302 -100 228 304 0
-283 -302 100 -228 304 0
-283 -302 100 228 -304 0
-283 -302 -101 -229 -305 0
-283 -302 -101 229 305 0
-283 -302 101 -229 305 0
-283 -302 101 229 -305 0
-283 -302 -102 -230 -306 0
-283 -302 -102 230 306 0
-283 -302 102 -230 306 0
-283 -302 102 230 -306 0
-283 -302 -103 -231 -307 0
-283 -302 -103 231 307 0
-283 -302 103 -231 307 0
-283 -302 103 231 -307 0
-283 -302 -104 -232 -308 0
-283 -302 -104 232 308 0
-283 -302 104 -232 308 0
-283 -302 104 232 -308 0
-283 -302 -105 -233 -309 0
-283 -302 -105 233 309 0
-283 -302 105 -233 309 0
-283 -302 105 233 -309 0
-283 -302 -106 -234 -310 0
-283 -302 -106 234 310 0
-283 -302 106 -234 310 0
-283 -302 106 234 -310 0
-283 -302 -107 -235 -311 0
-283 -302 -107 235 311 0
-283 -302 107 -235 311 0
-283 -302 107 235 -311 0
-283 -302 -108 -236 -312 0
-283 -302 -108 236 312 0
-283 -302 108 -236 312 0
-283 -302 108 236 -312 0
-283 -303 -100 -265 -304 0
-283 -303 -100 265 304 0
-283 -303 100 -265 304 0
-283 -303 100 265 -304 0
-283 -303 -101 -266 -305 0
-283 -303 -101 266 305 0
-283 -303 101 -266 305 0
-283 -303 101 266 -305 0
-283 -303 -102 -267 -306 0
-283 -303 -102 267 306 0
-283 -303 102 -267 306 0
-283 -303 102 267 -306 0
-283 -303 -103 -268 -307 0
-283 -303 -103 268 307 0
-283 -303 103 -268 307 0
-283 -303 103 268 -307 0
-283 -303 -104 -269 -308 0
-283 -303 -104 269 308 0
-283 -303 104 -269 308 0
-283 -303 104 269 -308 0
-283 -303 -105 -270 -309 0
-283 -303 -105 270 309 0
-283 -303 105 -270 309 0
-283 -303 105 270 -309 0
-283 -303 -106 -271 -310 0
-283 -303 -106 271 310 0
-283 -303 106 -271 310 0
-283 -303 106 271 -310 0
-283 -303 -107 -272 -311 0
-283 -303 -107 272 311 0
-283 -303 107 -272 311 0
-283 -303 107 272 -311 0
-283 -303 -108 -273 -312 0
-283 -303 -108 273 312 0
-283 -303 108 -273 312 0
-283 -303 108 273 -312 0
-284 -300 -129 -160 -304 0
-284 -300 -129 160 304 0
-284 -300 129 -160 304 0
-284 -300 129 160 -304 0
-284 -300 -130 -161 -305 0
-284 -300 -130 161 305 0
-284 -300 130 -161 305 0
-284 -300 130 161 -305 0
-284 -300 -131 -162 -306 0
-284 -300 -131 162 306 0
-284 -300 131 -162 306 0
-284 -300 131 162 -306 0
-284 -300 -132 -163 -307 0
-284 -300 -132 163 307 0
-284 -300 132 -163 307 0
-284 -300 132 163 -307 0
-284 -300 -133 -164 -308 0
-284 -300 -133 164 308 0
-284 -300 133 -164 308 0
-284 -300 133 164 -308 0
-284 -300 -134 -165 -309 0
-284 -300 -134 165 309 0
-284 -300 134 -165 309 0
-284 -300 134 165 -309 0
-284 -300 -135 -166 -310 0
-284 -300 -135 166 310 0
-284 -300 135 -166 310 0
-284 -300 135 166 -310 0
-284 -300 -136 -167 -311 0
-284 -300 -136 167 311 0
-284 -300 136 -167 311 0
-284 -300 136 167 -311 0
-284 -300 -137 -168 -312 0
-284 -300 -137 168 312 0
-284 -300 137 -168 312 0
-284 -300 137 168 -312 0
-284 -301 -129 -193 -304 0
-284 -301 -129 193 304 0
-284 -301 129 -193 304 0
-284 -301 129 193 -304 0
-284 -301 -130 -194 -305 0
-284 -301 -130 194 305 0
-284 -301 130 -194 305 0
-284 -301 130 194 -305 0
-284 -301 -131 -195 -306 0
-284 -301 -131 195 306 0
-284 -301 131 -195 306 0
-284 -301 131 195 -306 0
-284 -301 -132 -196 -307 0
-284 -301 -132 196 307 0
-284 -301 132 -196 307 0
-284 -301 132 196 -307 0
-284 -301 -133 -197 -308 0
-284 -301 -133 197 308 0
-284 -301 133 -197 308 0
-284 -301 133 197 -308 0
-284 -301 -134 -198 -309 0
-284 -301 -134 198 309 0
-284 -301 134 -198 309 0
-284 -301 134 198 -309 0
-284 -301 -135 -199 -310 0
-284 -301 -135 199 310 0
-284 -301 135 -199 310 0
-284 -301 135 199 -310 0
-284 -301 -136 -200 -311 0
-284 -301 -136 200 311 0
-284 -301 136 -200 311 0
-284 -301 136 200 -311 0
-284 -301 -137 -201 -312 0
-284 -301 -137 201 312 0
-284 -301 137 -201 312 0
-284 -301 137 201 -312 0
-284 -302 -129 -228 -304 0
-284 -302 -129 228 304 0
-284 -302 129 -228 304 0
-284 -302 129 228 -304 0
-284 -302 -130 -229 -305 0
-284 -302 -130 229 305 0
-284 -302 130 -229 305 0
-284 -302 130 229 -305 0
-284 -302 -131 -230 -306 0
-284 -302 -131 230 306 0
-284 -302 131 -230 306 0
-284 -302 131 230 -306 0
-284 -302 -132 -231 -307 0
-284 -302 -132 231 307 0
-284 -302 132 -231 307 0
-284 -302 132 231 -307 0
-284 -302 -133 -232 -308 0
-284 -302 -133 232 308 0
-284 -302 133 -232 308 0
-284 -302 133 232 -308 0
-284 -302 -134 -233 -309 0
-284 -302 -134 233 309 0
-284 -302 134 -233 309 0
-284 -302 134 233 -309 0
-284 -302 -135 -234 -310 0
-284 -302 -135 234 310 0
-284 -302 135 -234 310 0
-284 -302 135 234 -310 0
-284 -302 -136 -235 -311 0
-284 -302 -136 235 311 0
-284 -302 136 -235 311 0
-284 -302 136 235 -311 0
-284 -302 -137 -236 -312 0
-284 -302 -137 236 312 0
-284 -302 137 -236 312 0
-284 -302 137 236 -312 0
-284 -303 -129 -265 -304 0
-284 -303 -129 265 304 0
-284 -303 129 -265 304 0
-284 -303 129 265 -304 0
-284 -303 -130 -266 -305 0
-284 -303 -130 266 305 0
-284 -303 130 -266 305 0
-284 -303 130 266 -305 0
-284 -303 -131 -267 -306 0
-284 -303 -131 267 306 0
-284 -303 131 -267 306 0
-284 -303 131 267 -306 0
-284 -303 -132 -268 -307 0
-284 -303 -132 268 307 0
-284 -303 132 -268 307 0
-284 -303 132 268 -307 0
-284 -303 -133 -269 -308 0
-284 -303 -133 269 308 0
-284 -303 133 -269 308 0
-284 -303 133 269 -308 0
-284 -303 -134 -270 -309 0
-284 -303 -134 270 309 0
-284 -303 134 -270 309 0
-284 -303 134 270 -309 0
-284 -303 -135 -271 -310 0
-284 -303 -135 271 310 0
-284 -303 135 -271 310 0
-284 -303 135 271 -310 0
-284 -303 -136 -272 -311 0
-284 -303 -136 272 311 0
-284 -303 136 -272 311 0
-284 -303 136 272 -311 0
-284 -303 -137 -273 -312 0
-284 -303 -137 273 312 0
-284 -303 137 -273 312 0
-284 -303 137 273 -312 0
-285 -301 -160 -193 -304 0
-285 -301 -160 193 304 0
-285 -301 160 -193 304 0
-285 -301 160 193 -304 0
-285 -301 -161 -194 -305 0
-285 -301 -161 194 305 0
-285 -301 161 -194 305 0
-285 -301 161 194 -305 0
-285 -301 -162 -195 -306 0
-285 -301 -162 195 306 0
-285 -301 162 -195 306 0
-285 -301 162 195 -306 0
-285 -301 -163 -196 -307 0
-285 -301 -163 196 307 0
-285 -301 163 -196 307 0
-285 -301 163 196 -307 0
-285 -301 -164 -197 -308 0
-285 -301 -164 197 308 0
-285 -301 164 -197 308 0
-285 -301 164 197 -308 0
-285 -301 -165 -198 -309 0
-285 -301 -165 198 309 0
-285 -301 165 -198 309 0
-285 -301 165 198 -309 0
-285 -301 -166 -199 -310 0
-285 -301 -166 199 310 0
-285 -301 166 -199 310 0
-285 -301 166 199 -310 0
-285 -301 -167 -200 -311 0
-285 -301 -167 200 311 0
-285 -301 167 -200 311 0
-285 -301 167 200 -311 0
-285 -301 -168 -201 -312 0
-285 -301 -168 201 312 0
-285 -301 168 -201 312 0
-285 -301 168 201 -312 0
-285 -302 -160 -228 -304 0
-285 -302 -160 228 304 0
-285 -302 160 -228 304 0
-285 -302 160 228 -304 0
-285 -302 -161 -229 -305 0
-285 -302 -161 229 305 0
-285 -302 161 -229 305 0
-285 -302 161 229 -305 0
-285 -302 -162 -230 -306 0
-285 -302 -162 230 306 0
-285 -302 162 -230 306 0
-285 -302 162 230 -306 0
-285 -302 -163 -231 -307 0
-285 -302 -163 231 307 0
-285 -302 163 -231 307 0
-285 -302 163 231 -307 0
-285 -302 -164 -232 -308 0
-285 -302 -164 232 308 0
-285 -302 164 -232 308 0
-285 -302 164 232 -308 0
-285 -302 -165 -233 -309 0
-285 -302 -165 233 309 0
-285 -302 165 -233 309 0
-285 -302 165 233 -309 0
-285 -302 -166 -234 -310 0
-285 -302 -166 234 310 0
-285 -302 166 -234 310 0
-285 -302 166 234 -310 0
-285 -302 -167 -235 -311 0
-285 -302 -167 235 311 0
-285 -302 167 -235 311 0
-285 -302 167 235 -311 0
-285 -302 -168 -236 -312 0
-285 -302 -168 236 312 0
-285 -302 168 -236 312 0
-285 -302 168 236 -312 0
-285 -303 -160 -265 -304 0
-285 -303 -160 265 304 0
-285 -303 160 -265 304 0
-285 -303 160 265 -304 0
-285 -303 -161 -266 -305 0
-285 -303 -161 266 305 0
-285 -303 161 -266 305 0
-285 -303 161 266 -305 0
-285 -303 -162 -267 -306 0
-285 -303 -162 267 306 0
-285 -303 162 -267 306 0
-285 -303 162 267 -306 0
-285 -303 -163 -268 -307 0
-285 -303 -163 268 307 0
-285 -303 163 -268 307 0
-285 -303 163 268 -307 0
-285 -303 -164 -269 -308 0
-285 -303 -164 269 308 0
-285 -303 164 -269 308 0
-285 -303 164 269 -308 0
-285 -303 -165 -270 -309 0
-285 -303 -165 270 309 0
-285 -303 165 -270 309 0
-285 -303 165 270 -309 0
-285 -303 -166 -271 -310 0
-285 -303 -166 271 310 0
-285 -303 166 -271 310 0
-285 -303 166 271 -310 0
-285 -303 -167 -272 -311 0
-285 -303 -167 272 311 0
-285 -303 167 -272 311 0
-285 -303 167 272 -311 0
-285 -303 -168 -273 -312 0
-285 -303 -168 273 312 0
-285 -303 168 -273 312 0
-285 -303 168 273 -312 0
-286 -302 -193 -228 -304 0
-286 -302 -193 228 304 0
-286 -302 193 -228 304 0
-286 -302 193 228 -304 0
-286 -302 -194 -229 -305 0
-286 -302 -194 229 305 0
-286 -302 194 -229 305 0
-286 -302 194 229 -305 0
-286 -302 -195 -230 -306 0
-286 -302 -195 230 306 0
-286 -302 195 -230 306 0
-286 -302 195 230 -306 0
-286 -302 -196 -231 -307 0
-286 -302 -196 231 307 0
-286 -302 196 -231 307 0
-286 -302 196 231 -307 0
-286 -302 -197 -232 -308 0
-286 -302 -197 232 308 0
-286 -302 197 -232 308 0
-286 -302 197 232 -308 0
-286 -302 -198 -233 -309 0
-286 -302 -198 233 309 0
-286 -302 198 -233 309 0
-286 -302 198 233 -309 0
-286 -302 -199 -234 -310 0
-286 -302 -199 234 310 0
-286 -302 199 -234 310 0
-286 -302 199 234 -310 0
-286 -302 -200 -235 -311 0
-286 -302 -200 235 311 0
-286 -302 200 -235 311 0
-286 -302 200 235 -311 0
-286 -302 -201 -236 -312 0
-286 -302 -201 236 312 0
-286 -302 201 -236 312 0
-286 -302 201 236 -312 0
-286 -303 -193 -265 -304 0
-286 -303 -193 265 304 0
-286 -303 193 -265 304 0
-286 -303 193 265 -304 0
-286 -303 -194 -266 -305 0
-286 -303 -194 266 305 0
-286 -303 194 -266 305 0
-286 -303 194 266 -305 0
-286 -303 -195 -267 -306 0
-286 -303 -195 267 306 0
-286 -303 195 -267 306 0
-286 -303 195 267 -306 0
-286 -303 -196 -268 -307 0
-286 -303 -196 268 307 0
-286 -303 196 -268 307 0
-286 -303 196 268 -307 0
-286 -303 -197 -269 -308 0
-286 -303 -197 269 308 0
-286 -303 197 -269 308 0
-286 -303 197 269 -308 0
-286 -303 -198 -270 -309 0
-286 -303 -198 270 309 0
-286 -303 198 -270 309 0
-286 -303 198 270 -309 0
-286 -303 -199 -271 -310 0
-286 -303 -199 271 310 0
-286 -303 199 -271 310 0
-286 -303 199 271 -310 0
-286 -303 -200 -272 -311 0
-286 -303 -200 272 311 0
-286 -303 200 -272 311 0
-286 -303 200 272 -311 0
-286 -303 -201 -273 -312 0
-286 -303 -201 273 312 0
-286 -303 201 -273 312 0
-286 -303 201 273 -312 0
-287 -303 -228 -265 -304 0
-287 -303 -228 265 304 0
-287 -303 228 -265 304 0
-287 -303 228 265 -304 0
-287 -303 -229 -266 -305 0
-287 -303 -229 266 305 0
-287 -303 229 -266 305 0
-287 -303 229 266 -305 0
-287 -303 -230 -267 -306 0
-287 -303 -230 267 306 0
-287 -303 230 -267 306 0
-287 -303 230 267 -306 0
-287 -303 -231 -268 -307 0
-287 -303 -231 268 307 0
-287 -303 231 -268 307 0
-287 -303 231 268 -307 0
-287 -303 -232 -269 -308 0
-287 -303 -232 269 308 0
-287 -303 232 -269 308 0
-287 -303 232 269 -308 0
-287 -303 -233 -270 -309 0
-287 -303 -233 270 309 0
-287 -303 233 -270 309 0
-287 -303 233 270 -309 0
-287 -303 -234 -271 -310 0
-287 -303 -234 271 310 0
-287 -303 234 -271 310 0
-287 -303 234 271 -310 0
-287 -303 -235 -272 -311 0
-287 -303 -235 272 311 0
-287 -303 235 -272 311 0
-287 -303 235 272 -311 0
-287 -303 -236 -273 -312 0
-287 -303 -236 273 312 0
-287 -303 236 -273 312 0
-287 -303 236 273 -312 0
304 305 306 307 308 309 310 311 312 0
313 314 315 316 317 318 319 320 321 322 323 324 325 326 327 328 0
-313 -314 0
-313 -315 0
-313 -316 0
-313 -317 0
-313 -318 0
-313 -319 0
-313 -320 0
-313 -321 0
-313 -322 0
-313 -323 0
-313 -324 0
-313 -325 0
-313 -326 0
-313 -327 0
-313 -328 0
-314 -315 0
-314 -316 0
-314 -317 0
-314 -318 0
-314 -319 0
-314 -320 0
-314 -321 0
-314 -322 0
-314 -323 0
-314 -324 0
-314 -325 0
-314 -326 0
-314 -327 0
-314 -328 0
-315 -316 0
-315 -317 0
-315 -318 0
-315 -319 0
-315 -320 0
-315 -321 0
-315 -322 0
-315 -323 0
-315 -324 0
-315 -325 0
-315 -326 0
-315 -327 0
-315 -328 0
-316 -317 0
-316 -318 0
-316 -319 0
-316 -320 0
-316 -321 0
-316 -322 0
-316 -323 0
-316 -324 0
-316 -325 0
-316 -326 0
-316 -327 0
-316 -328 0
-317 -318 0
-317 -319 0
-317 -320 0
-317 -321 0
-317 -322 0
-317 -323 0
-317 -324 0
-317 -325 0
-317 -326 0
-317 -327 0
-317 -328 0
-318 -319 0
-318 -320 0
-318 -321 0
-318 -322 0
-318 -323 0
-318 -324 0
-318 -325 0
-318 -326 0
-318 -327 0
-318 -328 0
-319 -320 0
-319 -321 0
-319 -322 0
-319 -323 0
-319 -324 0
-319 -325 0
-319 -326 0
-319 -327 0
-319 -328 0
-320 -321 0
-320 -322 0
-320 -323 0
-320 -324 0
-320 -325 0
-320 -326 0
-320 -327 0
-320 -328 0
-321 -322 0
-321 -323 0
-321 -324 0
-321 -325 0
-321 -326 0
-321 -327 0
-321 -328 0
-322 -323 0
-322 -324 0
-322 -325 0
-322 -326 0
-322 -327 0
-322 -328 0
-323 -324 0
-323 -325 0
-323 -326 0
-323 -327 0
-323 -328 0
-324 -325 0
-324 -326 0
-324 -327 0
-324 -328 0
-325 -326 0
-325 -327 0
-325 -328 0
-326 -327 0
-326 -328 0
-327 -328 0
329 330 331 332 333 334 335 336 337 338 339 340 341 342 343 344 0
-329 -330 0
-329 -331 0
-329 -332 0
-329 -333 0
-329 -334 0
-329 -335 0
-329 -336 0
-329 -337 0
-329 -338 0
-329 -339 0
-329 -340 0
-329 -341 0
-329 -342 0
-329 -343 0
-329 -344 0
-330 -331 0
-330 -332 0
-330 -333 0
-330 -334 0
-330 -335 0
-330 -336 0
-330 -337 0
-330 -338 0
-330 -339 0
-330 -340 0
-330 -341 0
-330 -342 0
-330 -343 0
-330 -344 0
-331 -332 0
-331 -333 0
-331 -334 0
-331 -335 0
-331 -336 0
-331 -337 0
-331 -338 0
-331 -339 0
-331 -340 0
-331 -341 0
-331 -342 0
-331 -343 0
-331 -344 0
-332 -333 0
-332 -334 0
-332 -335 0
-332 -336 0
-332 -337 0
-332 -338 0
-332 -339 0
-332 -340 0
-332 -341 0
-332 -342 0
-332 -343 0
-332 -344 0
-333 -334 0
-333 -335 0
-333 -336 0
-333 -337 0
-333 -338 0
-333 -339 0
-333 -340 0
-333 -341 0
-333 -342 0
-333 -343 0
-333 -344 0
-334 -335 0
-334 -336 0
-334 -337 0
-334 -338 0
-334 -339 0
-334 -340 0
-334 -341 0
-334 -342 0
-334 -343 0
-334 -344 0
-335 -336 0
-335 -337 0
-335 -338 0
-335 -339 0
-335 -340 0
-335 -341 0
-335 -342 0
-335 -343 0
-335 -344 0
-336 -337 0
-336 -338 0
-336 -339 0
-336 -340 0
-336 -341 0
-336 -342 0
-336 -343 0
-336 -344 0
-337 -338 0
-337 -339 0
-337 -340 0
-337 -341 0
-337 -342 0
-337 -343 0
-337 -344 0
-338 -339 0
-338 -340 0
-338 -341 0
-338 -342 0
-338 -343 0
-338 -344 0
-339 -340 0
-339 -341 0
-339 -342 0
-339 -343 0
-339 -344 0
-340 -341 0
-340 -342 0
-340 -343 0
-340 -344 0
-341 -342 0
-341 -343 0
-341 -344 0
-342 -343 0
-342 -344 0
-343 -344 0
-313 -329 0
-314 -329 0
-314 -330 0
-315 -329 0
-315 -330 0
-315 -331 0
-316 -329 0
-316 -330 0
-316 -331 0
-316 -332 0
-317 -329 0
-317 -330 0
-317 -331 0
-317 -332 0
-317 -333 0
-318 -329 0
-318 -330 0
-318 -331 0
-318 -332 0
-318 -333 0
-318 -334 0
-319 -329 0
-319 -330 0
-319 -331 0
-319 -332 0
-319 -333 0
-319 -334 0
-319 -335 0
-320 -329 0
-320 -330 0
-320 -331 0
-320 -332 0
-320 -333 0
-320 -334 0
-320 -335 0
-320 -336 0
-321 -329 0
-321 -330 0
-321 -331 0
-321 -332 0
-321 -333 0
-321 -334 0
-321 -335 0
-321 -336 0
-321 -337 0
-322 -329 0
-322 -330 0
-322 -331 0
-322 -332 0
-322 -333 0
-322 -334 0
-322 -335 0
-322 -336 0
-322 -337 0
-322 -338 0
-323 -329 0
-323 -330 0
-323 -331 0
-323 -332 0
-323 -333 0
-323 -334 0
-323 -335 0
-323 -336 0
-323 -337 0
-323 -338 0
-323 -339 0
-324 -329 0
-324 -330 0
-324 -331 0
-324 -332 0
-324 -333 0
-324 -334 0
-324 -335 0
-324 -336 0
-324 -337 0
-324 -338 0
-324 -339 0
-324 -340 0
-325 -329 0
-325 -330 0
-325 -331 0
-325 -332 0
-325 -333 0
-325 -334 0
-325 -335 0
-325 -336 0
-325 -337 0
-325 -338 0
-325 -339 0
-325 -340 0
-325 -341 0
-326 -329 0
-326 -330 0
-326 -331 0
-326 -332 0
-326 -333 0
-326 -334 0
-326 -335 0
-326 -336 0
-326 -337 0
-326 -338 0
-326 -339 0
-326 -340 0
-326 -341 0
-326 -342 0
-327 -329 0
-327 -330 0
-327 -331 0
-327 -332 0
-327 -333 0
-327 -334 0
-327 -335 0
-327 -336 0
-327 -337 0
-327 -338 0
-327 -339 0
-327 -340 0
-327 -341 0
-327 -342 0
-327 -343 0
-328 -329 0
-328 -330 0
-328 -331 0
-328 -332 0
-328 -333 0
-328 -334 0
-328 -335 0
-328 -336 0
-328 -337 0
-328 -338 0
-328 -339 0
-328 -340 0
-328 -341 0
-328 -342 0
-328 -343 0
-328 -344 0
-313 -330 -1 -10 -345 0
-313 -330 -1 10 345 0
-313 -330 1 -10 345 0
-313 -330 1 10 -345 0
-313 -330 -2 -11 -346 0
-313 -330 -2 11 346 0
-313 -330 2 -11 346 0
-313 -330 2 11 -346 0
-313 -330 -3 -12 -347 0
-313 -330 -3 12 347 0
-313 -330 3 -12 347 0
-313 -330 3 12 -347 0
-313 -330 -4 -13 -348 0
-313 -330 -4 13 348 0
-313 -330 4 -13 348 0
-313 -330 4 13 -348 0
-313 -330 -5 -14 -349 0
-313 -330 -5 14 349 0
-313 -330 5 -14 349 0
-313 -330 5 14 -349 0
-313 -330 -6 -15 -350 0
-313 -330 -6 15 350 0
-313 -330 6 -15 350 0
-313 -330 6 15 -350 0
-313 -330 -7 -16 -351 0
-313 -330 -7 16 351 0
-313 -330 7 -16 351 0
-313 -330 7 16 -351 0
-313 -330 -8 -17 -352 0
-313 -330 -8 17 352 0
-313 -330 8 -17 352 0
-313 -330 8 17 -352 0
-313 -330 -9 -18 -353 0
-313 -330 -9 18 353 0
-313 -330 9 -18 353 0
-313 -330 9 18 -353 0
-313 -331 -1 -19 -345 0
-313 -331 -1 19 345 0
-313 -331 1 -19 345 0
-313 -331 1 19 -345 0
-313 -331 -2 -20 -346 0
-313 -331 -2 20 346 0
-313 -331 2 -20 346 0
-313 -331 2 20 -346 0
-313 -331 -3 -21 -347 0
-313 -331 -3 21 347 0
-313 -331 3 -21 347 0
-313 -331 3 21 -347 0
-313 -331 -4 -22 -348 0
-313 -331 -4 22 348 0
-313 -331 4 -22 348 0
-313 -331 4 22 -348 0
-313 -331 -5 -23 -349 0
-313 -331 -5 23 349 0
-313 -331 5 -23 349 0
-313 -331 5 23 -349 0
-313 -331 -6 -24 -350 0
-313 -331 -6 24 350 0
-313 -331 6 -24 350 0
-313 -331 6 24 -350 0
-313 -331 -7 -25 -351 0
-313 -331 -7 25 351 0
-313 -331 7 -25 351 0
-313 -331 7 25 -351 0
-313 -331 -8 -26 -352 0
-313 -331 -8 26 352 0
-313 -331 8 -26 352 0
-313 -331 8 26 -352 0
-313 -331 -9 -27 -353 0
-313 -331 -9 27 353 0
-313 -331 9 -27 353 0
-313 -331 9 27 -353 0
-313 -332 -1 -28 -345 0
-313 -332 -1 28 345 0
-313 -332 1 -28 345 0
-313 -332 1 28 -345 0
-313 -332 -2 -29 -346 0
-313 -332 -2 29 346 0
-313 -332 2 -29 346 0
-313 -332 2 29 -346 0
-313 -332 -3 -30 -347 0
-313 -332 -3 30 347 0
-313 -332 3 -30 347 0
-313 -332 3 30 -347 0
-313 -332 -4 -31 -348 0
-313 -332 -4 31 348 0
-313 -332 4 -31 348 0
-313 -332 4 31 -348 0
-313 -332 -5 -32 -349 0
-313 -332 -5 32 349 0
-313 -332 5 -32 349 0
-313 -332 5 32 -349 0
-313 -332 -6 -33 -350 0
-313 -332 -6 33 350 0
-313 -332 6 -33 350 0
-313 -332 6 33 -350 0
-313 -332 -7 -34 -351 0
-313 -332 -7 34 351 0
-313 -332 7 -34 351 0
-313 -332 7 34 -351 0
-313 -332 -8 -35 -352 0
-313 -332 -8 35 352 0
-313 -332 8 -35 352 0
-313 -332 8 35 -352 0
-313 -332 -9 -36 -353 0
-313 -332 -9 36 353 0
-313 -332 9 -36 353 0
-313 -332 9 36 -353 0
-313 -333 -1 -37 -345 0
-313 -333 -1 37 345 0
-313 -333 1 -37 345 0
-313 -333 1 37 -345 0
-313 -333 -2 -38 -346 0
-313 -333 -2 38 346 0
-313 -333 2 -38 346 0
-313 -333 2 38 -346 0
-313 -333 -3 -39 -347 0
-313 -333 -3 39 347 0
-313 -333 3 -39 347 0
-313 -333 3 39 -347 0
-313 -333 -4 -40 -348 0
-313 -333 -4 40 348 0
-313 -333 4 -40 348 0
-313 -333 4 40 -348 0
-313 -333 -5 -41 -349 0
-313 -333 -5 41 349 0
-313 -333 5 -41 349 0
-313 -333 5 41 -349 0
-313 -333 -6 -42 -350 0
-313 -333 -6 42 350 0
-313 -333 6 -42 350 0
-313 -333 6 42 -350 0
-313 -333 -7 -43 -351 0
-313 -333 -7 43 351 0
-313 -333 7 -43 351 0
-313 -333 7 43 -351 0
-313 -333 -8 -44 -352 0
-313 -333 -8 44 352 0
-313 -333 8 -44 352 0
-313 -333 8 44 -352 0
-313 -333 -9 -45 -353 0
-313 -333 -9 45 353 0
-313 -333 9 -45 353 0
-313 -333 9 45 -353 0
-313 -334 -1 -46 -345 0
-313 -334 -1 46 345 0
-313 -334 1 -46 345 0
-313 -334 1 46 -345 0
-313 -334 -2 -47 -346 0
-313 -334 -2 47 346 0
-313 -334 2 -47 346 0
-313 -334 2 47 -346 0
-313 -334 -3 -48 -347 0
-313 -334 -3 48 347 0
-313 -334 3 -48 347 0
-313 -334 3 48 -347 0
-313 -334 -4 -49 -348 0
-313 -334 -4 49 348 0
-313 -334 4 -49 348 0
-313 -334 4 49 -348 0
-313 -334 -5 -50 -349 0
-313 -334 -5 50 349 0
-313 -334 5 -50 349 0
-313 -334 5 50 -349 0
-313 -334 -6 -51 -350 0
-313 -334 -6 51 350 0
-313 -334 6 -51 350 0
-313 -334 6 51 -350 0
-313 -334 -7 -52 -351 0
-313 -334 -7 52 351 0
-313 -334 7 -52 351 0
-313 -334 7 52 -351 0
-313 -334 -8 -53 -352 0
-313 -334 -8 53 352 0
-313 -334 8 -53 352 0
-313 -334 8 53 -352 0
-313 -334 -9 -54 -353 0
-313 -334 -9 54 353 0
-313 -334 9 -54 353 0
-313 -334 9 54 -353 0
-313 -335 -1 -55 -345 0
-313 -335 -1 55 345 0
-313 -335 1 -55 345 0
-313 -335 1 55 -345 0
-313 -335 -2 -56 -346 0
-313 -335 -2 56 346 0
-313 -335 2 -56 346 0
-313 -335 2 56 -346 0
-313 -335 -3 -57 -347 0
-313 -335 -3 57 347 0
-313 -335 3 -57 347 0
-313 -335 3 57 -347 0
-313 -335 -4 -58 -348 0
-313 -335 -4 58 348 0
-313 -335 4 -58 348 0
-313 -335 4 58 -348 0
-313 -335 -5 -59 -349 0
-313 -335 -5 59 349 0
-313 -335 5 -59 349 0
-313 -335 5 59 -349 0
-313 -335 -6 -60 -350 0
-313 -335 -6 60 350 0
-313 -335 6 -60 350 0
-313 -335 6 60 -350 0
-313 -335 -7 -61 -351 0
-313 -335 -7 61 351 0
-313 -335 7 -61 351 0
-313 -335 7 61 -351 0
-313 -335 -8 -62 -352 0
-313 -335 -8 62 352 0
-313 -335 8 -62 352 0
-313 -335 8 62 -352 0
-313 -335 -9 -63 -353 0
-313 -335 -9 63 353 0
-313 -335 9 -63 353 0
-313 -335 9 63 -353 0
-313 -336 -1 -64 -345 0
-313 -336 -1 64 345 0
-313 -336 1 -64 345 0
-313 -336 1 64 -345 0
-313 -336 -2 -65 -346 0
-313 -336 -2 65 346 0
-313 -336 2 -65 346 0
-313 -336 2 65 -346 0
-313 -336 -3 -66 -347 0
-313 -336 -3 66 347 0
-313 -336 3 -66 347 0
-313 -336 3 66 -347 0
-313 -336 -4 -67 -348 0
-313 -336 -4 67 348 0
-313 -336 4 -67 348 0
-313 -336 4 67 -348 0
-313 -336 -5 -68 -349 0
-313 -336 -5 68 349 0
-313 -336 5 -68 349 0
-313 -336 5 68 -349 0
-313 -336 -6 -69 -350 0
-313 -336 -6 69 350 0
-313 -336 6 -69 350 0
-313 -336 6 69 -350 0
-313 -336 -7 -70 -351 0
-313 -336 -7 70 351 0
-313 -336 7 -70 351 0
-313 -336 7 70 -351 0
-313 -336 -8 -71 -352 0
-313 -336 -8 71 352 0
-313 -336 8 -71 352 0
-313 -336 8 71 -352 0
-313 -336 -9 -72 -353 0
-313 -336 -9 72 353 0
-313 -336 9 -72 353 0
-313 -336 9 72 -353 0
-313 -337 -1 -73 -345 0
-313 -337 -1 73 345 0
-313 -337 1 -73 345 0
-313 -337 1 73 -345 0
-313 -337 -2 -74 -346 0
-313 -337 -2 74 346 0
-313 -337 2 -74 346 0
-313 -337 2 74 -346 0
-313 -337 -3 -75 -347 0
-313 -337 -3 75 347 0
-313 -337 3 -75 347 0
-313 -337 3 75 -347 0
-313 -337 -4 -76 -348 0
-313 -337 -4 76 348 0
-313 -337 4 -76 348 0
-313 -337 4 76 -348 0
-313 -337 -5 -77 -349 0
-313 -337 -5 77 349 0
-313 -337 5 -77 349 0
-313 -337 5 77 -349 0
-313 -337 -6 -78 -350 0
-313 -337 -6 78 350 0
-313 -337 6 -78 350 0
-313 -337 6 78 -350 0
-313 -337 -7 -79 -351 0
-313 -337 -7 79 351 0
-313 -337 7 -79 351 0
-313 -337 7 79 -351 0
-313 -337 -8 -80 -352 0
-313 -337 -8 80 352 0
-313 -337 8 -80 352 0
-313 -337 8 80 -352 0
-313 -337 -9 -81 -353 0
-313 -337 -9 81 353 0
-313 -337 9 -81 353 0
-313 -337 9 81 -353 0
-313 -338 -1 -100 -345 0
-313 -338 -1 100 345 0
-313 -338 1 -100 345 0
-313 -338 1 100 -345 0
-313 -338 -2 -101 -346 0
-313 -338 -2 101 346 0
-313 -338 2 -101 346 0
-313 -338 2 101 -346 0
-313 -338 -3 -102 -347 0
-313 -338 -3 102 347 0
-313 -338 3 -102 347 0
-313 -338 3 102 -347 0
-313 -338 -4 -103 -348 0
-313 -338 -4 103 348 0
-313 -338 4 -103 348 0
-313 -338 4 103 -348 0
-313 -338 -5 -104 -349 0
-313 -338 -5 104 349 0
-313 -338 5 -104 349 0
-313 -338 5 104 -349 0
-313 -338 -6 -105 -350 0
-313 -338 -6 105 350 0
-313 -338 6 -105 350 0
-313 -338 6 105 -350 0
-313 -338 -7 -106 -351 0
-313 -338 -7 106 351 0
-313 -338 7 -106 351 0
-313 -338 7 106 -351 0
-313 -338 -8 -107 -352 0
-313 -338 -8 107 352 0
-313 -338 8 -107 352 0
-313 -338 8 107 -352 0
-313 -338 -9 -108 -353 0
-313 -338 -9 108 353 0
-313 -338 9 -108 353 0
-313 -338 9 108 -353 0
-313 -339 -1 -129 -345 0
-313 -339 -1 129 345 0
-313 -339 1 -129 345 0
-313 -339 1 129 -345 0
-313 -339 -2 -130 -346 0
-313 -339 -2 130 346 0
-313 -339 2 -130 346 0
-313 -339 2 130 -346 0
-313 -339 -3 -131 -347 0
-313 -339 -3 131 347 0
-313 -339 3 -131 347 0
-313 -339 3 131 -347 0
-313 -339 -4 -132 -348 0
-313 -339 -4 132 348 0
-313 -339 4 -132 348 0
-313 -339 4 132 -348 0
-313 -339 -5 -133 -349 0
-313 -339 -5 133 349 0
-313 -339 5 -133 349 0
-313 -339 5 133 -349 0
-313 -339 -6 -134 -350 0
-313 -339 -6 134 350 0
-313 -339 6 -134 350 0
-313 -339 6 134 -350 0
-313 -339 -7 -135 -351 0
-313 -339 -7 135 351 0
-313 -339 7 -135 351 0
-313 -339 7 135 -351 0
-313 -339 -8 -136 -352 0
-313 -339 -8 136 352 0
-313 -339 8 -136 352 0
-313 -339 8 136 -352 0
-313 -339 -9 -137 -353 0
-313 -339 -9 137 353 0
-313 -339 9 -137 353 0
-313 -339 9 137 -353 0
-313 -340 -1 -160 -345 0
-313 -340 -1 160 345 0
-313 -340 1 -160 345 0
-313 -340 1 160 -345 0
-313 -340 -2 -161 -346 0
-313 -340 -2 161 346 0
-313 -340 2 -161 346 0
-313 -340 2 161 -346 0
-313 -340 -3 -162 -347 0
-313 -340 -3 162 347 0
-313 -340 3 -162 347 0
-313 -340 3 162 -347 0
-313 -340 -4 -163 -348 0
-313 -340 -4 163 348 0
-313 -340 4 -163 348 0
-313 -340 4 163 -348 0
-313 -340 -5 -164 -349 0
-313 -340 -5 164 349 0
-313 -340 5 -164 349 0
-313 -340 5 164 -349 0
-313 -340 -6 -165 -350 0
-313 -340 -6 165 350 0
-313 -340 6 -165 350 0
-313 -340 6 165 -350 0
-313 -340 -7 -166 -351 0
-313 -340 -7 166 351 0
-313 -340 7 -166 351 0
-313 -340 7 166 -351 0
-313 -340 -8 -167 -352 0
-313 -340 -8 167 352 0
-313 -340 8 -167 352 0
-313 -340 8 167 -352 0
-313 -340 -9 -168 -353 0
-313 -340 -9 168 353 0
-313 -340 9 -168 353 0
-313 -340 9 168 -353 0
-313 -341 -1 -193 -345 0
-313 -341 -1 193 345 0
-313 -341 1 -193 345 0
-313 -341 1 193 -345 0
-313 -341 -2 -194 -346 0
-313 -341 -2 194 346 0
-313 -341 2 -194 346 0
-313 -341 2 194 -346 0
-313 -341 -3 -195 -347 0
-313 -341 -3 195 347 0
-313 -341 3 -195 347 0
-313 -341 3 195 -347 0
-313 -341 -4 -196 -348 0
-313 -341 -4 196 348 0
-313 -341 4 -196 348 0
-313 -341 4 196 -348 0
-313 -341 -5 -197 -349 0
-313 -341 -5 197 349 0
-313 -341 5 -197 349 0
-313 -341 5 197 -349 0
-313 -341 -6 -198 -350 0
-313 -341 -6 198 350 0
-313 -341 6 -198 350 0
-313 -341 6 198 -350 0
-313 -341 -7 -199 -351 0
-313 -341 -7 199 351 0
-313 -341 7 -199 351 0
-313 -341 7 199 -351 0
-313 -341 -8 -200 -352 0
-313 -341 -8 200 352 0
-313 -341 8 -200 352 0
-313 -341 8 200 -352 0
-313 -341 -9 -201 -353 0
-313 -341 -9 201 353 0
-313 -341 9 -201 353 0
-313 -341 9 201 -353 0
-313 -342 -1 -228 -345 0
-313 -342 -1 228 345 0
-313 -342 1 -228 345 0
-313 -342 1 228 -345 0
-313 -342 -2 -229 -346 0
-313 -342 -2 229 346 0
-313 -342 2 -229 346 0
-313 -342 2 229 -346 0
-313 -342 -3 -230 -347 0
-313 -342 -3 230 347 0
-313 -342 3 -230 347 0
-313 -342 3 230 -347 0
-313 -342 -4 -231 -348 0
-313 -342 -4 231 348 0
-313 -342 4 -231 348 0
-313 -342 4 231 -348 0
-313 -342 -5 -232 -349 0
-313 -342 -5 232 349 0
-313 -342 5 -232 349 0
-313 -342 5 232 -349 0
-313 -342 -6 -233 -350 0
-313 -342 -6 233 350 0
-313 -342 6 -233 350 0
-313 -342 6 233 -350 0
-313 -342 -7 -234 -351 0
-313 -342 -7 234 351 0
-313 -342 7 -234 351 0
-313 -342 7 234 -351 0
-313 -342 -8 -235 -352 0
-313 -342 -8 235 352 0
-313 -342 8 -235 352 0
-313 -342 8 235 -352 0
-313 -342 -9 -236 -353 0
-313 -342 -9 236 353 0
-313 -342 9 -236 353 0
-313 -342 9 236 -353 0
-313 -343 -1 -265 -345 0
-313 -343 -1 265 345 0
-313 -343 1 -265 345 0
-313 -343 1 265 -345 0
-313 -343 -2 -266 -346 0
-313 -343 -2 266 346 0
-313 -343 2 -266 346 0
-313 -343 2 266 -346 0
-313 -343 -3 -267 -347 0
-313 -343 -3 267 347 0
-313 -343 3 -267 347 0
-313 -343 3 267 -347 0
-313 -343 -4 -268 -348 0
-313 -343 -4 268 348 0
-313 -343 4 -268 348 0
-313 -343 4 268 -348 0
-313 -343 -5 -269 -349 0
-313 -343 -5 269 349 0
-313 -343 5 -269 349 0
-313 -343 5 269 -349 0
-313 -343 -6 -270 -350 0
-313 -343 -6 270 350 0
-313 -343 6 -270 350 0
-313 -343 6 270 -350 0
-313 -343 -7 -271 -351 0
-313 -343 -7 271 351 0
-313 -343 7 -271 351 0
-313 -343 7 271 -351 0
-313 -343 -8 -272 -352 0
-313 -343 -8 272 352 0
-313 -343 8 -272 352 0
-313 -343 8 272 -352 0
-313 -343 -9 -273 -353 0
-313 -343 -9 273 353 0
-313 -343 9 -273 353 0
-313 -343 9 273 -353 0
-313 -344 -1 -304 -345 0
-313 -344 -1 304 345 0
-313 -344 1 -304 345 0
-313 -344 1 304 -345 0
-313 -344 -2 -305 -346 0
-313 -344 -2 305 346 0
-313 -344 2 -305 346 0
-313 -344 2 305 -346 0
-313 -344 -3 -306 -347 0
-313 -344 -3 306 347 0
-313 -344 3 -306 347 0
-313 -344 3 306 -347 0
-313 -344 -4 -307 -348 0
-313 -344 -4 307 348 0
-313 -344 4 -307 348 0
-313 -344 4 307 -348 0
-313 -344 -5 -308 -349 0
-313 -344 -5 308 349 0
-313 -344 5 -308 349 0
-313 -344 5 308 -349 0
-313 -344 -6 -309 -350 0
-313 -344 -6 309 350 0
-313 -344 6 -309 350 0
-313 -344 6 309 -350 0
-313 -344 -7 -310 -351 0
-313 -344 -7 310 351 0
-313 -344 7 -310 351 0
-313 -344 7 310 -351 0
-313 -344 -8 -311 -352 0
-313 -344 -8 311 352 0
-313 -344 8 -311 352 0
-313 -344 8 311 -352 0
-313 -344 -9 -312 -353 0
-313 -344 -9 312 353 0
-313 -344 9 -312 353 0
-313 -344 9 312 -353 0
-314 -331 -10 -19 -345 0
-314 -331 -10 19 345 0
-314 -331 10 -19 345 0
-314 -331 10 19 -345 0
-314 -331 -11 -20 -346 0
-314 -331 -11 20 346 0
-314 -331 11 -20 346 0
-314 -331 11 20 -346 0
-314 -331 -12 -21 -347 0
-314 -331 -12 21 347 0
-314 -331 12 -21 347 0
-314 -331 12 21 -347 0
-314 -331 -13 -22 -348 0
-314 -331 -13 22 348 0
-314 -331 13 -22 348 0
-314 -331 13 22 -348 0
-314 -331 -14 -23 -349 0
-314 -331 -14 23 349 0
-314 -331 14 -23 349 0
-314 -331 14 23 -349 0
-314 -331 -15 -24 -350 0
-314 -331 -15 24 350 0
-314 -331 15 -24 350 0
-314 -331 15 24 -350 0
-314 -331 -16 -25 -351 0
-314 -331 -16 25 351 0
-314 -331 16 -25 351 0
-314 -331 16 25 -351 0
-314 -331 -17 -26 -352 0
-314 -331 -17 26 352 0
-314 -331 17 -26 352 0
-314 -331 17 26 -352 0
-314 -331 -18 -27 -353 0
-314 -331 -18 27 353 0
-314 -331 18 -27 353 0
-314 -331 18 27 -353 0
-314 -332 -10 -28 -345 0
-314 -332 -10 28 345 0
-314 -332 10 -28 345 0
-314 -332 10 28 -345 0
-314 -332 -11 -29 -346 0
-314 -332 -11 29 346 0
-314 -332 11 -29 346 0
-314 -332 11 29 -346 0
-314 -332 -12 -30 -347 0
-314 -332 -12 30 347 0
-314 -332 12 -30 347 0
-314 -332 12 30 -347 0
-314 -332 -13 -31 -348 0
-314 -332 -13 31 348 0
-314 -332 13 -31 348 0
-314 -332 13 31 -348 0
-314 -332 -14 -32 -349 0
-314 -332 -14 32 349 0
-314 -332 14 -32 349 0
-314 -332 14 32 -349 0
-314 -332 -15 -33 -350 0
-314 -332 -15 33 350 0
-314 -332 15 -33 350 0
-314 -332 15 33 -350 0
-314 -332 -16 -34 -351 0
-314 -332 -16 34 351 0
-314 -332 16 -34 351 0
-314 -332 16 34 -351 0
-314 -332 -17 -35 -352 0
-314 -332 -17 35 352 0
-314 -332 17 -35 352 0
-314 -332 17 35 -352 0
-314 -332 -18 -36 -353 0
-314 -332 -18 36 353 0
-314 -332 18 -36 353 0
-314 -332 18 36 -353 0
-314 -333 -10 -37 -345 0
-314 -333 -10 37 345 0
-314 -333 10 -37 345 0
-314 -333 10 37 -345 0
-314 -333 -11 -38 -346 0
-314 -333 -11 38 346 0
-314 -333 11 -38 346 0
-314 -333 11 38 -346 0
-314 -333 -12 -39 -347 0
-314 -333 -12 39 347 0
-314 -333 12 -39 347 0
-314 -333 12 39 -347 0
-314 -333 -13 -40 -348 0
-314 -333 -13 40 348 0
-314 -333 13 -40 348 0
-314 -333 13 40 -348 0
-314 -333 -14 -41 -349 0
-314 -333 -14 41 349 0
-314 -333 14 -41 349 0
-314 -333 14 41 -349 0
-314 -333 -15 -42 -350 0
-314 -333 -15 42 350 0
-314 -333 15 -42 350 0
-314 -333 15 42 -350 0
-314 -333 -16 -43 -351 0
-314 -333 -16 43 351 0
-314 -333 16 -43 351 0
-314 -333 16 43 -351 0
-314 -333 -17 -44 -352 0
-314 -333 -17 44 352 0
-314 -333 17 -44 352 0
-314 -333 17 44 -352 0
-314 -333 -18 -45 -353 0
-314 -333 -18 45 353 0
-314 -333 18 -45 353 0
-314 -333 18 45 -353 0
-314 -334 -10 -46 -345 0
-314 -334 -10 46 345 0
-314 -334 10 -46 345 0
-314 -334 10 46 -345 0
-314 -334 -11 -47 -346 0
-314 -334 -11 47 346 0
-314 -334 11 -47 346 0
-314 -334 11 47 -346 0
-314 -334 -12 -48 -347 0
-314 -334 -12 48 347 0
-314 -334 12 -48 347 0
-314 -334 12 48 -347 0
-314 -334 -13 -49 -348 0
-314 -334 -13 49 348 0
-314 -334 13 -49 348 0
-314 -334 13 49 -348 0
-314 -334 -14 -50 -349 0
-314 -334 -14 50 349 0
-314 -334 14 -50 349 0
-314 -334 14 50 -349 0
-314 -334 -15 -51 -350 0
-314 -334 -15 51 350 0
-314 -334 15 -51 350 0
-314 -334 15 51 -350 0
-314 -334 -16 -52 -351 0
-314 -334 -16 52 351 0
-314 -334 16 -52 351 0
-314 -334 16 52 -351 0
-314 -334 -17 -53 -352 0
-314 -334 -17 53 352 0
-314 -334 17 -53 352 0
-314 -334 17 53 -352 0
-314 -334 -18 -54 -353 0
-314 -334 -18 54 353 0
-314 -334 18 -54 353 0
-314 -334 18 54 -353 0
-314 -335 -10 -55 -345 0
-314 -335 -10 55 345 0
-314 -335 10 -55 345 0
-314 -335 10 55 -345 0
-314 -335 -11 -56 -346 0
-314 -335 -11 56 346 0
-314 -335 11 -56 346 0
-314 -335 11 56 -346 0
-314 -335 -12 -57 -347 0
-314 -335 -12 57 347 0
-314 -335 12 -57 347 0
-314 -335 12 57 -347 0
-314 -335 -13 -58 -348 0
-314 -335 -13 58 348 0
-314 -335 13 -58 348 0
-314 -335 13 58 -348 0
-314 -335 -14 -59 -349 0
-314 -335 -14 59 349 0
-314 -335 14 -59 349 0
-314 -335 14 59 -349 0
-314 -335 -15 -60 -350 0
-314 -335 -15 60 350 0
-314 -335 15 -60 350 0
-314 -335 15 60 -350 0
-314 -335 -16 -61 -351 0
-314 -335 -16 61 351 0
-314 -335 16 -61 351 0
-314 -335 16 61 -351 0
-314 -335 -17 -62 -352 0
-314 -335 -17 62 352 0
-314 -335 17 -62 352 0
-314 -335 17 62 -352 0
-314 -335 -18 -63 -353 0
-314 -335 -18 63 353 0
-314 -335 18 -63 353 0
-314 -335 18 63 -353 0
-314 -336 -10 -64 -345 0
-314 -336 -10 64 345 0
-314 -336 10 -64 345 0
-314 -336 10 64 -345 0
-314 -336 -11 -65 -346 0
-314 -336 -11 65 346 0
-314 -336 11 -65 346 0
-314 -336 11 65 -346 0
-314 -336 -12 -66 -347 0
-314 -336 -12 66 347 0
-314 -336 12 -66 347 0
-314 -336 12 66 -347 0
-314 -336 -13 -67 -348 0
-314 -336 -13 67 348 0
-314 -336 13 -67 348 0
-314 -336 13 67 -348 0
-314 -336 -14 -68 -349 0
-314 -336 -14 68 349 0
-314 -336 14 -68 349 0
-314 -336 14 68 -349 0
-314 -336 -15 -69 -350 0
-314 -336 -15 69 350 0
-314 -336 15 -69 350 0
-314 -336 15 69 -350 0
-314 -336 -16 -70 -351 0
-314 -336 -16 70 351 0
-314 -336 16 -70 351 0
-314 -336 16 70 -351 0
-314 -336 -17 -71 -352 0
-314 -336 -17 71 352 0
-314 -336 17 -71 352 0
-314 -336 17 71 -352 0
-314 -336 -18 -72 -353 0
-314 -336 -18 72 353 0
-314 -336 18 -72 353 0
-314 -336 18 72 -353 0
-314 -337 -10 -73 -345 0
-314 -337 -10 73 345 0
-314 -337 10 -73 345 0
-314 -337 10 73 -345 0
-314 -337 -11 -74 -346 0
-314 -337 -11 74 346 0
-314 -337 11 -74 346 0
-314 -337 11 74 -346 0
-314 -337 -12 -75 -347 0
-314 -337 -12 75 347 0
-314 -337 12 -75 347 0
-314 -337 12 75 -347 0
-314 -337 -13 -76 -348 0
-314 -337 -13 76 348 0
-314 -337 13 -76 348 0
-314 -337 13 76 -348 0
-314 -337 -14 -77 -349 0
-314 -337 -14 77 349 0
-314 -337 14 -77 349 0
-314 -337 14 77 -349 0
-314 -337 -15 -78 -350 0
-314 -337 -15 78 350 0
-314 -337 15 -78 350 0
-314 -337 15 78 -350 0
-314 -337 -16 -79 -351 0
-314 -337 -16 79 351 0
-314 -337 16 -79 351 0
-314 -337 16 79 -351 0
-314 -337 -17 -80 -352 0
-314 -337 -17 80 352 0
-314 -337 17 -80 352 0
-314 -337 17 80 -352 0
-314 -337 -18 -81 -353 0
-314 -337 -18 81 353 0
-314 -337 18 -81 353 0
-314 -337 18 81 -353 0
-314 -338 -10 -100 -345 0
-314 -338 -10 100 345 0
-314 -338 10 -100 345 0
-314 -338 10 100 -345 0
-314 -338 -11 -101 -346 0
-314 -338 -11 101 346 0
-314 -338 11 -101 346 0
-314 -338 11 101 -346 0
-314 -338 -12 -102 -347 0
-314 -338 -12 102 347 0
-314 -338 12 -102 347 0
-314 -338 12 102 -347 0
-314 -338 -13 -103 -348 0
-314 -338 -13 103 348 0
-314 -338 13 -103 348 0
-314 -338 13 103 -348 0
-314 -338 -14 -104 -349 0
-314 -338 -14 104 349 0
-314 -338 14 -104 349 0
-314 -338 14 104 -349 0
-314 -338 -15 -105 -350 0
-314 -338 -15 105 350 0
-314 -338 15 -105 350 0
-314 -338 15 105 -350 0
-314 -338 -16 -106 -351 0
-314 -338 -16 106 351 0
-314 -338 16 -106 351 0
-314 -338 16 106 -351 0
-314 -338 -17 -107 -352 0
-314 -338 -17 107 352 0
-314 -338 17 -107 352 0
-314 -338 17 107 -352 0
-314 -338 -18 -108 -353 0
-314 -338 -18 108 353 0
-314 -338 18 -108 353 0
-314 -338 18 108 -353 0
-314 -339 -10 -129 -345 0
-314 -339 -10 129 345 0
-314 -339 10 -129 345 0
-314 -339 10 129 -345 0
-314 -339 -11 -130 -346 0
-314 -339 -11 130 346 0
-314 -339 11 -130 346 0
-314 -339 11 130 -346 0
-314 -339 -12 -131 -347 0
-314 -339 -12 131 347 0
-314 -339 12 -131 347 0
-314 -339 12 131 -347 0
-314 -339 -13 -132 -348 0
-314 -339 -13 132 348 0
-314 -339 13 -132 348 0
-314 -339 13 132 -348 0
-314 -339 -14 -133 -349 0
-314 -339 -14 133 349 0
-314 -339 14 -133 349 0
-314 -339 14 133 -349 0
-314 -339 -15 -134 -350 0
-314 -339 -15 134 350 0
-314 -339 15 -134 350 0
-314 -339 15 134 -350 0
-314 -339 -16 -135 -351 0
-314 -339 -16 135 351 0
-314 -339 16 -135 351 0
-314 -339 16 135 -351 0
-314 -339 -17 -136 -352 0
-314 -339 -17 136 352 0
-314 -339 17 -136 352 0
-314 -339 17 136 -352 0
-314 -339 -18 -137 -353 0
-314 -339 -18 137 353 0
-314 -339 18 -137 353 0
-314 -339 18 137 -353 0
-314 -340 -10 -160 -345 0
-314 -340 -10 160 345 0
-314 -340 10 -160 345 0
-314 -340 10 160 -345 0
-314 -340 -11 -161 -346 0
-314 -340 -11 161 346 0
-314 -340 11 -161 346 0
-314 -340 11 161 -346 0
-314 -340 -12 -162 -347 0
-314 -340 -12 162 347 0
-314 -340 12 -162 347 0
-314 -340 12 162 -347 0
-314 -340 -13 -163 -348 0
-314 -340 -13 163 348 0
-314 -340 13 -163 348 0
-314 -340 13 163 -348 0
-314 -340 -14 -164 -349 0
-314 -340 -14 164 349 0
-314 -340 14 -164 349 0
-314 -340 14 164 -349 0
-314 -340 -15 -165 -350 0
-314 -340 -15 165 350 0
-314 -340 15 -165 350 0
-314 -340 15 165 -350 0
-314 -340 -16 -166 -351 0
-314 -340 -16 166 351 0
-314 -340 16 -166 351 0
-314 -340 16 166 -351 0
-314 -340 -17 -167 -352 0
-314 -340 -17 167 352 0
-314 -340 17 -167 352 0
-314 -340 17 167 -352 0
-314 -340 -18 -168 -353 0
-314 -340 -18 168 353 0
-314 -340 18 -168 353 0
-314 -340 18 168 -353 0
-314 -341 -10 -193 -345 0
-314 -341 -10 193 345 0
-314 -341 10 -193 345 0
-314 -341 10 193 -345 0
-314 -341 -11 -194 -346 0
-314 -341 -11 194 346 0
-314 -341 11 -194 346 0
-314 -341 11 194 -346 0
-314 -341 -12 -195 -347 0
-314 -341 -12 195 347 0
-314 -341 12 -195 347 0
-314 -341 12 195 -347 0
-314 -341 -13 -196 -348 0
-314 -341 -13 196 348 0
-314 -341 13 -196 348 0
-314 -341 13 196 -348 0
-314 -341 -14 -197 -349 0
-314 -341 -14 197 349 0
-314 -341 14 -197 349 0
-314 -341 14 197 -349 0
-314 -341 -15 -198 -350 0
-314 -341 -15 198 350 0
-314 -341 15 -198 350 0
-314 -341 15 198 -350 0
-314 -341 -16 -199 -351 0
-314 -341 -16 199 351 0
-314 -341 16 -199 351 0
-314 -341 16 199 -351 0
-314 -341 -17 -200 -352 0
-314 -341 -17 200 352 0
-314 -341 17 -200 352 0
-314 -341 17 200 -352 0
-314 -341 -18 -201 -353 0
-314 -341 -18 201 353 0
-314 -341 18 -201 353 0
-314 -341 18 201 -353 0
-314 -342 -10 -228 -345 0
-314 -342 -10 228 345 0
-314 -342 10 -228 345 0
-314 -342 10 228 -345 0
-314 -342 -11 -229 -346 0
-314 -342 -11 229 346 0
-314 -342 11 -229 346 0
-314 -342 11 229 -346 0
-314 -342 -12 -230 -347 0
-314 -342 -12 230 347 0
-314 -342 12 -230 347 0
-314 -342 12 230 -347 0
-314 -342 -13 -231 -348 0
-314 -342 -13 231 348 0
-314 -342 13 -231 348 0
-314 -342 13 231 -348 0
-314 -342 -14 -232 -349 0
-314 -342 -14 232 349 0
-314 -342 14 -232 349 0
-314 -342 14 232 -349 0
-314 -342 -15 -233 -350 0
-314 -342 -15 233 350 0
-314 -342 15 -233 350 0
-314 -342 15 233 -350 0
-314 -342 -16 -234 -351 0
-314 -342 -16 234 351 0
-314 -342 16 -234 351 0
-314 -342 16 234 -351 0
-314 -342 -17 -235 -352 0
-314 -342 -17 235 352 0
-314 -342 17 -235 352 0
-314 -342 17 235 -352 0
-314 -342 -18 -236 -353 0
-314 -342 -18 236 353 0
-314 -342 18 -236 353 0
-314 -342 18 236 -353 0
-314 -343 -10 -265 -345 0
-314 -343 -10 265 345 0
-314 -343 10 -265 345 0
-314 -343 10 265 -345 0
-314 -343 -11 -266 -346 0
-314 -343 -11 266 346 0
-314 -343 11 -266 346 0
-314 -343 11 266 -346 0
-314 -343 -12 -267 -347 0
-314 -343 -12 267 347 0
-314 -343 12 -267 347 0
-314 -343 12 267 -347 0
-314 -343 -13 -268 -348 0
-314 -343 -13 268 348 0
-314 -343 13 -268 348 0
-314 -343 13 268 -348 0
-314 -343 -14 -269 -349 0
-314 -343 -14 269 349 0
-314 -343 14 -269 349 0
-314 -343 14 269 -349 0
-314 -343 -15 -270 -350 0
-314 -343 -15 270 350 0
-314 -343 15 -270 350 0
-314 -343 15 270 -350 0
-314 -343 -16 -271 -351 0
-314 -343 -16 271 351 0
-314 -343 16 -271 351 0
-314 -343 16 271 -351 0
-314 -343 -17 -272 -352 0
-314 -343 -17 272 352 0
-314 -343 17 -272 352 0
-314 -343 17 272 -352 0
-314 -343 -18 -273 -353 0
-314 -343 -18 273 353 0
-314 -343 18 -273 353 0
-314 -343 18 273 -353 0
-314 -344 -10 -304 -345 0
-314 -344 -10 304 345 0
-314 -344 10 -304 345 0
-314 -344 10 304 -345 0
-314 -344 -11 -305 -346 0
-314 -344 -11 305 346 0
-314 -344 11 -305 346 0
-314 -344 11 305 -346 0
-314 -344 -12 -306 -347 0
-314 -344 -12 306 347 0
-314 -344 12 -306 347 0
-314 -344 12 306 -347 0
-314 -344 -13 -307 -348 0
-314 -344 -13 307 348 0
-314 -344 13 -307 348 0
-314 -344 13 307 -348 0
-314 -344 -14 -308 -349 0
-314 -344 -14 308 349 0
-314 -344 14 -308 349 0
-314 -344 14 308 -349 0
-314 -344 -15 -309 -350 0
-314 -344 -15 309 350 0
-314 -344 15 -309 350 0
-314 -344 15 309 -350 0
-314 -344 -16 -310 -351 0
-314 -344 -16 310 351 0
-314 -344 16 -310 351 0
-314 -344 16 310 -351 0
-314 -344 -17 -311 -352 0
-314 -344 -17 311 352 0
-314 -344 17 -311 352 0
-314 -344 17 311 -352 0
-314 -344 -18 -312 -353 0
-314 -344 -18 312 353 0
-314 -344 18 -312 353 0
-314 -344 18 312 -353 0
-315 -332 -19 -28 -345 0
-315 -332 -19 28 345 0
-315 -332 19 -28 345 0
-315 -332 19 28 -345 0
-315 -332 -20 -29 -346 0
-315 -332 -20 29 346 0
-315 -332 20 -29 346 0
-315 -332 20 29 -346 0
-315 -332 -21 -30 -347 0
-315 -332 -21 30 347 0
-315 -332 21 -30 347 0
-315 -332 21 30 -347 0
-315 -332 -22 -31 -348 0
-315 -332 -22 31 348 0
-315 -332 22 -31 348 0
-315 -332 22 31 -348 0
-315 -332 -23 -32 -349 0
-315 -332 -23 32 349 0
-315 -332 23 -32 349 0
-315 -332 23 32 -349 0
-315 -332 -24 -33 -350 0
-315 -332 -24 33 350 0
-315 -332 24 -33 350 0
-315 -332 24 33 -350 0
-315 -332 -25 -34 -351 0
-315 -332 -25 34 351 0
-315 -332 25 -34 351 0
-315 -332 25 34 -351 0
-315 -332 -26 -35 -352 0
-315 -332 -26 35 352 0
-315 -332 26 -35 352 0
-315 -332 26 35 -352 0
-315 -332 -27 -36 -353 0
-315 -332 -27 36 353 0
-315 -332 27 -36 353 0
-315 -332 27 36 -353 0
-315 -333 -19 -37 -345 0
-315 -333 -19 37 345 0
-315 -333 19 -37 345 0
-315 -333 19 37 -345 0
-315 -333 -20 -38 -346 0
-315 -333 -20 38 346 0
-315 -333 20 -38 346 0
-315 -333 20 38 -346 0
-315 -333 -21 -39 -347 0
-315 -333 -21 39 347 0
-315 -333 21 -39 347 0
-315 -333 21 39 -347 0
-315 -333 -22 -40 -348 0
-315 -333 -22 40 348 0
-315 -333 22 -40 348 0
-315 -333 22 40 -348 0
-315 -333 -23 -41 -349 0
-315 -333 -23 41 349 0
-315 -333 23 -41 349 0
-315 -333 23 41 -349 0
-315 -333 -24 -42 -350 0
-315 -333 -24 42 350 0
-315 -333 24 -42 350 0
-315 -333 24 42 -350 0
-315 -333 -25 -43 -351 0
-315 -333 -25 43 351 0
-315 -333 25 -43 351 0
-315 -333 25 43 -351 0
-315 -333 -26 -44 -352 0
-315 -333 -26 44 352 0
-315 -333 26 -44 352 0
-315 -333 26 44 -352 0
-315 -333 -27 -45 -353 0
-315 -333 -27 45 353 0
-315 -333 27 -45 353 0
-315 -333 27 45 -353 0
-315 -334 -19 -46 -345 0
-315 -334 -19 46 345 0
-315 -334 19 -46 345 0
-315 -334 19 46 -345 0
-315 -334 -20 -47 -346 0
-315 -334 -20 47 346 0
-315 -334 20 -47 346 0
-315 -334 20 47 -346 0
-315 -334 -21 -48 -347 0
-315 -334 -21 48 347 0
-315 -334 21 -48 347 0
-315 -334 21 48 -347 0
-315 -334 -22 -49 -348 0
-315 -334 -22 49 348 0
-315 -334 22 -49 348 0
-315 -334 22 49 -348 0
-315 -334 -23 -50 -349 0
-315 -334 -23 50 349 0
-315 -334 23 -50 349 0
-315 -334 23 50 -349 0
-315 -334 -24 -51 -350 0
-315 -334 -24 51 350 0
-315 -334 24 -51 350 0
-315 -334 24 51 -350 0
-315 -334 -25 -52 -351 0
-315 -334 -25 52 351 0
-315 -334 25 -52 351 0
-315 -334 25 52 -351 0
-315 -334 -26 -53 -352 0
-315 -334 -26 53 352 0
-315 -334 26 -53 352 0
-315 -334 26 53 -352 0
-315 -334 -27 -54 -353 0
-315 -334 -27 54 353 0
-315 -334 27 -54 353 0
-315 -334 27 54 -353 0
-315 -335 -19 -55 -345 0
-315 -335 -19 55 345 0
-315 -335 19 -55 345 0
-315 -335 19 55 -345 0
-315 -335 -20 -56 -346 0
-315 -335 -20 56 346 0
-315 -335 20 -56 346 0
-315 -335 20 56 -346 0
-315 -335 -21 -57 -347 0
-315 -335 -21 57 347 0
-315 -335 21 -57 347 0
-315 -335 21 57 -347 0
-315 -335 -22 -58 -348 0
-315 -335 -22 58 348 0
-315 -335 22 -58 348 0
-315 -335 22 58 -348 0
-315 -335 -23 -59 -349 0
-315 -335 -23 59 349 0
-315 -335 23 -59 349 0
-315 -335 23 59 -349 0
-315 -335 -24 -60 -350 0
-315 -335 -24 60 350 0
-315 -335 24 -60 350 0
-315 -335 24 60 -350 0
-315 -335 -25 -61 -351 0
-315 -335 -25 61 351 0
-315 -335 25 -61 351 0
-315 -335 25 61 -351 0
-315 -335 -26 -62 -352 0
-315 -335 -26 62 352 0
-315 -335 26 -62 352 0
-315 -335 26 62 -352 0
-315 -335 -27 -63 -353 0
-315 -335 -27 63 353 0
-315 -335 27 -63 353 0
-315 -335 27 63 -353 0
-315 -336 -19 -64 -345 0
-315 -336 -19 64 345 0
-315 -336 19 -64 345 0
-315 -336 19 64 -345 0
-315 -336 -20 -65 -346 0
-315 -336 -20 65 346 0
-315 -336 20 -65 346 0
-315 -336 20 65 -346 0
-315 -336 -21 -66 -347 0
-315 -336 -21 66 347 0
-315 -336 21 -66 347 0
-315 -336 21 66 -347 0
-315 -336 -22 -67 -348 0
-315 -336 -22 67 348 0
-315 -336 22 -67 348 0
-315 -336 22 67 -348 0
-315 -336 -23 -68 -349 0
-315 -336 -23 68 349 0
-315 -336 23 -68 349 0
-315 -336 23 68 -349 0
-315 -336 -24 -69 -350 0
-315 -336 -24 69 350 0
-315 -336 24 -69 350 0
-315 -336 24 69 -350 0
-315 -336 -25 -70 -351 0
-315 -336 -25 70 351 0
-315 -336 25 -70 351 0
-315 -336 25 70 -351 0
-315 -336 -26 -71 -352 0
-315 -336 -26 71 352 0
-315 -336 26 -71 352 0
-315 -336 26 71 -352 0
-315 -336 -27 -72 -353 0
-315 -336 -27 72 353 0
-315 -336 27 -72 353 0
-315 -336 27 72 -353 0
-315 -337 -19 -73 -345 0
-315 -337 -19 73 345 0
-315 -337 19 -73 345 0
-315 -337 19 73 -345 0
-315 -337 -20 -74 -346 0
-315 -337 -20 74 346 0
-315 -337 20 -74 346 0
-315 -337 20 74 -346 0
-315 -337 -21 -75 -347 0
-315 -337 -21 75 347 0
-315 -337 21 -75 347 0
-315 -337 21 75 -347 0
-315 -337 -22 -76 -348 0
-315 -337 -22 76 348 0
-315 -337 22 -76 348 0
-315 -337 22 76 -348 0
-315 -337 -23 -77 -349 0
-315 -337 -23 77 349 0
-315 -337 23 -77 349 0
-315 -337 23 77 -349 0
-315 -337 -24 -78 -350 0
-315 -337 -24 78 350 0
-315 -337 24 -78 350 0
-315 -337 24 78 -350 0
-315 -337 -25 -79 -351 0
-315 -337 -25 79 351 0
-315 -337 25 -79 351 0
-315 -337 25 79 -351 0
-315 -337 -26 -80 -352 0
-315 -337 -26 80 352 0
-315 -337 26 -80 352 0
-315 -337 26 80 -352 0
-315 -337 -27 -81 -353 0
-315 -337 -27 81 353 0
-315 -337 27 -81 353 0
-315 -337 27 81 -353 0
-315 -338 -19 -100 -345 0
-315 -338 -19 100 345 0
-315 -338 19 -100 345 0
-315 -338 19 100 -345 0
-315 -338 -20 -101 -346 0
-315 -338 -20 101 346 0
-315 -338 20 -101 346 0
-315 -338 20 101 -346 0
-315 -338 -21 -102 -347 0
-315 -338 -21 102 347 0
-315 -338 21 -102 347 0
-315 -338 21 102 -347 0
-315 -338 -22 -103 -348 0
-315 -338 -22 103 348 0
-315 -338 22 -103 348 0
-315 -338 22 103 -348 0
-315 -338 -23 -104 -349 0
-315 -338 -23 104 349 0
-315 -338 23 -104 349 0
-315 -338 23 104 -349 0
-315 -338 -24 -105 -350 0
-315 -338 -24 105 350 0
-315 -338 24 -105 350 0
-315 -338 24 105 -350 0
-315 -338 -25 -106 -351 0
-315 -338 -25 106 351 0
-315 -338 25 -106 351 0
-315 -338 25 106 -351 0
-315 -338 -26 -107 -352 0
-315 -338 -26 107 352 0
-315 -338 26 -107 352 0
-315 -338 26 107 -352 0
-315 -338 -27 -108 -353 0
-315 -338 -27 108 353 0
-315 -338 27 -108 353 0
-315 -338 27 108 -353 0
-315 -339 -19 -129 -345 0
-315 -339 -19 129 345 0
-315 -339 19 -129 345 0
-315 -339 19 129 -345 0
-315 -339 -20 -130 -346 0
-315 -339 -20 130 346 0
-315 -339 20 -130 346 0
-315 -339 20 130 -346 0
-315 -339 -21 -131 -347 0
-315 -339 -21 131 347 0
-315 -339 21 -131 347 0
-315 -339 21 131 -347 0
-315 -339 -22 -132 -348 0
-315 -339 -22 132 348 0
-315 -339 22 -132 348 0
-315 -339 22 132 -348 0
-315 -339 -23 -133 -349 0
-315 -339 -23 133 349 0
-315 -339 23 -133 349 0
-315 -339 23 133 -349 0
-315 -339 -24 -134 -350 0
-315 -339 -24 134 350 0
-315 -339 24 -134 350 0
-315 -339 24 134 -350 0
-315 -339 -25 -135 -351 0
-315 -339 -25 135 351 0
-315 -339 25 -135 351 0
-315 -339 25 135 -351 0
-315 -339 -26 -136 -352 0
-315 -339 -26 136 352 0
-315 -339 26 -136 352 0
-315 -339 26 136 -352 0
-315 -339 -27 -137 -353 0
-315 -339 -27 137 353 0
-315 -339 27 -137 353 0
-315 -339 27 137 -353 0
-315 -340 -19 -160 -345 0
-315 -340 -19 160 345 0
-315 -340 19 -160 345 0
-315 -340 19 160 -345 0
-315 -340 -20 -161 -346 0
-315 -340 -20 161 346 0
-315 -340 20 -161 346 0
-315 -340 20 161 -346 0
-315 -340 -21 -162 -347 0
-315 -340 -21 162 347 0
-315 -340 21 -162 347 0
-315 -340 21 162 -347 0
-315 -340 -22 -163 -348 0
-315 -340 -22 163 348 0
-315 -340 22 -163 348 0
-315 -340 22 163 -348 0
-315 -340 -23 -164 -349 0
-315 -340 -23 164 349 0
-315 -340 23 -164 349 0
-315 -340 23 164 -349 0
-315 -340 -24 -165 -350 0
-315 -340 -24 165 350 0
-315 -340 24 -165 350 0
-315 -340 24 165 -350 0
-315 -340 -25 -166 -351 0
-315 -340 -25 166 351 0
-315 -340 25 -166 351 0
-315 -340 25 166 -351 0
-315 -340 -26 -167 -352 0
-315 -340 -26 167 352 0
-315 -340 26 -167 352 0
-315 -340 26 167 -352 0
-315 -340 -27 -168 -353 0
-315 -340 -27 168 353 0
-315 -340 27 -168 353 0
-315 -340 27 168 -353 0
-315 -341 -19 -193 -345 0
-315 -341 -19 193 345 0
-315 -341 19 -193 345 0
-315 -341 19 193 -345 0
-315 -341 -20 -194 -346 0
-315 -341 -20 194 346 0
-315 -341 20 -194 346 0
-315 -341 20 194 -346 0
-315 -341 -21 -195 -347 0
-315 -341 -21 195 347 0
-315 -341 21 -195 347 0
-315 -341 21 195 -347 0
-315 -341 -22 -196 -348 0
-315 -341 -22 196 348 0
-315 -341 22 -196 348 0
-315 -341 22 196 -348 0
-315 -341 -23 -197 -349 0
-315 -341 -23 197 349 0
-315 -341 23 -197 349 0
-315 -341 23 197 -349 0
-315 -341 -24 -198 -350 0
-315 -341 -24 198 350 0
-315 -341 24 -198 350 0
-315 -341 24 198 -350 0
-315 -341 -25 -199 -351 0
-315 -341 -25 199 351 0
-315 -341 25 -199 351 0
-315 -341 25 199 -351 0
-315 -341 -26 -200 -352 0
-315 -341 -26 200 352 0
-315 -341 26 -200 352 0
-315 -341 26 200 -352 0
-315 -341 -27 -201 -353 0
-315 -341 -27 201 353 0
-315 -341 27 -201 353 0
-315 -341 27 201 -353 0
-315 -342 -19 -228 -345 0
-315 -342 -19 228 345 0
-315 -342 19 -228 345 0
-315 -342 19 228 -345 0
-315 -342 -20 -229 -346 0
-315 -342 -20 229 346 0
-315 -342 20 -229 346 0
-315 -342 20 229 -346 0
-315 -342 -21 -230 -347 0
-315 -342 -21 230 347 0
-315 -342 21 -230 347 0
-315 -342 21 230 -347 0
-315 -342 -22 -231 -348 0
-315 -342 -22 231 348 0
-315 -342 22 -231 348 0
-315 -342 22 231 -348 0
-315 -342 -23 -232 -349 0
-315 -342 -23 232 349 0
-315 -342 23 -232 349 0
-315 -342 23 232 -349 0
-315 -342 -24 -233 -350 0
-315 -342 -24 233 350 0
-315 -342 24 -233 350 0
-315 -342 24 233 -350 0
-315 -342 -25 -234 -351 0
-315 -342 -25 234 351 0
-315 -342 25 -234 351 0
-315 -342 25 234 -351 0
-315 -342 -26 -235 -352 0
-315 -342 -26 235 352 0
-315 -342 26 -235 352 0
-315 -342 26 235 -352 0
-315 -342 -27 -236 -353 0
-315 -342 -27 236 353 0
-315 -342 27 -236 353 0
-315 -342 27 236 -353 0
-315 -343 -19 -265 -345 0
-315 -343 -19 265 345 0
-315 -343 19 -265 345 0
-315 -343 19 265 -345 0
-315 -343 -20 -266 -346 0
-315 -343 -20 266 346 0
-315 -343 20 -266 346 0
-315 -343 20 266 -346 0
-315 -343 -21 -267 -347 0
-315 -343 -21 267 347 0
-315 -343 21 -267 347 0
-315 -343 21 267 -347 0
-315 -343 -22 -268 -348 0
-315 -343 -22 268 348 0
-315 -343 22 -268 348 0
-315 -343 22 268 -348 0
-315 -343 -23 -269 -349 0
-315 -343 -23 269 349 0
-315 -343 23 -269 349 0
-315 -343 23 269 -349 0
-315 -343 -24 -270 -350 0
-315 -343 -24 270 350 0
-315 -343 24 -270 350 0
-315 -343 24 270 -350 0
-315 -343 -25 -271 -351 0
-315 -343 -25 271 351 0
-315 -343 25 -271 351 0
-315 -343 25 271 -351 0
-315 -343 -26 -272 -352 0
-315 -343 -26 272 352 0
-315 -343 26 -272 352 0
-315 -343 26 272 -352 0
-315 -343 -27 -273 -353 0
-315 -343 -27 273 353 0
-315 -343 27 -273 353 0
-315 -343 27 273 -353 0
-315 -344 -19 -304 -345 0
-315 -344 -19 304 345 0
-315 -344 19 -304 345 0
-315 -344 19 304 -345 0
-315 -344 -20 -305 -346 0
-315 -344 -20 305 346 0
-315 -344 20 -305 346 0
-315 -344 20 305 -346 0
-315 -344 -21 -306 -347 0
-315 -344 -21 306 347 0
-315 -344 21 -306 347 0
-315 -344 21 306 -347 0
-315 -344 -22 -307 -348 0
-315 -344 -22 307 348 0
-315 -344 22 -307 348 0
-315 -344 22 307 -348 0
-315 -344 -23 -308 -349 0
-315 -344 -23 308 349 0
-315 -344 23 -308 349 0
-315 -344 23 308 -349 0
-315 -344 -24 -309 -350 0
-315 -344 -24 309 350 0
-315 -344 24 -309 350 0
-315 -344 24 309 -350 0
-315 -344 -25 -310 -351 0
-315 -344 -25 310 351 0
-315 -344 25 -310 351 0
-315 -344 25 310 -351 0
-315 -344 -26 -311 -352 0
-315 -344 -26 311 352 0
-315 -344 26 -311 352 0
-315 -344 26 311 -352 0
-315 -344 -27 -312 -353 0
-315 -344 -27 312 353 0
-315 -344 27 -312 353 0
-315 -344 27 312 -353 0
-316 -333 -28 -37 -345 0
-316 -333 -28 37 345 0
-316 -333 28 -37 345 0
-316 -333 28 37 -345 0
-316 -333 -29 -38 -346 0
-316 -333 -29 38 346 0
-316 -333 29 -38 346 0
-316 -333 29 38 -346 0
-316 -333 -30 -39 -347 0
-316 -333 -30 39 347 0
-316 -333 30 -39 347 0
-316 -333 30 39 -347 0
-316 -333 -31 -40 -348 0
-316 -333 -31 40 348 0
-316 -333 31 -40 348 0
-316 -333 31 40 -348 0
-316 -333 -32 -41 -349 0
-316 -333 -32 41 349 0
-316 -333 32 -41 349 0
-316 -333 32 41 -349 0
-316 -333 -33 -42 -350 0
-316 -333 -33 42 350 0
-316 -333 33 -42 350 0
-316 -333 33 42 -350 0
-316 -333 -34 -43 -351 0
-316 -333 -34 43 351 0
-316 -333 34 -43 351 0
-316 -333 34 43 -351 0
-316 -333 -35 -44 -352 0
-316 -333 -35 44 352 0
-316 -333 35 -44 352 0
-316 -333 35 44 -352 0
-316 -333 -36 -45 -353 0
-316 -333 -36 45 353 0
-316 -333 36 -45 353 0
-316 -333 36 45 -353 0
-316 -334 -28 -46 -345 0
-316 -334 -28 46 345 0
-316 -334 28 -46 345 0
-316 -334 28 46 -345 0
-316 -334 -29 -47 -346 0
-316 -334 -29 47 346 0
-316 -334 29 -47 346 0
-316 -334 29 47 -346 0
-316 -334 -30 -48 -347 0
-316 -334 -30 48 347 0
-316 -334 30 -48 347 0
-316 -334 30 48 -347 0
-316 -334 -31 -49 -348 0
-316 -334 -31 49 348 0
-316 -334 31 -49 348 0
-316 -334 31 49 -348 0
-316 -334 -32 -50 -349 0
-316 -334 -32 50 349 0
-316 -334 32 -50 349 0
-316 -334 32 50 -349 0
-316 -334 -33 -51 -350 0
-316 -334 -33 51 350 0
-316 -334 33 -51 350 0
-316 -334 33 51 -350 0
-316 -334 -34 -52 -351 0
-316 -334 -34 52 351 0
-316 -334 34 -52 351 0
-316 -334 34 52 -351 0
-316 -334 -35 -53 -352 0
-316 -334 -35 53 352 0
-316 -334 35 -53 352 0
-316 -334 35 53 -352 0
-316 -334 -36 -54 -353 0
-316 -334 -36 54 353 0
-316 -334 36 -54 353 0
-316 -334 36 54 -353 0
-316 -335 -28 -55 -345 0
-316 -335 -28 55 345 0
-316 -335 28 -55 345 0
-316 -335 28 55 -345 0
-316 -335 -29 -56 -346 0
-316 -335 -29 56 346 0
-316 -335 29 -56 346 0
-316 -335 29 56 -346 0
-316 -335 -30 -57 -347 0
-316 -335 -30 57 347 0
-316 -335 30 -57 347 0
-316 -335 30 57 -347 0
-316 -335 -31 -58 -348 0
-316 -335 -31 58 348 0
-316 -335 31 -58 348 0
-316 -335 31 58 -348 0
-316 -335 -32 -59 -349 0
-316 -335 -32 59 349 0
-316 -335 32 -59 349 0
-316 -335 32 59 -349 0
-316 -335 -33 -60 -350 0
-316 -335 -33 60 350 0
-316 -335 33 -60 350 0
-316 -335 33 60 -350 0
-316 -335 -34 -61 -351 0
-316 -335 -34 61 351 0
-316 -335 34 -61 351 0
-316 -335 34 61 -351 0
-316 -335 -35 -62 -352 0
-316 -335 -35 62 352 0
-316 -335 35 -62 352 0
-316 -335 35 62 -352 0
-316 -335 -36 -63 -353 0
-316 -335 -36 63 353 0
-316 -335 36 -63 353 0
-316 -335 36 63 -353 0
-316 -336 -28 -64 -345 0
-316 -336 -28 64 345 0
-316 -336 28 -64 345 0
-316 -336 28 64 -345 0
-316 -336 -29 -65 -346 0
-316 -336 -29 65 346 0
-316 -336 29 -65 346 0
-316 -336 29 65 -346 0
-316 -336 -30 -66 -347 0
-316 -336 -30 66 347 0
-316 -336 30 -66 347 0
-316 -336 30 66 -347 0
-316 -336 -31 -67 -348 0
-316 -336 -31 67 348 0
-316 -336 31 -67 348 0
-316 -336 31 67 -348 0
-316 -336 -32 -68 -349 0
-316 -336 -32 68 349 0
-316 -336 32 -68 349 0
-316 -336 32 68 -349 0
-316 -336 -33 -69 -350 0
-316 -336 -33 69 350 0
-316 -336 33 -69 350 0
-316 -336 33 69 -350 0
-316 -336 -34 -70 -351 0
-316 -336 -34 70 351 0
-316 -336 34 -70 351 0
-316 -336 34 70 -351 0
-316 -336 -35 -71 -352 0
-316 -336 -35 71 352 0
-316 -336 35 -71 352 0
-316 -336 35 71 -352 0
-316 -336 -36 -72 -353 0
-316 -336 -36 72 353 0
-316 -336 36 -72 353 0
-316 -336 36 72 -353 0
-316 -337 -28 -73 -345 0
-316 -337 -28 73 345 0
-316 -337 28 -73 345 0
-316 -337 28 73 -345 0
-316 -337 -29 -74 -346 0
-316 -337 -29 74 346 0
-316 -337 29 -74 346 0
-316 -337 29 74 -346 0
-316 -337 -30 -75 -347 0
-316 -337 -30 75 347 0
-316 -337 30 -75 347 0
-316 -337 30 75 -347 0
-316 -337 -31 -76 -348 0
-316 -337 -31 76 348 0
-316 -337 31 -76 348 0
-316 -337 31 76 -348 0
-316 -337 -32 -77 -349 0
-316 -337 -32 77 349 0
-316 -337 32 -77 349 0
-316 -337 32 77 -349 0
-316 -337 -33 -78 -350 0
-316 -337 -33 78 350 0
-316 -337 33 -78 350 0
-316 -337 33 78 -350 0
-316 -337 -34 -79 -351 0
-316 -337 -34 79 351 0
-316 -337 34 -79 351 0
-316 -337 34 79 -351 0
-316 -337 -35 -80 -352 0
-316 -337 -35 80 352 0
-316 -337 35 -80 352 0
-316 -337 35 80 -352 0
-316 -337 -36 -81 -353 0
-316 -337 -36 81 353 0
-316 -337 36 -81 353 0
-316 -337 36 81 -353 0
-316 -338 -28 -100 -345 0
-316 -338 -28 100 345 0
-316 -338 28 -100 345 0
-316 -338 28 100 -345 0
-316 -338 -29 -101 -346 0
-316 -338 -29 101 346 0
-316 -338 29 -101 346 0
-316 -338 29 101 -346 0
-316 -338 -30 -102 -347 0
-316 -338 -30 102 347 0
-316 -338 30 -102 347 0
-316 -338 30 102 -347 0
-316 -338 -31 -103 -348 0
-316 -338 -31 103 348 0
-316 -338 31 -103 348 0
-316 -338 31 103 -348 0
-316 -338 -32 -104 -349 0
-316 -338 -32 104 349 0
-316 -338 32 -104 349 0
-316 -338 32 104 -349 0
-316 -338 -33 -105 -350 0
-316 -338 -33 105 350 0
-316 -338 33 -105 350 0
-316 -338 33 105 -350 0
-316 -338 -34 -106 -351 0
-316 -338 -34 106 351 0
-316 -338 34 -106 351 0
-316 -338 34 106 -351 0
-316 -338 -35 -107 -352 0
-316 -338 -35 107 352 0
-316 -338 35 -107 352 0
-316 -338 35 107 -352 0
-316 -338 -36 -108 -353 0
-316 -338 -36 108 353 0
-316 -338 36 -108 353 0
-316 -338 36 108 -353 0
-316 -339 -28 -129 -345 0
-316 -339 -28 129 345 0
-316 -339 28 -129 345 0
-316 -339 28 129 -345 0
-316 -339 -29 -130 -346 0
-316 -339 -29 130 346 0
-316 -339 29 -130 346 0
-316 -339 29 130 -346 0
-316 -339 -30 -131 -347 0
-316 -339 -30 131 347 0
-316 -339 30 -131 347 0
-316 -339 30 131 -347 0
-316 -339 -31 -132 -348 0
-316 -339 -31 132 348 0
-316 -339 31 -132 348 0
-316 -339 31 132 -348 0
-316 -339 -32 -133 -349 0
-316 -339 -32 133 349 0
-316 -339 32 -133 349 0
-316 -339 32 133 -349 0
-316 -339 -33 -134 -350 0
-316 -339 -33 134 350 0
-316 -339 33 -134 350 0
-316 -339 33 134 -350 0
-316 -339 -34 -135 -351 0
-316 -339 -34 135 351 0
-316 -339 34 -135 351 0
-316 -339 34 135 -351 0
-316 -339 -35 -136 -352 0
-316 -339 -35 136 352 0
-316 -339 35 -136 352 0
-316 -339 35 136 -352 0
-316 -339 -36 -137 -353 0
-316 -339 -36 137 353 0
-316 -339 36 -137 353 0
-316 -339 36 137 -353 0
-316 -340 -28 -160 -345 0
-316 -340 -28 160 345 0
-316 -340 28 -160 345 0
-316 -340 28 160 -345 0
-316 -340 -29 -161 -346 0
-316 -340 -29 161 346 0
-316 -340 29 -161 346 0
-316 -340 29 161 -346 0
-316 -340 -30 -162 -347 0
-316 -340 -30 162 347 0
-316 -340 30 -162 347 0
-316 -340 30 162 -347 0
-316 -340 -31 -163 -348 0
-316 -340 -31 163 348 0
-316 -340 31 -163 348 0
-316 -340 31 163 -348 0
-316 -340 -32 -164 -349 0
-316 -340 -32 164 349 0
-316 -340 32 -164 349 0
-316 -340 32 164 -349 0
-316 -340 -33 -165 -350 0
-316 -340 -33 165 350 0
-316 -340 33 -165 350 0
-316 -340 33 165 -350 0
-316 -340 -34 -166 -351 0
-316 -340 -34 166 351 0
-316 -340 34 -166 351 0
-316 -340 34 166 -351 0
-316 -340 -35 -167 -352 0
-316 -340 -35 167 352 0
-316 -340 35 -167 352 0
-316 -340 35 167 -352 0
-316 -340 -36 -168 -353 0
-316 -340 -36 168 353 0
-316 -340 36 -168 353 0
-316 -340 36 168 -353 0
-316 -341 -28 -193 -345 0
-316 -341 -28 193 345 0
-316 -341 28 -193 345 0
-316 -341 28 193 -345 0
-316 -341 -29 -194 -346 0
-316 -341 -29 194 346 0
-316 -341 29 -194 346 0
-316 -341 29 194 -346 0
-316 -341 -30 -195 -347 0
-316 -341 -30 195 347 0
-316 -341 30 -195 347 0
-316 -341 30 195 -347 0
-316 -341 -31 -196 -348 0
-316 -341 -31 196 348 0
-316 -341 31 -196 348 0
-316 -341 31 196 -348 0
-316 -341 -32 -197 -349 0
-316 -341 -32 197 349 0
-316 -341 32 -197 349 0
-316 -341 32 197 -349 0
-316 -341 -33 -198 -350 0
-316 -341 -33 198 350 0
-316 -341 33 -198 350 0
-316 -341 33 198 -350 0
-316 -341 -34 -199 -351 0
-316 -341 -34 199 351 0
-316 -341 34 -199 351 0
-316 -341 34 199 -351 0
-316 -341 -35 -200 -352 0
-316 -341 -35 200 352 0
-316 -341 35 -200 352 0
-316 -341 35 200 -352 0
-316 -341 -36 -201 -353 0
-316 -341 -36 201 353 0
-316 -341 36 -201 353 0
-316 -341 36 201 -353 0
-316 -342 -28 -228 -345 0
-316 -342 -28 228 345 0
-316 -342 28 -228 345 0
-316 -342 28 228 -345 0
-316 -342 -29 -229 -346 0
-316 -342 -29 229 346 0
-316 -342 29 -229 346 0
-316 -342 29 229 -346 0
-316 -342 -30 -230 -347 0
-316 -342 -30 230 347 0
-316 -342 30 -230 347 0
-316 -342 30 230 -347 0
-316 -342 -31 -231 -348 0
-316 -342 -31 231 348 0
-316 -342 31 -231 348 0
-316 -342 31 231 -348 0
-316 -342 -32 -232 -349 0
-316 -342 -32 232 349 0
-316 -342 32 -232 349 0
-316 -342 32 232 -349 0
-316 -342 -33 -233 -350 0
-316 -342 -33 233 350 0
-316 -342 33 -233 350 0
-316 -342 33 233 -350 0
-316 -342 -34 -234 -351 0
-316 -342 -34 234 351 0
-316 -342 34 -234 351 0
-316 -342 34 234 -351 0
-316 -342 -35 -235 -352 0
-316 -342 -35 235 352 0
-316 -342 35 -235 352 0
-316 -342 35 235 -352 0
-316 -342 -36 -236 -353 0
-316 -342 -36 236 353 0
-316 -342 36 -236 353 0
-316 -342 36 236 -353 0
-316 -343 -28 -265 -345 0
-316 -343 -28 265 345 0
-316 -343 28 -265 345 0
-316 -343 28 265 -345 0
-316 -343 -29 -266 -346 0
-316 -343 -29 266 346 0
-316 -343 29 -266 346 0
-316 -343 29 266 -346 0
-316 -343 -30 -267 -347 0
-316 -343 -30 267 347 0
-316 -343 30 -267 347 0
-316 -343 30 267 -347 0
-316 -343 -31 -268 -348 0
-316 -343 -31 268 348 0
-316 -343 31 -268 348 0
-316 -343 31 268 -348 0
-316 -343 -32 -269 -349 0
-316 -343 -32 269 349 0
-316 -343 32 -269 349 0
-316 -343 32 269 -349 0
-316 -343 -33 -270 -350 0
-316 -343 -33 270 350 0
-316 -343 33 -270 350 0
-316 -343 33 270 -350 0
-316 -343 -34 -271 -351 0
-316 -343 -34 271 351 0
-316 -343 34 -271 351 0
-316 -343 34 271 -351 0
-316 -343 -35 -272 -352 0
-316 -343 -35 272 352 0
-316 -343 35 -272 352 0
-316 -343 35 272 -352 0
-316 -343 -36 -273 -353 0
-316 -343 -36 273 353 0
-316 -343 36 -273 353 0
-316 -343 36 273 -353 0
-316 -344 -28 -304 -345 0
-316 -344 -28 304 345 0
-316 -344 28 -304 345 0
-316 -344 28 304 -345 0
-316 -344 -29 -305 -346 0
-316 -344 -29 305 346 0
-316 -344 29 -305 346 0
-316 -344 29 305 -346 0
-316 -344 -30 -306 -347 0
-316 -344 -30 306 347 0
-316 -344 30 -306 347 0
-316 -344 30 306 -347 0
-316 -344 -31 -307 -348 0
-316 -344 -31 307 348 0
-316 -344 31 -307 348 0
-316 -344 31 307 -348 0
-316 -344 -32 -308 -349 0
-316 -344 -32 308 349 0
-316 -344 32 -308 349 0
-316 -344 32 308 -349 0
-316 -344 -33 -309 -350 0
-316 -344 -33 309 350 0
-316 -344 33 -309 350 0
-316 -344 33 309 -350 0
-316 -344 -34 -310 -351 0
-316 -344 -34 310 351 0
-316 -344 34 -310 351 0
-316 -344 34 310 -351 0
-316 -344 -35 -311 -352 0
-316 -344 -35 311 352 0
-316 -344 35 -311 352 0
-316 -344 35 311 -352 0
-316 -344 -36 -312 -353 0
-316 -344 -36 312 353 0
-316 -344 36 -312 353 0
-316 -344 36 312 -353 0
-317 -334 -37 -46 -345 0
-317 -334 -37 46 345 0
-317 -334 37 -46 345 0
-317 -334 37 46 -345 0
-317 -334 -38 -47 -346 0
-317 -334 -38 47 346 0
-317 -334 38 -47 346 0
-317 -334 38 47 -346 0
-317 -334 -39 -48 -347 0
-317 -334 -39 48 347 0
-317 -334 39 -48 347 0
-317 -334 39 48 -347 0
-317 -334 -40 -49 -348 0
-317 -334 -40 49 348 0
-317 -334 40 -49 348 0
-317 -334 40 49 -348 0
-317 -334 -41 -50 -349 0
-317 -334 -41 50 349 0
-317 -334 41 -50 349 0
-317 -334 41 50 -349 0
-317 -334 -42 -51 -350 0
-317 -334 -42 51 350 0
-317 -334 42 -51 350 0
-317 -334 42 51 -350 0
-317 -334 -43 -52 -351 0
-317 -334 -43 52 351 0
-317 -334 43 -52 351 0
-317 -334 43 52 -351 0
-317 -334 -44 -53 -352 0
-317 -334 -44 53 352 0
-317 -334 44 -53 352 0
-317 -334 44 53 -352 0
-317 -334 -45 -54 -353 0
-317 -334 -45 54 353 0
-317 -334 45 -54 353 0
-317 -334 45 54 -353 0
-317 -335 -37 -55 -345 0
-317 -335 -37 55 345 0
-317 -335 37 -55 345 0
-317 -335 37 55 -345 0
-317 -335 -38 -56 -346 0
-317 -335 -38 56 346 0
-317 -335 38 -56 346 0
-317 -335 38 56 -346 0
-317 -335 -39 -57 -347 0
-317 -335 -39 57 347 0
-317 -335 39 -57 347 0
-317 -335 39 57 -347 0
-317 -335 -40 -58 -348 0
-317 -335 -40 58 348 0
-317 -335 40 -58 348 0
-317 -335 40 58 -348 0
-317 -335 -41 -59 -349 0
-317 -335 -41 59 349 0
-317 -335 41 -59 349 0
-317 -335 41 59 -349 0
-317 -335 -42 -60 -350 0
-317 -335 -42 60 350 0
-317 -335 42 -60 350 0
-317 -335 42 60 -350 0
-317 -335 -43 -61 -351 0
-317 -335 -43 61 351 0
-317 -335 43 -61 351 0
-317 -335 43 61 -351 0
-317 -335 -44 -62 -352 0
-317 -335 -44 62 352 0
-317 -335 44 -62 352 0
-317 -335 44 62 -352 0
-317 -335 -45 -63 -353 0
-317 -335 -45 63 353 0
-317 -335 45 -63 353 0
-317 -335 45 63 -353 0
-317 -336 -37 -64 -345 0
-317 -336 -37 64 345 0
-317 -336 37 -64 345 0
-317 -336 37 64 -345 0
-317 -336 -38 -65 -346 0
-317 -336 -38 65 346 0
-317 -336 38 -65 346 0
-317 -336 38 65 -346 0
-317 -336 -39 -66 -347 0
-317 -336 -39 66 347 0
-317 -336 39 -66 347 0
-317 -336 39 66 -347 0
-317 -336 -40 -67 -348 0
-317 -336 -40 67 348 0
-317 -336 40 -67 348 0
-317 -336 40 67 -348 0
-317 -336 -41 -68 -349 0
-317 -336 -41 68 349 0
-317 -336 41 -68 349 0
-317 -336 41 68 -349 0
-317 -336 -42 -69 -350 0
-317 -336 -42 69 350 0
-317 -336 42 -69 350 0
-317 -336 42 69 -350 0
-317 -336 -43 -70 -351 0
-317 -336 -43 70 351 0
-317 -336 43 -70 351 0
-317 -336 43 70 -351 0
-317 -336 -44 -71 -352 0
-317 -336 -44 71 352 0
-317 -336 44 -71 352 0
-317 -336 44 71 -352 0
-317 -336 -45 -72 -353 0
-317 -336 -45 72 353 0
-317 -336 45 -72 353 0
-317 -336 45 72 -353 0
-317 -337 -37 -73 -345 0
-317 -337 -37 73 345 0
-317 -337 37 -73 345 0
-317 -337 37 73 -345 0
-317 -337 -38 -74 -346 0
-317 -337 -38 74 346 0
-317 -337 38 -74 346 0
-317 -337 38 74 -346 0
-317 -337 -39 -75 -347 0
-317 -337 -39 75 347 0
-317 -337 39 -75 347 0
-317 -337 39 75 -347 0
-317 -337 -40 -76 -348 0
-317 -337 -40 76 348 0
-317 -337 40 -76 348 0
-317 -337 40 76 -348 0
-317 -337 -41 -77 -349 0
-317 -337 -41 77 349 0
-317 -337 41 -77 349 0
-317 -337 41 77 -349 0
-317 -337 -42 -78 -350 0
-317 -337 -42 78 350 0
-317 -337 42 -78 350 0
-317 -337 42 78 -350 0
-317 -337 -43 -79 -351 0
-317 -337 -43 79 351 0
-317 -337 43 -79 351 0
-317 -337 43 79 -351 0
-317 -337 -44 -80 -352 0
-317 -337 -44 80 352 0
-317 -337 44 -80 352 0
-317 -337 44 80 -352 0
-317 -337 -45 -81 -353 0
-317 -337 -45 81 353 0
-317 -337 45 -81 353 0
-317 -337 45 81 -353 0
-317 -338 -37 -100 -345 0
-317 -338 -37 100 345 0
-317 -338 37 -100 345 0
-317 -338 37 100 -345 0
-317 -338 -38 -101 -346 0
-317 -338 -38 101 346 0
-317 -338 38 -101 346 0
-317 -338 38 101 -346 0
-317 -338 -39 -102 -347 0
-317 -338 -39 102 347 0
-317 -338 39 -102 347 0
-317 -338 39 102 -347 0
-317 -338 -40 -103 -348 0
-317 -338 -40 103 348 0
-317 -338 40 -103 348 0
-317 -338 40 103 -348 0
-317 -338 -41 -104 -349 0
-317 -338 -41 104 349 0
-317 -338 41 -104 349 0
-317 -338 41 104 -349 0
-317 -338 -42 -105 -350 0
-317 -338 -42 105 350 0
-317 -338 42 -105 350 0
-317 -338 42 105 -350 0
-317 -338 -43 -106 -351 0
-317 -338 -43 106 351 0
-317 -338 43 -106 351 0
-317 -338 43 106 -351 0
-317 -338 -44 -107 -352 0
-317 -338 -44 107 352 0
-317 -338 44 -107 352 0
-317 -338 44 107 -352 0
-317 -338 -45 -108 -353 0
-317 -338 -45 108 353 0
-317 -338 45 -108 353 0
-317 -338 45 108 -353 0
-317 -339 -37 -129 -345 0
-317 -339 -37 129 345 0
-317 -339 37 -129 345 0
-317 -339 37 129 -345 0
-317 -339 -38 -130 -346 0
-317 -339 -38 130 346 0
-317 -339 38 -130 346 0
-317 -339 38 130 -346 0
-317 -339 -39 -131 -347 0
-317 -339 -39 131 347 0
-317 -339 39 -131 347 0
-317 -339 39 131 -347 0
-317 -339 -40 -132 -348 0
-317 -339 -40 132 348 0
-317 -339 40 -132 348 0
-317 -339 40 132 -348 0
-317 -339 -41 -133 -349 0
-317 -339 -41 133 349 0
-317 -339 41 -133 349 0
-317 -339 41 133 -349 0
-317 -339 -42 -134 -350 0
-317 -339 -42 134 350 0
-317 -339 42 -134 350 0
-317 -339 42 134 -350 0
-317 -339 -43 -135 -351 0
-317 -339 -43 135 351 0
-317 -339 43 -135 351 0
-317 -339 43 135 -351 0
-317 -339 -44 -136 -352 0
-317 -339 -44 136 352 0
-317 -339 44 -136 352 0
-317 -339 44 136 -352 0
-317 -339 -45 -137 -353 0
-317 -339 -45 137 353 0
-317 -339 45 -137 353 0
-317 -339 45 137 -353 0
-317 -340 -37 -160 -345 0
-317 -340 -37 160 345 0
-317 -340 37 -160 345 0
-317 -340 37 160 -345 0
-317 -340 -38 -161 -346 0
-317 -340 -38 161 346 0
-317 -340 38 -161 346 0
-317 -340 38 161 -346 0
-317 -340 -39 -162 -347 0
-317 -340 -39 162 347 0
-317 -340 39 -162 347 0
-317 -340 39 162 -347 0
-317 -340 -40 -163 -348 0
-317 -340 -40 163 348 0
-317 -340 40 -163 348 0
-317 -340 40 163 -348 0
-317 -340 -41 -164 -349 0
-317 -340 -41 164 349 0
-317 -340 41 -164 349 0
-317 -340 41 164 -349 0
-317 -340 -42 -165 -350 0
-317 -340 -42 165 350 0
-317 -340 42 -165 350 0
-317 -340 42 165 -350 0
-317 -340 -43 -166 -351 0
-317 -340 -43 166 351 0
-317 -340 43 -166 351 0
-317 -340 43 166 -351 0
-317 -340 -44 -167 -352 0
-317 -340 -44 167 352 0
-317 -340 44 -167 352 0
-317 -340 44 167 -352 0
-317 -340 -45 -168 -353 0
-317 -340 -45 168 353 0
-317 -340 45 -168 353 0
-317 -340 45 168 -353 0
-317 -341 -37 -193 -345 0
-317 -341 -37 193 345 0
-317 -341 37 -193 345 0
-317 -341 37 193 -345 0
-317 -341 -38 -194 -346 0
-317 -341 -38 194 346 0
-317 -341 38 -194 346 0
-317 -341 38 194 -346 0
-317 -341 -39 -195 -347 0
-317 -341 -39 195 347 0
-317 -341 39 -195 347 0
-317 -341 39 195 -347 0
-317 -341 -40 -196 -348 0
-317 -341 -40 196 348 0
-317 -341 40 -196 348 0
-317 -341 40 196 -348 0
-317 -341 -41 -197 -349 0
-317 -341 -41 197 349 0
-317 -341 41 -197 349 0
-317 -341 41 197 -349 0
-317 -341 -42 -198 -350 0
-317 -341 -42 198 350 0
-317 -341 42 -198 350 0
-317 -341 42 198 -350 0
-317 -341 -43 -199 -351 0
-317 -341 -43 199 351 0
-317 -341 43 -199 351 0
-317 -341 43 199 -351 0
-317 -341 -44 -200 -352 0
-317 -341 -44 200 352 0
-317 -341 44 -200 352 0
-317 -341 44 200 -352 0
-317 -341 -45 -201 -353 0
-317 -341 -45 201 353 0
-317 -341 45 -201 353 0
-317 -341 45 201 -353 0
-317 -342 -37 -228 -345 0
-317 -342 -37 228 345 0
-317 -342 37 -228 345 0
-317 -342 37 228 -345 0
-317 -342 -38 -229 -346 0
-317 -342 -38 229 346 0
-317 -342 38 -229 346 0
-317 -342 38 229 -346 0
-317 -342 -39 -230 -347 0
-317 -342 -39 230 347 0
-317 -342 39 -230 347 0
-317 -342 39 230 -347 0
-317 -342 -40 -231 -348 0
-317 -342 -40 231 348 0
-317 -342 40 -231 348 0
-317 -342 40 231 -348 0
-317 -342 -41 -232 -349 0
-317 -342 -41 232 349 0
-317 -342 41 -232 349 0
-317 -342 41 232 -349 0
-317 -342 -42 -233 -350 0
-317 -342 -42 233 350 0
-317 -342 42 -233 350 0
-317 -342 42 233 -350 0
-317 -342 -43 -234 -351 0
-317 -342 -43 234 351 0
-317 -342 43 -234 351 0
-317 -342 43 234 -351 0
-317 -342 -44 -235 -352 0
-317 -342 -44 235 352 0
-317 -342 44 -235 352 0
-317 -342 44 235 -352 0
-317 -342 -45 -236 -353 0
-317 -342 -45 236 353 0
-317 -342 45 -236 353 0
-317 -342 45 236 -353 0
-317 -343 -37 -265 -345 0
-317 -343 -37 265 345 0
-317 -343 37 -265 345 0
-317 -343 37 265 -345 0
-317 -343 -38 -266 -346 0
-317 -343 -38 266 346 0
-317 -343 38 -266 346 0
-317 -343 38 266 -346 0
-317 -343 -39 -267 -347 0
-317 -343 -39 267 347 0
-317 -343 39 -267 347 0
-317 -343 39 267 -347 0
-317 -343 -40 -268 -348 0
-317 -343 -40 268 348 0
-317 -343 40 -268 348 0
-317 -343 40 268 -348 0
-317 -343 -41 -269 -349 0
-317 -343 -41 269 349 0
-317 -343 41 -269 349 0
-317 -343 41 269 -349 0
-317 -343 -42 -270 -350 0
-317 -343 -42 270 350 0
-317 -343 42 -270 350 0
-317 -343 42 270 -350 0
-317 -343 -43 -271 -351 0
-317 -343 -43 271 351 0
-317 -343 43 -271 351 0
-317 -343 43 271 -351 0
-317 -343 -44 -272 -352 0
-317 -343 -44 272 352 0
-317 -343 44 -272 352 0
-317 -343 44 272 -352 0
-317 -343 -45 -273 -353 0
-317 -343 -45 273 353 0
-317 -343 45 -273 353 0
-317 -343 45 273 -353 0
-317 -344 -37 -304 -345 0
-317 -344 -37 304 345 0
-317 -344 37 -304 345 0
-317 -344 37 304 -345 0
-317 -344 -38 -305 -346 0
-317 -344 -38 305 346 0
-317 -344 38 -305 346 0
-317 -344 38 305 -346 0
-317 -344 -39 -306 -347 0
-317 -344 -39 306 347 0
-317 -344 39 -306 347 0
-317 -344 39 306 -347 0
-317 -344 -40 -307 -348 0
-317 -344 -40 307 348 0
-317 -344 40 -307 348 0
-317 -344 40 307 -348 0
-317 -344 -41 -308 -349 0
-317 -344 -41 308 349 0
-317 -344 41 -308 349 0
-317 -344 41 308 -349 0
-317 -344 -42 -309 -350 0
-317 -344 -42 309 350 0
-317 -344 42 -309 350 0
-317 -344 42 309 -350 0
-317 -344 -43 -310 -351 0
-317 -344 -43 310 351 0
-317 -344 43 -310 351 0
-317 -344 43 310 -351 0
-317 -344 -44 -311 -352 0
-317 -344 -44 311 352 0
-317 -344 44 -311 352 0
-317 -344 44 311 -352 0
-317 -344 -45 -312 -353 0
-317 -344 -45 312 353 0
-317 -344 45 -312 353 0
-317 -344 45 312 -353 0
-318 -335 -46 -55 -345 0
-318 -335 -46 55 345 0
-318 -335 46 -55 345 0
-318 -335 46 55 -345 0
-318 -335 -47 -56 -346 0
-318 -335 -47 56 346 0
-318 -335 47 -56 346 0
-318 -335 47 56 -346 0
-318 -335 -48 -57 -347 0
-318 -335 -48 57 347 0
-318 -335 48 -57 347 0
-318 -335 48 57 -347 0
-318 -335 -49 -58 -348 0
-318 -335 -49 58 348 0
-318 -335 49 -58 348 0
-318 -335 49 58 -348 0
-318 -335 -50 -59 -349 0
-318 -335 -50 59 349 0
-318 -335 50 -59 349 0
-318 -335 50 59 -349 0
-318 -335 -51 -60 -350 0
-318 -335 -51 60 350 0
-318 -335 51 -60 350 0
-318 -335 51 60 -350 0
-318 -335 -52 -61 -351 0
-318 -335 -52 61 351 0
-318 -335 52 -61 351 0
-318 -335 52 61 -351 0
-318 -335 -53 -62 -352 0
-318 -335 -53 62 352 0
-318 -335 53 -62 352 0
-318 -335 53 62 -352 0
-318 -335 -54 -63 -353 0
-318 -335 -54 63 353 0
-318 -335 54 -63 353 0
-318 -335 54 63 -353 0
-318 -336 -46 -64 -345 0
-318 -336 -46 64 345 0
-318 -336 46 -64 345 0
-318 -336 46 64 -345 0
-318 -336 -47 -65 -346 0
-318 -336 -47 65 346 0
-318 -336 47 -65 346 0
-318 -336 47 65 -346 0
-318 -336 -48 -66 -347 0
-318 -336 -48 66 347 0
-318 -336 48 -66 347 0
-318 -336 48 66 -347 0
-318 -336 -49 -67 -348 0
-318 -336 -49 67 348 0
-318 -336 49 -67 348 0
-318 -336 49 67 -348 0
-318 -336 -50 -68 -349 0
-318 -336 -50 68 349 0
-318 -336 50 -68 349 0
-318 -336 50 68 -349 0
-318 -336 -51 -69 -350 0
-318 -336 -51 69 350 0
-318 -336 51 -69 350 0
-318 -336 51 69 -350 0
-318 -336 -52 -70 -351 0
-318 -336 -52 70 351 0
-318 -336 52 -70 351 0
-318 -336 52 70 -351 0
-318 -336 -53 -71 -352 0
-318 -336 -53 71 352 0
-318 -336 53 -71 352 0
-318 -336 53 71 -352 0
-318 -336 -54 -72 -353 0
-318 -336 -54 72 353 0
-318 -336 54 -72 353 0
-318 -336 54 72 -353 0
-318 -337 -46 -73 -345 0
-318 -337 -46 73 345 0
-318 -337 46 -73 345 0
-318 -337 46 73 -345 0
-318 -337 -47 -74 -346 0
-318 -337 -47 74 346 0
-318 -337 47 -74 346 0
-318 -337 47 74 -346 0
-318 -337 -48 -75 -347 0
-318 -337 -48 75 347 0
-318 -337 48 -75 347 0
-318 -337 48 75 -347 0
-318 -337 -49 -76 -348 0
-318 -337 -49 76 348 0
-318 -337 49 -76 348 0
-318 -337 49 76 -348 0
-318 -337 -50 -77 -349 0
-318 -337 -50 77 349 0
-318 -337 50 -77 349 0
-318 -337 50 77 -349 0
-318 -337 -51 -78 -350 0
-318 -337 -51 78 350 0
-318 -337 51 -78 350 0
-318 -337 51 78 -350 0
-318 -337 -52 -79 -351 0
-318 -337 -52 79 351 0
-318 -337 52 -79 351 0
-318 -337 52 79 -351 0
-318 -337 -53 -80 -352 0
-318 -337 -53 80 352 0
-318 -337 53 -80 352 0
-318 -337 53 80 -352 0
-318 -337 -54 -81 -353 0
-318 -337 -54 81 353 0
-318 -337 54 -81 353 0
-318 -337 54 81 -353 0
-318 -338 -46 -100 -345 0
-318 -338 -46 100 345 0
-318 -338 46 -100 345 0
-318 -338 46 100 -345 0
-318 -338 -47 -101 -346 0
-318 -338 -47 101 346 0
-318 -338 47 -101 346 0
-318 -338 47 101 -346 0
-318 -338 -48 -102 -347 0
-318 -338 -48 102 347 0
-318 -338 48 -102 347 0
-318 -338 48 102 -347 0
-318 -338 -49 -103 -348 0
-318 -338 -49 103 348 0
-318 -338 49 -103 348 0
-318 -338 49 103 -348 0
-318 -338 -50 -104 -349 0
-318 -338 -50 104 349 0
-318 -338 50 -104 349 0
-318 -338 50 104 -349 0
-318 -338 -51 -105 -350 0
-318 -338 -51 105 350 0
-318 -338 51 -105 350 0
-318 -338 51 105 -350 0
-318 -338 -52 -106 -351 0
-318 -338 -52 106 351 0
-318 -338 52 -106 351 0
-318 -338 52 106 -351 0
-318 -338 -53 -107 -352 0
-318 -338 -53 107 352 0
-318 -338 53 -107 352 0
-318 -338 53 107 -352 0
-318 -338 -54 -108 -353 0
-318 -338 -54 108 353 0
-318 -338 54 -108 353 0
-318 -338 54 108 -353 0
-318 -339 -46 -129 -345 0
-318 -339 -46 129 345 0
-318 -339 46 -129 345 0
-318 -339 46 129 -345 0
-318 -339 -47 -130 -346 0
-318 -339 -47 130 346 0
-318 -339 47 -130 346 0
-318 -339 47 130 -346 0
-318 -339 -48 -131 -347 0
-318 -339 -48 131 347 0
-318 -339 48 -131 347 0
-318 -339 48 131 -347 0
-318 -339 -49 -132 -348 0
-318 -339 -49 132 348 0
-318 -339 49 -132 348 0
-318 -339 49 132 -348 0
-318 -339 -50 -133 -349 0
-318 -339 -50 133 349 0
-318 -339 50 -133 349 0
-318 -339 50 133 -349 0
-318 -339 -51 -134 -350 0
-318 -339 -51 134 350 0
-318 -339 51 -134 350 0
-318 -339 51 134 -350 0
-318 -339 -52 -135 -351 0
-318 -339 -52 135 351 0
-318 -339 52 -135 351 0
-318 -339 52 135 -351 0
-318 -339 -53 -136 -352 0
-318 -339 -53 136 352 0
-318 -339 53 -136 352 0
-318 -339 53 136 -352 0
-318 -339 -54 -137 -353 0
-318 -339 -54 137 353 0
-318 -339 54 -137 353 0
-318 -339 54 137 -353 0
-318 -340 -46 -160 -345 0
-318 -340 -46 160 345 0
-318 -340 46 -160 345 0
-318 -340 46 160 -345 0
-318 -340 -47 -161 -346 0
-318 -340 -47 161 346 0
-318 -340 47 -161 346 0
-318 -340 47 161 -346 0
-318 -340 -48 -162 -347 0
-318 -340 -48 162 347 0
-318 -340 48 -162 347 0
-318 -340 48 162 -347 0
-318 -340 -49 -163 -348 0
-318 -340 -49 163 348 0
-318 -340 49 -163 348 0
-318 -340 49 163 -348 0
-318 -340 -50 -164 -349 0
-318 -340 -50 164 349 0
-318 -340 50 -164 349 0
-318 -340 50 164 -349 0
-318 -340 -51 -165 -350 0
-318 -340 -51 165 350 0
-318 -340 51 -165 350 0
-318 -340 51 165 -350 0
-318 -340 -52 -166 -351 0
-318 -340 -52 166 351 0
-318 -340 52 -166 351 0
-318 -340 52 166 -351 0
-318 -340 -53 -167 -352 0
-318 -340 -53 167 352 0
-318 -340 53 -167 352 0
-318 -340 53 167 -352 0
-318 -340 -54 -168 -353 0
-318 -340 -54 168 353 0
-318 -340 54 -168 353 0
-318 -340 54 168 -353 0
-318 -341 -46 -193 -345 0
-318 -341 -46 193 345 0
-318 -341 46 -193 345 0
-318 -341 46 193 -345 0
-318 -341 -47 -194 -346 0
-318 -341 -47 194 346 0
-318 -341 47 -194 346 0
-318 -341 47 194 -346 0
-318 -341 -48 -195 -347 0
-318 -341 -48 195 347 0
-318 -341 48 -195 347 0
-318 -341 48 195 -347 0
-318 -341 -49 -196 -348 0
-318 -341 -49 196 348 0
-318 -341 49 -196 348 0
-318 -341 49 196 -348 0
-318 -341 -50 -197 -349 0
-318 -341 -50 197 349 0
-318 -341 50 -197 349 0
-318 -341 50 197 -349 0
-318 -341 -51 -198 -350 0
-318 -341 -51 198 350 0
-318 -341 51 -198 350 0
-318 -341 51 198 -350 0
-318 -341 -52 -199 -351 0
-318 -341 -52 199 351 0
-318 -341 52 -199 351 0
-318 -341 52 199 -351 0
-318 -341 -53 -200 -352 0
-318 -341 -53 200 352 0
-318 -341 53 -200 352 0
-318 -341 53 200 -352 0
-318 -341 -54 -201 -353 0
-318 -341 -54 201 353 0
-318 -341 54 -201 353 0
-318 -341 54 201 -353 0
-318 -342 -46 -228 -345 0
-318 -342 -46 228 345 0
-318 -342 46 -228 345 0
-318 -342 46 228 -345 0
-318 -342 -47 -229 -346 0
-318 -342 -47 229 346 0
-318 -342 47 -229 346 0
-318 -342 47 229 -346 0
-318 -342 -48 -230 -347 0
-318 -342 -48 230 347 0
-318 -342 48 -230 347 0
-318 -342 48 230 -347 0
-318 -342 -49 -231 -348 0
-318 -342 -49 231 348 0
-318 -342 49 -231 348 0
-318 -342 49 231 -348 0
-318 -342 -50 -232 -349 0
-318 -342 -50 232 349 0
-318 -342 50 -232 349 0
-318 -342 50 232 -349 0
-318 -342 -51 -233 -350 0
-318 -342 -51 233 350 0
-318 -342 51 -233 350 0
-318 -342 51 233 -350 0
-318 -342 -52 -234 -351 0
-318 -342 -52 234 351 0
-318 -342 52 -234 351 0
-318 -342 52 234 -351 0
-318 -342 -53 -235 -352 0
-318 -342 -53 235 352 0
-318 -342 53 -235 352 0
-318 -342 53 235 -352 0
-318 -342 -54 -236 -353 0
-318 -342 -54 236 353 0
-318 -342 54 -236 353 0
-318 -342 54 236 -353 0
-318 -343 -46 -265 -345 0
-318 -343 -46 265 345 0
-318 -343 46 -265 345 0
-318 -343 46 265 -345 0
-318 -343 -47 -266 -346 0
-318 -343 -47 266 346 0
-318 -343 47 -266 346 0
-318 -343 47 266 -346 0
-318 -343 -48 -267 -347 0
-318 -343 -48 267 347 0
-318 -343 48 -267 347 0
-318 -343 48 267 -347 0
-318 -343 -49 -268 -348 0
-318 -343 -49 268 348 0
-318 -343 49 -268 348 0
-318 -343 49 268 -348 0
-318 -343 -50 -269 -349 0
-318 -343 -50 269 349 0
-318 -343 50 -269 349 0
-318 -343 50 269 -349 0
-318 -343 -51 -270 -350 0
-318 -343 -51 270 350 0
-318 -343 51 -270 350 0
-318 -343 51 270 -350 0
-318 -343 -52 -271 -351 0
-318 -343 -52 271 351 0
-318 -343 52 -271 351 0
-318 -343 52 271 -351 0
-318 -343 -53 -272 -352 0
-318 -343 -53 272 352 0
-318 -343 53 -272 352 0
-318 -343 53 272 -352 0
-318 -343 -54 -273 -353 0
-318 -343 -54 273 353 0
-318 -343 54 -273 353 0
-318 -343 54 273 -353 0
-318 -344 -46 -304 -345 0
-318 -344 -46 304 345 0
-318 -344 46 -304 345 0
-318 -344 46 304 -345 0
-318 -344 -47 -305 -346 0
-318 -344 -47 305 346 0
-318 -344 47 -305 346 0
-318 -344 47 305 -346 0
-318 -344 -48 -306 -347 0
-318 -344 -48 306 347 0
-318 -344 48 -306 347 0
-318 -344 48 306 -347 0
-318 -344 -49 -307 -348 0
-318 -344 -49 307 348 0
-318 -344 49 -307 348 0
-318 -344 49 307 -348 0
-318 -344 -50 -308 -349 0
-318 -344 -50 308 349 0
-318 -344 50 -308 349 0
-318 -344 50 308 -349 0
-318 -344 -51 -309 -350 0
-318 -344 -51 309 350 0
-318 -344 51 -309 350 0
-318 -344 51 309 -350 0
-318 -344 -52 -310 -351 0
-318 -344 -52 310 351 0
-318 -344 52 -310 351 0
-318 -344 52 310 -351 0
-318 -344 -53 -311 -352 0
-318 -344 -53 311 352 0
-318 -344 53 -311 352 0
-318 -344 53 311 -352 0
-318 -344 -54 -312 -353 0
-318 -344 -54 312 353 0
-318 -344 54 -312 353 0
-318 -344 54 312 -353 0
-319 -336 -55 -64 -345 0
-319 -336 -55 64 345 0
-319 -336 55 -64 345 0
-319 -336 55 64 -345 0
-319 -336 -56 -65 -346 0
-319 -336 -56 65 346 0
-319 -336 56 -65 346 0
-319 -336 56 65 -346 0
-319 -336 -57 -66 -347 0
-319 -336 -57 66 347 0
-319 -336 57 -66 347 0
-319 -336 57 66 -347 0
-319 -336 -58 -67 -348 0
-319 -336 -58 67 348 0
-319 -336 58 -67 348 0
-319 -336 58 67 -348 0
-319 -336 -59 -68 -349 0
-319 -336 -59 68 349 0
-319 -336 59 -68 349 0
-319 -336 59 68 -349 0
-319 -336 -60 -69 -350 0
-319 -336 -60 69 350 0
-319 -336 60 -69 350 0
-319 -336 60 69 -350 0
-319 -336 -61 -70 -351 0
-319 -336 -61 70 351 0
-319 -336 61 -70 351 0
-319 -336 61 70 -351 0
-319 -336 -62 -71 -352 0
-319 -336 -62 71 352 0
-319 -336 62 -71 352 0
-319 -336 62 71 -352 0
-319 -336 -63 -72 -353 0
-319 -336 -63 72 353 0
-319 -336 63 -72 353 0
-319 -336 63 72 -353 0
-319 -337 -55 -73 -345 0
-319 -337 -55 73 345 0
-319 -337 55 -73 345 0
-319 -337 55 73 -345 0
-319 -337 -56 -74 -346 0
-319 -337 -56 74 346 0
-319 -337 56 -74 346 0
-319 -337 56 74 -346 0
-319 -337 -57 -75 -347 0
-319 -337 -57 75 347 0
-319 -337 57 -75 347 0
-319 -337 57 75 -347 0
-319 -337 -58 -76 -348 0
-319 -337 -58 76 348 0
-319 -337 58 -76 348 0
-319 -337 58 76 -348 0
-319 -337 -59 -77 -349 0
-319 -337 -59 77 349 0
-319 -337 59 -77 349 0
-319 -337 59 77 -349 0
-319 -337 -60 -78 -350 0
-319 -337 -60 78 350 0
-319 -337 60 -78 350 0
-319 -337 60 78 -350 0
-319 -337 -61 -79 -351 0
-319 -337 -61 79 351 0
-319 -337 61 -79 351 0
-319 -337 61 79 -351 0
-319 -337 -62 -80 -352 0
-319 -337 -62 80 352 0
-319 -337 62 -80 352 0
-319 -337 62 80 -352 0
-319 -337 -63 -81 -353 0
-319 -337 -63 81 353 0
-319 -337 63 -81 353 0
-319 -337 63 81 -353 0
-319 -338 -55 -100 -345 0
-319 -338 -55 100 345 0
-319 -338 55 -100 345 0
-319 -338 55 100 -345 0
-319 -338 -56 -101 -346 0
-319 -338 -56 101 346 0
-319 -338 56 -101 346 0
-319 -338 56 101 -346 0
-319 -338 -57 -102 -347 0
-319 -338 -57 102 347 0
-319 -338 57 -102 347 0
-319 -338 57 102 -347 0
-319 -338 -58 -103 -348 0
-319 -338 -58 103 348 0
-319 -338 58 -103 348 0
-319 -338 58 103 -348 0
-319 -338 -59 -104 -349 0
-319 -338 -59 104 349 0
-319 -338 59 -104 349 0
-319 -338 59 104 -349 0
-319 -338 -60 -105 -350 0
-319 -338 -60 105 350 0
-319 -338 60 -105 350 0
-319 -338 60 105 -350 0
-319 -338 -61 -106 -351 0
-319 -338 -61 106 351 0
-319 -338 61 -106 351 0
-319 -338 61 106 -351 0
-319 -338 -62 -107 -352 0
-319 -338 -62 107 352 0
-319 -338 62 -107 352 0
-319 -338 62 107 -352 0
-319 -338 -63 -108 -353 0
-319 -338 -63 108 353 0
-319 -338 63 -108 353 0
-319 -338 63 108 -353 0
-319 -339 -55 -129 -345 0
-319 -339 -55 129 345 0
-319 -339 55 -129 345 0
-319 -339 55 129 -345 0
-319 -339 -56 -130 -346 0
-319 -339 -56 130 346 0
-319 -339 56 -130 346 0
-319 -339 56 130 -346 0
-319 -339 -57 -131 -347 0
-319 -339 -57 131 347 0
-319 -339 57 -131 347 0
-319 -339 57 131 -347 0
-319 -339 -58 -132 -348 0
-319 -339 -58 132 348 0
-319 -339 58 -132 348 0
-319 -339 58 132 -348 0
-319 -339 -59 -133 -349 0
-319 -339 -59 133 349 0
-319 -339 59 -133 349 0
-319 -339 59 133 -349 0
-319 -339 -60 -134 -350 0
-319 -339 -60 134 350 0
-319 -339 60 -134 350 0
-319 -339 60 134 -350 0
-319 -339 -61 -135 -351 0
-319 -339 -61 135 351 0
-319 -339 61 -135 351 0
-319 -339 61 135 -351 0
-319 -339 -62 -136 -352 0
-319 -339 -62 136 352 0
-319 -339 62 -136 352 0
-319 -339 62 136 -352 0
-319 -339 -63 -137 -353 0
-319 -339 -63 137 353 0
-319 -339 63 -137 353 0
-319 -339 63 137 -353 0
-319 -340 -55 -160 -345 0
-319 -340 -55 160 345 0
-319 -340 55 -160 345 0
-319 -340 55 160 -345 0
-319 -340 -56 -161 -346 0
-319 -340 -56 161 346 0
-319 -340 56 -161 346 0
-319 -340 56 161 -346 0
-319 -340 -57 -162 -347 0
-319 -340 -57 162 347 0
-319 -340 57 -162 347 0
-319 -340 57 162 -347 0
-319 -340 -58 -163 -348 0
-319 -340 -58 163 348 0
-319 -340 58 -163 348 0
-319 -340 58 163 -348 0
-319 -340 -59 -164 -349 0
-319 -340 -59 164 349 0
-319 -340 59 -164 349 0
-319 -340 59 164 -349 0
-319 -340 -60 -165 -350 0
-319 -340 -60 165 350 0
-319 -340 60 -165 350 0
-319 -340 60 165 -350 0
-319 -340 -61 -166 -351 0
-319 -340 -61 166 351 0
-319 -340 61 -166 351 0
-319 -340 61 166 -351 0
-319 -340 -62 -167 -352 0
-319 -340 -62 167 352 0
-319 -340 62 -167 352 0
-319 -340 62 167 -352 0
-319 -340 -63 -168 -353 0
-319 -340 -63 168 353 0
-319 -340 63 -168 353 0
-319 -340 63 168 -353 0
-319 -341 -55 -193 -345 0
-319 -341 -55 193 345 0
-319 -341 55 -193 345 0
-319 -341 55 193 -345 0
-319 -341 -56 -194 -346 0
-319 -341 -56 194 346 0
-319 -341 56 -194 346 0
-319 -341 56 194 -346 0
-319 -341 -57 -195 -347 0
-319 -341 -57 195 347 0
-319 -341 57 -195 347 0
-319 -341 57 195 -347 0
-319 -341 -58 -196 -348 0
-319 -341 -58 196 348 0
-319 -341 58 -196 348 0
-319 -341 58 196 -348 0
-319 -341 -59 -197 -349 0
-319 -341 -59 197 349 0
-319 -341 59 -197 349 0
-319 -341 59 197 -349 0
-319 -341 -60 -198 -350 0
-319 -341 -60 198 350 0
-319 -341 60 -198 350 0
-319 -341 60 198 -350 0
-319 -341 -61 -199 -351 0
-319 -341 -61 199 351 0
-319 -341 61 -199 351 0
-319 -341 61 199 -351 0
-319 -341 -62 -200 -352 0
-319 -341 -62 200 352 0
-319 -341 62 -200 352 0
-319 -341 62 200 -352 0
-319 -341 -63 -201 -353 0
-319 -341 -63 201 353 0
-319 -341 63 -201 353 0
-319 -341 63 201 -353 0
-319 -342 -55 -228 -345 0
-319 -342 -55 228 345 0
-319 -342 55 -228 345 0
-319 -342 55 228 -345 0
-319 -342 -56 -229 -346 0
-319 -342 -56 229 346 0
-319 -342 56 -229 346 0
-319 -342 56 229 -346 0
-319 -342 -57 -230 -347 0
-319 -342 -57 230 347 0
-319 -342 57 -230 347 0
-319 -342 57 230 -347 0
-319 -342 -58 -231 -348 0
-319 -342 -58 231 348 0
-319 -342 58 -231 348 0
-319 -342 58 231 -348 0
-319 -342 -59 -232 -349 0
-319 -342 -59 232 349 0
-319 -342 59 -232 349 0
-319 -342 59 232 -349 0
-319 -342 -60 -233 -350 0
-319 -342 -60 233 350 0
-319 -342 60 -233 350 0
-319 -342 60 233 -350 0
-319 -342 -61 -234 -351 0
-319 -342 -61 234 351 0
-319 -342 61 -234 351 0
-319 -342 61 234 -351 0
-319 -342 -62 -235 -352 0
-319 -342 -62 235 352 0
-319 -342 62 -235 352 0
-319 -342 62 235 -352 0
-319 -342 -63 -236 -353 0
-319 -342 -63 236 353 0
-319 -342 63 -236 353 0
-319 -342 63 236 -353 0
-319 -343 -55 -265 -345 0
-319 -343 -55 265 345 0
-319 -343 55 -265 345 0
-319 -343 55 265 -345 0
-319 -343 -56 -266 -346 0
-319 -343 -56 266 346 0
-319 -343 56 -266 346 0
-319 -343 56 266 -346 0
-319 -343 -57 -267 -347 0
-319 -343 -57 267 347 0
-319 -343 57 -267 347 0
-319 -343 57 267 -347 0
-319 -343 -58 -268 -348 0
-319 -343 -58 268 348 0
-319 -343 58 -268 348 0
-319 -343 58 268 -348 0
-319 -343 -59 -269 -349 0
-319 -343 -59 269 349 0
-319 -343 59 -269 349 0
-319 -343 59 269 -349 0
-319 -343 -60 -270 -350 0
-319 -343 -60 270 350 0
-319 -343 60 -270 350 0
-319 -343 60 270 -350 0
-319 -343 -61 -271 -351 0
-319 -343 -61 271 351 0
-319 -343 61 -271 351 0
-319 -343 61 271 -351 0
-319 -343 -62 -272 -352 0
-319 -343 -62 272 352 0
-319 -343 62 -272 352 0
-319 -343 62 272 -352 0
-319 -343 -63 -273 -353 0
-319 -343 -63 273 353 0
-319 -343 63 -273 353 0
-319 -343 63 273 -353 0
-319 -344 -55 -304 -345 0
-319 -344 -55 304 345 0
-319 -344 55 -304 345 0
-319 -344 55 304 -345 0
-319 -344 -56 -305 -346 0
-319 -344 -56 305 346 0
-319 -344 56 -305 346 0
-319 -344 56 305 -346 0
-319 -344 -57 -306 -347 0
-319 -344 -57 306 347 0
-319 -344 57 -306 347 0
-319 -344 57 306 -347 0
-319 -344 -58 -307 -348 0
-319 -344 -58 307 348 0
-319 -344 58 -307 348 0
-319 -344 58 307 -348 0
-319 -344 -59 -308 -349 0
-319 -344 -59 308 349 0
-319 -344 59 -308 349 0
-319 -344 59 308 -349 0
-319 -344 -60 -309 -350 0
-319 -344 -60 309 350 0
-319 -344 60 -309 350 0
-319 -344 60 309 -350 0
-319 -344 -61 -310 -351 0
-319 -344 -61 310 351 0
-319 -344 61 -310 351 0
-319 -344 61 310 -351 0
-319 -344 -62 -311 -352 0
-319 -344 -62 311 352 0
-319 -344 62 -311 352 0
-319 -344 62 311 -352 0
-319 -344 -63 -312 -353 0
-319 -344 -63 312 353 0
-319 -344 63 -312 353 0
-319 -344 63 312 -353 0
-320 -337 -64 -73 -345 0
-320 -337 -64 73 345 0
-320 -337 64 -73 345 0
-320 -337 64 73 -345 0
-320 -337 -65 -74 -346 0
-320 -337 -65 74 346 0
-320 -337 65 -74 346 0
-320 -337 65 74 -346 0
-320 -337 -66 -75 -347 0
-320 -337 -66 75 347 0
-320 -337 66 -75 347 0
-320 -337 66 75 -347 0
-320 -337 -67 -76 -348 0
-320 -337 -67 76 348 0
-320 -337 67 -76 348 0
-320 -337 67 76 -348 0
-320 -337 -68 -77 -349 0
-320 -337 -68 77 349 0
-320 -337 68 -77 349 0
-320 -337 68 77 -349 0
-320 -337 -69 -78 -350 0
-320 -337 -69 78 350 0
-320 -337 69 -78 350 0
-320 -337 69 78 -350 0
-320 -337 -70 -79 -351 0
-320 -337 -70 79 351 0
-320 -337 70 -79 351 0
-320 -337 70 79 -351 0
-320 -337 -71 -80 -352 0
-320 -337 -71 80 352 0
-320 -337 71 -80 352 0
-320 -337 71 80 -352 0
-320 -337 -72 -81 -353 0
-320 -337 -72 81 353 0
-320 -337 72 -81 353 0
-320 -337 72 81 -353 0
-320 -338 -64 -100 -345 0
-320 -338 -64 100 345 0
-320 -338 64 -100 345 0
-320 -338 64 100 -345 0
-320 -338 -65 -101 -346 0
-320 -338 -65 101 346 0
-320 -338 65 -101 346 0
-320 -338 65 101 -346 0
-320 -338 -66 -102 -347 0
-320 -338 -66 102 347 0
-320 -338 66 -102 347 0
-320 -338 66 102 -347 0
-320 -338 -67 -103 -348 0
-320 -338 -67 103 348 0
-320 -338 67 -103 348 0
-320 -338 67 103 -348 0
-320 -338 -68 -104 -349 0
-320 -338 -68 104 349 0
-320 -338 68 -104 349 0
-320 -338 68 104 -349 0
-320 -338 -69 -105 -350 0
-320 -338 -69 105 350 0
-320 -338 69 -105 350 0
-320 -338 69 105 -350 0
-320 -338 -70 -106 -351 0
-320 -338 -70 106 351 0
-320 -338 70 -106 351 0
-320 -338 70 106 -351 0
-320 -338 -71 -107 -352 0
-320 -338 -71 107 352 0
-320 -338 71 -107 352 0
-320 -338 71 107 -352 0
-320 -338 -72 -108 -353 0
-320 -338 -72 108 353 0
-320 -338 72 -108 353 0
-320 -338 72 108 -353 0
-320 -339 -64 -129 -345 0
-320 -339 -64 129 345 0
-320 -339 64 -129 345 0
-320 -339 64 129 -345 0
-320 -339 -65 -130 -346 0
-320 -339 -65 130 346 0
-320 -339 65 -130 346 0
-320 -339 65 130 -346 0
-320 -339 -66 -131 -347 0
-320 -339 -66 131 347 0
-320 -339 66 -131 347 0
-320 -339 66 131 -347 0
-320 -339 -67 -132 -348 0
-320 -339 -67 132 348 0
-320 -339 67 -132 348 0
-320 -339 67 132 -348 0
-320 -339 -68 -133 -349 0
-320 -339 -68 133 349 0
-320 -339 68 -133 349 0
-320 -339 68 133 -349 0
-320 -339 -69 -134 -350 0
-320 -339 -69 134 350 0
-320 -339 69 -134 350 0
-320 -339 69 134 -350 0
-320 -339 -70 -135 -351 0
-320 -339 -70 135 351 0
-320 -339 70 -135 351 0
-320 -339 70 135 -351 0
-320 -339 -71 -136 -352 0
-320 -339 -71 136 352 0
-320 -339 71 -136 352 0
-320 -339 71 136 -352 0
-320 -339 -72 -137 -353 0
-320 -339 -72 137 353 0
-320 -339 72 -137 353 0
-320 -339 72 137 -353 0
-320 -340 -64 -160 -345 0
-320 -340 -64 160 345 0
-320 -340 64 -160 345 0
-320 -340 64 160 -345 0
-320 -340 -65 -161 -346 0
-320 -340 -65 161 346 0
-320 -340 65 -161 346 0
-320 -340 65 161 -346 0
-320 -340 -66 -162 -347 0
-320 -340 -66 162 347 0
-320 -340 66 -162 347 0
-320 -340 66 162 -347 0
-320 -340 -67 -163 -348 0
-320 -340 -67 163 348 0
-320 -340 67 -163 348 0
-320 -340 67 163 -348 0
-320 -340 -68 -164 -349 0
-320 -340 -68 164 349 0
-320 -340 68 -164 349 0
-320 -340 68 164 -349 0
-320 -340 -69 -165 -350 0
-320 -340 -69 165 350 0
-320 -340 69 -165 350 0
-320 -340 69 165 -350 0
-320 -340 -70 -166 -351 0
-320 -340 -70 166 351 0
-320 -340 70 -166 351 0
-320 -340 70 166 -351 0
-320 -340 -71 -167 -352 0
-320 -340 -71 167 352 0
-320 -340 71 -167 352 0
-320 -340 71 167 -352 0
-320 -340 -72 -168 -353 0
-320 -340 -72 168 353 0
-320 -340 72 -168 353 0
-320 -340 72 168 -353 0
-320 -341 -64 -193 -345 0
-320 -341 -64 193 345 0
-320 -341 64 -193 345 0
-320 -341 64 193 -345 0
-320 -341 -65 -194 -346 0
-320 -341 -65 194 346 0
-320 -341 65 -194 346 0
-320 -341 65 194 -346 0
-320 -341 -66 -195 -347 0
-320 -341 -66 195 347 0
-320 -341 66 -195 347 0
-320 -341 66 195 -347 0
-320 -341 -67 -196 -348 0
-320 -341 -67 196 348 0
-320 -341 67 -196 348 0
-320 -341 67 196 -348 0
-320 -341 -68 -197 -349 0
-320 -341 -68 197 349 0
-320 -341 68 -197 349 0
-320 -341 68 197 -349 0
-320 -341 -69 -198 -350 0
-320 -341 -69 198 350 0
-320 -341 69 -198 350 0
-320 -341 69 198 -350 0
-320 -341 -70 -199 -351 0
-320 -341 -70 199 351 0
-320 -341 70 -199 351 0
-320 -341 70 199 -351 0
-320 -341 -71 -200 -352 0
-320 -341 -71 200 352 0
-320 -341 71 -200 352 0
-320 -341 71 200 -352 0
-320 -341 -72 -201 -353 0
-320 -341 -72 201 353 0
-320 -341 72 -201 353 0
-320 -341 72 201 -353 0
-320 -342 -64 -228 -345 0
-320 -342 -64 228 345 0
-320 -342 64 -228 345 0
-320 -342 64 228 -345 0
-320 -342 -65 -229 -346 0
-320 -342 -65 229 346 0
-320 -342 65 -229 346 0
-320 -342 65 229 -346 0
-320 -342 -66 -230 -347 0
-320 -342 -66 230 347 0
-320 -342 66 -230 347 0
-320 -342 66 230 -347 0
-320 -342 -67 -231 -348 0
-320 -342 -67 231 348 0
-320 -342 67 -231 348 0
-320 -342 67 231 -348 0
-320 -342 -68 -232 -349 0
-320 -342 -68 232 349 0
-320 -342 68 -232 349 0
-320 -342 68 232 -349 0
-320 -342 -69 -233 -350 0
-320 -342 -69 233 350 0
-320 -342 69 -233 350 0
-320 -342 69 233 -350 0
-320 -342 -70 -234 -351 0
-320 -342 -70 234 351 0
-320 -342 70 -234 351 0
-320 -342 70 234 -351 0
-320 -342 -71 -235 -352 0
-320 -342 -71 235 352 0
-320 -342 71 -235 352 0
-320 -342 71 235 -352 0
-320 -342 -72 -236 -353 0
-320 -342 -72 236 353 0
-320 -342 72 -236 353 0
-320 -342 72 236 -353 0
-320 -343 -64 -265 -345 0
-320 -343 -64 265 345 0
-320 -343 64 -265 345 0
-320 -343 64 265 -345 0
-320 -343 -65 -266 -346 0
-320 -343 -65 266 346 0
-320 -343 65 -266 346 0
-320 -343 65 266 -346 0
-320 -343 -66 -267 -347 0
-320 -343 -66 267 347 0
-320 -343 66 -267 347 0
-320 -343 66 267 -347 0
-320 -343 -67 -268 -348 0
-320 -343 -67 268 348 0
-320 -343 67 -268 348 0
-320 -343 67 268 -348 0
-320 -343 -68 -269 -349 0
-320 -343 -68 269 349 0
-320 -343 68 -269 349 0
-320 -343 68 269 -349 0
-320 -343 -69 -270 -350 0
-320 -343 -69 270 350 0
-320 -343 69 -270 350 0
-320 -343 69 270 -350 0
-320 -343 -70 -271 -351 0
-320 -343 -70 271 351 0
-320 -343 70 -271 351 0
-320 -343 70 271 -351 0
-320 -343 -71 -272 -352 0
-320 -343 -71 272 352 0
-320 -343 71 -272 352 0
-320 -343 71 272 -352 0
-320 -343 -72 -273 -353 0
-320 -343 -72 273 353 0
-320 -343 72 -273 353 0
-320 -343 72 273 -353 0
-320 -344 -64 -304 -345 0
-320 -344 -64 304 345 0
-320 -344 64 -304 345 0
-320 -344 64 304 -345 0
-320 -344 -65 -305 -346 0
-320 -344 -65 305 346 0
-320 -344 65 -305 346 0
-320 -344 65 305 -346 0
-320 -344 -66 -306 -347 0
-320 -344 -66 306 347 0
-320 -344 66 -306 347 0
-320 -344 66 306 -347 0
-320 -344 -67 -307 -348 0
-320 -344 -67 307 348 0
-320 -344 67 -307 348 0
-320 -344 67 307 -348 0
-320 -344 -68 -308 -349 0
-320 -344 -68 308 349 0
-320 -344 68 -308 349 0
-320 -344 68 308 -349 0
-320 -344 -69 -309 -350 0
-320 -344 -69 309 350 0
-320 -344 69 -309 350 0
-320 -344 69 309 -350 0
-320 -344 -70 -310 -351 0
-320 -344 -70 310 351 0
-320 -344 70 -310 351 0
-320 -344 70 310 -351 0
-320 -344 -71 -311 -352 0
-320 -344 -71 311 352 0
-320 -344 71 -311 352 0
-320 -344 71 311 -352 0
-320 -344 -72 -312 -353 0
-320 -344 -72 312 353 0
-320 -344 72 -312 353 0
-320 -344 72 312 -353 0
-321 -338 -73 -100 -345 0
-321 -338 -73 100 345 0
-321 -338 73 -100 345 0
-321 -338 73 100 -345 0
-321 -338 -74 -101 -346 0
-321 -338 -74 101 346 0
-321 -338 74 -101 346 0
-321 -338 74 101 -346 0
-321 -338 -75 -102 -347 0
-321 -338 -75 102 347 0
-321 -338 75 -102 347 0
-321 -338 75 102 -347 0
-321 -338 -76 -103 -348 0
-321 -338 -76 103 348 0
-321 -338 76 -103 348 0
-321 -338 76 103 -348 0
-321 -338 -77 -104 -349 0
-321 -338 -77 104 349 0
-321 -338 77 -104 349 0
-321 -338 77 104 -349 0
-321 -338 -78 -105 -350 0
-321 -338 -78 105 350 0
-321 -338 78 -105 350 0
-321 -338 78 105 -350 0
-321 -338 -79 -106 -351 0
-321 -338 -79 106 351 0
-321 -338 79 -106 351 0
-321 -338 79 106 -351 0
-321 -338 -80 -107 -352 0
-321 -338 -80 107 352 0
-321 -338 80 -107 352 0
-321 -338 80 107 -352 0
-321 -338 -81 -108 -353 0
-321 -338 -81 108 353 0
-321 -338 81 -108 353 0
-321 -338 81 108 -353 0
-321 -339 -73 -129 -345 0
-321 -339 -73 129 345 0
-321 -339 73 -129 345 0
-321 -339 73 129 -345 0
-321 -339 -74 -130 -346 0
-321 -339 -74 130 346 0
-321 -339 74 -130 346 0
-321 -339 74 130 -346 0
-321 -339 -75 -131 -347 0
-321 -339 -75 131 347 0
-321 -339 75 -131 347 0
-321 -339 75 131 -347 0
-321 -339 -76 -132 -348 0
-321 -339 -76 132 348 0
-321 -339 76 -132 348 0
-321 -339 76 132 -348 0
-321 -339 -77 -133 -349 0
-321 -339 -77 133 349 0
-321 -339 77 -133 349 0
-321 -339 77 133 -349 0
-321 -339 -78 -134 -350 0
-321 -339 -78 134 350 0
-321 -339 78 -134 350 0
-321 -339 78 134 -350 0
-321 -339 -79 -135 -351 0
-321 -339 -79 135 351 0
-321 -339 79 -135 351 0
-321 -339 79 135 -351 0
-321 -339 -80 -136 -352 0
-321 -339 -80 136 352 0
-321 -339 80 -136 352 0
-321 -339 80 136 -352 0
-321 -339 -81 -137 -353 0
-321 -339 -81 137 353 0
-321 -339 81 -137 353 0
-321 -339 81 137 -353 0
-321 -340 -73 -160 -345 0
-321 -340 -73 160 345 0
-321 -340 73 -160 345 0
-321 -340 73 160 -345 0
-321 -340 -74 -161 -346 0
-321 -340 -74 161 346 0
-321 -340 74 -161 346 0
-321 -340 74 161 -346 0
-321 -340 -75 -162 -347 0
-321 -340 -75 162 347 0
-321 -340 75 -162 347 0
-321 -340 75 162 -347 0
-321 -340 -76 -163 -348 0
-321 -340 -76 163 348 0
-321 -340 76 -163 348 0
-321 -340 76 163 -348 0
-321 -340 -77 -164 -349 0
-321 -340 -77 164 349 0
-321 -340 77 -164 349 0
-321 -340 77 164 -349 0
-321 -340 -78 -165 -350 0
-321 -340 -78 165 350 0
-321 -340 78 -165 350 0
-321 -340 78 165 -350 0
-321 -340 -79 -166 -351 0
-321 -340 -79 166 351 0
-321 -340 79 -166 351 0
-321 -340 79 166 -351 0
-321 -340 -80 -167 -352 0
-321 -340 -80 167 352 0
-321 -340 80 -167 352 0
-321 -340 80 167 -352 0
-321 -340 -81 -168 -353 0
-321 -340 -81 168 353 0
-321 -340 81 -168 353 0
-321 -340 81 168 -353 0
-321 -341 -73 -193 -345 0
-321 -341 -73 193 345 0
-321 -341 73 -193 345 0
-321 -341 73 193 -345 0
-321 -341 -74 -194 -346 0
-321 -341 -74 194 346 0
-321 -341 74 -194 346 0
-321 -341 74 194 -346 0
-321 -341 -75 -195 -347 0
-321 -341 -75 195 347 0
-321 -341 75 -195 347 0
-321 -341 75 195 -347 0
-321 -341 -76 -196 -348 0
-321 -341 -76 196 348 0
-321 -341 76 -196 348 0
-321 -341 76 196 -348 0
-321 -341 -77 -197 -349 0
-321 -341 -77 197 349 0
-321 -341 77 -197 349 0
-321 -341 77 197 -349 0
-321 -341 -78 -198 -350 0
-321 -341 -78 198 350 0
-321 -341 78 -198 350 0
-321 -341 78 198 -350 0
-321 -341 -79 -199 -351 0
-321 -341 -79 199 351 0
-321 -341 79 -199 351 0
-321 -341 79 199 -351 0
-321 -341 -80 -200 -352 0
-321 -341 -80 200 352 0
-321 -341 80 -200 352 0
-321 -341 80 200 -352 0
-321 -341 -81 -201 -353 0
-321 -341 -81 201 353 0
-321 -341 81 -201 353 0
-321 -341 81 201 -353 0
-321 -342 -73 -228 -345 0
-321 -342 -73 228 345 0
-321 -342 73 -228 345 0
-321 -342 73 228 -345 0
-321 -342 -74 -229 -346 0
-321 -342 -74 229 346 0
-321 -342 74 -229 346 0
-321 -342 74 229 -346 0
-321 -342 -75 -230 -347 0
-321 -342 -75 230 347 0
-321 -342 75 -230 347 0
-321 -342 75 230 -347 0
-321 -342 -76 -231 -348 0
-321 -342 -76 231 348 0
-321 -342 76 -231 348 0
-321 -342 76 231 -348 0
-321 -342 -77 -232 -349 0
-321 -342 -77 232 349 0
-321 -342 77 -232 349 0
-321 -342 77 232 -349 0
-321 -342 -78 -233 -350 0
-321 -342 -78 233 350 0
-321 -342 78 -233 350 0
-321 -342 78 233 -350 0
-321 -342 -79 -234 -351 0
-321 -342 -79 234 351 0
-321 -342 79 -234 351 0
-321 -342 79 234 -351 0
-321 -342 -80 -235 -352 0
-321 -342 -80 235 352 0
-321 -342 80 -235 352 0
-321 -342 80 235 -352 0
-321 -342 -81 -236 -353 0
-321 -342 -81 236 353 0
-321 -342 81 -236 353 0
-321 -342 81 236 -353 0
-321 -343 -73 -265 -345 0
-321 -343 -73 265 345 0
-321 -343 73 -265 345 0
-321 -343 73 265 -345 0
-321 -343 -74 -266 -346 0
-321 -343 -74 266 346 0
-321 -343 74 -266 346 0
-321 -343 74 266 -346 0
-321 -343 -75 -267 -347 0
-321 -343 -75 267 347 0
-321 -343 75 -267 347 0
-321 -343 75 267 -347 0
-321 -343 -76 -268 -348 0
-321 -343 -76 268 348 0
-321 -343 76 -268 348 0
-321 -343 76 268 -348 0
-321 -343 -77 -269 -349 0
-321 -343 -77 269 349 0
-321 -343 77 -269 349 0
-321 -343 77 269 -349 0
-321 -343 -78 -270 -350 0
-321 -343 -78 270 350 0
-321 -343 78 -270 350 0
-321 -343 78 270 -350 0
-321 -343 -79 -271 -351 0
-321 -343 -79 271 351 0
-321 -343 79 -271 351 0
-321 -343 79 271 -351 0
-321 -343 -80 -272 -352 0
-321 -343 -80 272 352 0
-321 -343 80 -272 352 0
-321 -343 80 272 -352 0
-321 -343 -81 -273 -353 0
-321 -343 -81 273 353 0
-321 -343 81 -273 353 0
-321 -343 81 273 -353 0
-321 -344 -73 -304 -345 0
-321 -344 -73 304 345 0
-321 -344 73 -304 345 0
-321 -344 73 304 -345 0
-321 -344 -74 -305 -346 0
-321 -344 -74 305 346 0
-321 -344 74 -305 346 0
-321 -344 74 305 -346 0
-321 -344 -75 -306 -347 0
-321 -344 -75 306 347 0
-321 -344 75 -306 347 0
-321 -344 75 306 -347 0
-321 -344 -76 -307 -348 0
-321 -344 -76 307 348 0
-321 -344 76 -307 348 0
-321 -344 76 307 -348 0
-321 -344 -77 -308 -349 0
-321 -344 -77 308 349 0
-321 -344 77 -308 349 0
-321 -344 77 308 -349 0
-321 -344 -78 -309 -350 0
-321 -344 -78 309 350 0
-321 -344 78 -309 350 0
-321 -344 78 309 -350 0
-321 -344 -79 -310 -351 0
-321 -344 -79 310 351 0
-321 -344 79 -310 351 0
-321 -344 79 310 -351 0
-321 -344 -80 -311 -352 0
-321 -344 -80 311 352 0
-321 -344 80 -311 352 0
-321 -344 80 311 -352 0
-321 -344 -81 -312 -353 0
-321 -344 -81 312 353 0
-321 -344 81 -312 353 0
-321 -344 81 312 -353 0
-322 -339 -100 -129 -345 0
-322 -339 -100 129 345 0
-322 -339 100 -129 345 0
-322 -339 100 129 -345 0
-322 -339 -101 -130 -346 0
-322 -339 -101 130 346 0
-322 -339 101 -130 346 0
-322 -339 101 130 -346 0
-322 -339 -102 -131 -347 0
-322 -339 -102 131 347 0
-322 -339 102 -131 347 0
-322 -339 102 131 -347 0
-322 -339 -103 -132 -348 0
-322 -339 -103 132 348 0
-322 -339 103 -132 348 0
-322 -339 103 132 -348 0
-322 -339 -104 -133 -349 0
-322 -339 -104 133 349 0
-322 -339 104 -133 349 0
-322 -339 104 133 -349 0
-322 -339 -105 -134 -350 0
-322 -339 -105 134 350 0
-322 -339 105 -134 350 0
-322 -339 105 134 -350 0
-322 -339 -106 -135 -351 0
-322 -339 -106 135 351 0
-322 -339 106 -135 351 0
-322 -339 106 135 -351 0
-322 -339 -107 -136 -352 0
-322 -339 -107 136 352 0
-322 -339 107 -136 352 0
-322 -339 107 136 -352 0
-322 -339 -108 -137 -353 0
-322 -339 -108 137 353 0
-322 -339 108 -137 353 0
-322 -339 108 137 -353 0
-322 -340 -100 -160 -345 0
-322 -340 -100 160 345 0
-322 -340 100 -160 345 0
-322 -340 100 160 -345 0
-322 -340 -101 -161 -346 0
-322 -340 -101 161 346 0
-322 -340 101 -161 346 0
-322 -340 101 161 -346 0
-322 -340 -102 -162 -347 0
-322 -340 -102 162 347 0
-322 -340 102 -162 347 0
-322 -340 102 162 -347 0
-322 -340 -103 -163 -348 0
-322 -340 -103 163 348 0
-322 -340 103 -163 348 0
-322 -340 103 163 -348 0
-322 -340 -104 -164 -349 0
-322 -340 -104 164 349 0
-322 -340 104 -164 349 0
-322 -340 104 164 -349 0
-322 -340 -105 -165 -350 0
-322 -340 -105 165 350 0
-322 -340 105 -165 350 0
-322 -340 105 165 -350 0
-322 -340 -106 -166 -351 0
-322 -340 -106 166 351 0
-322 -340 106 -166 351 0
-322 -340 106 166 -351 0
-322 -340 -107 -167 -352 0
-322 -340 -107 167 352 0
-322 -340 107 -167 352 0
-322 -340 107 167 -352 0
-322 -340 -108 -168 -353 0
-322 -340 -108 168 353 0
-322 -340 108 -168 353 0
-322 -340 108 168 -353 0
-322 -341 -100 -193 -345 0
-322 -341 -100 193 345 0
-322 -341 100 -193 345 0
-322 -341 100 193 -345 0
-322 -341 -101 -194 -346 0
-322 -341 -101 194 346 0
-322 -341 101 -194 346 0
-322 -341 101 194 -346 0
-322 -341 -102 -195 -347 0
-322 -341 -102 195 347 0
-322 -341 102 -195 347 0
-322 -341 102 195 -347 0
-322 -341 -103 -196 -348 0
-322 -341 -103 196 348 0
-322 -341 103 -196 348 0
-322 -341 103 196 -348 0
-322 -341 -104 -197 -349 0
-322 -341 -104 197 349 0
-322 -341 104 -197 349 0
-322 -341 104 197 -349 0
-322 -341 -105 -198 -350 0
-322 -341 -105 198 350 0
-322 -341 105 -198 350 0
-322 -341 105 198 -350 0
-322 -341 -106 -199 -351 0
-322 -341 -106 199 351 0
-322 -341 106 -199 351 0
-322 -341 106 199 -351 0
-322 -341 -107 -200 -352 0
-322 -341 -107 200 352 0
-322 -341 107 -200 352 0
-322 -341 107 200 -352 0
-322 -341 -108 -201 -353 0
-322 -341 -108 201 353 0
-322 -341 108 -201 353 0
-322 -341 108 201 -353 0
-322 -342 -100 -228 -345 0
-322 -342 -100 228 345 0
-322 -342 100 -228 345 0
-322 -342 100 228 -345 0
-322 -342 -101 -229 -346 0
-322 -342 -101 229 346 0
-322 -342 101 -229 346 0
-322 -342 101 229 -346 0
-322 -342 -102 -230 -347 0
-322 -342 -102 230 347 0
-322 -342 102 -230 347 0
-322 -342 102 230 -347 0
-322 -342 -103 -231 -348 0
-322 -342 -103 231 348 0
-322 -342 103 -231 348 0
-322 -342 103 231 -348 0
-322 -342 -104 -232 -349 0
-322 -342 -104 232 349 0
-322 -342 104 -232 349 0
-322 -342 104 232 -349 0
-322 -342 -105 -233 -350 0
-322 -342 -105 233 350 0
-322 -342 105 -233 350 0
-322 -342 105 233 -350 0
-322 -342 -106 -234 -351 0
-322 -342 -106 234 351 0
-322 -342 106 -234 351 0
-322 -342 106 234 -351 0
-322 -342 -107 -235 -352 0
-322 -342 -107 235 352 0
-322 -342 107 -235 352 0
-322 -342 107 235 -352 0
-322 -342 -108 -236 -353 0
-322 -342 -108 236 353 0
-322 -342 108 -236 353 0
-322 -342 108 236 -353 0
-322 -343 -100 -265 -345 0
-322 -343 -100 265 345 0
-322 -343 100 -265 345 0
-322 -343 100 265 -345 0
-322 -343 -101 -266 -346 0
-322 -343 -101 266 346 0
-322 -343 101 -266 346 0
-322 -343 101 266 -346 0
-322 -343 -102 -267 -347 0
-322 -343 -102 267 347 0
-322 -343 102 -267 347 0
-322 -343 102 267 -347 0
-322 -343 -103 -268 -348 0
-322 -343 -103 268 348 0
-322 -343 103 -268 348 0
-322 -343 103 268 -348 0
-322 -343 -104 -269 -349 0
-322 -343 -104 269 349 0
-322 -343 104 -269 349 0
-322 -343 104 269 -349 0
-322 -343 -105 -270 -350 0
-322 -343 -105 270 350 0
-322 -343 105 -270 350 0
-322 -343 105 270 -350 0
-322 -343 -106 -271 -351 0
-322 -343 -106 271 351 0
-322 -343 106 -271 351 0
-322 -343 106 271 -351 0
-322 -343 -107 -272 -352 0
-322 -343 -107 272 352 0
-322 -343 107 -272 352 0
-322 -343 107 272 -352 0
-322 -343 -108 -273 -353 0
-322 -343 -108 273 353 0
-322 -343 108 -273 353 0
-322 -343 108 273 -353 0
-322 -344 -100 -304 -345 0
-322 -344 -100 304 345 0
-322 -344 100 -304 345 0
-322 -344 100 304 -345 0
-322 -344 -101 -305 -346 0
-322 -344 -101 305 346 0
-322 -344 101 -305 346 0
-322 -344 101 305 -346 0
-322 -344 -102 -306 -347 0
-322 -344 -102 306 347 0
-322 -344 102 -306 347 0
-322 -344 102 306 -347 0
-322 -344 -103 -307 -348 0
-322 -344 -103 307 348 0
-322 -344 103 -307 348 0
-322 -344 103 307 -348 0
-322 -344 -104 -308 -349 0
-322 -344 -104 308 349 0
-322 -344 104 -308 349 0
-322 -344 104 308 -349 0
-322 -344 -105 -309 -350 0
-322 -344 -105 309 350 0
-322 -344 105 -309 350 0
-322 -344 105 309 -350 0
-322 -344 -106 -310 -351 0
-322 -344 -106 310 351 0
-322 -344 106 -310 351 0
-322 -344 106 310 -351 0
-322 -344 -107 -311 -352 0
-322 -344 -107 311 352 0
-322 -344 107 -311 352 0
-322 -344 107 311 -352 0
-322 -344 -108 -312 -353 0
-322 -344 -108 312 353 0
-322 -344 108 -312 353 0
-322 -344 108 312 -353 0
-323 -340 -129 -160 -345 0
-323 -340 -129 160 345 0
-323 -340 129 -160 345 0
-323 -340 129 160 -345 0
-323 -340 -130 -161 -346 0
-323 -340 -130 161 346 0
-323 -340 130 -161 346 0
-323 -340 130 161 -346 0
-323 -340 -131 -162 -347 0
-323 -340 -131 162 347 0
-323 -340 131 -162 347 0
-323 -340 131 162 -347 0
-323 -340 -132 -163 -348 0
-323 -340 -132 163 348 0
-323 -340 132 -163 348 0
-323 -340 132 163 -348 0
-323 -340 -133 -164 -349 0
-323 -340 -133 164 349 0
-323 -340 133 -164 349 0
-323 -340 133 164 -349 0
-323 -340 -134 -165 -350 0
-323 -340 -134 165 350 0
-323 -340 134 -165 350 0
-323 -340 134 165 -350 0
-323 -340 -135 -166 -351 0
-323 -340 -135 166 351 0
-323 -340 135 -166 351 0
-323 -340 135 166 -351 0
-323 -340 -136 -167 -352 0
-323 -340 -136 167 352 0
-323 -340 136 -167 352 0
-323 -340 136 167 -352 0
-323 -340 -137 -168 -353 0
-323 -340 -137 168 353 0
-323 -340 137 -168 353 0
-323 -340 137 168 -353 0
-323 -341 -129 -193 -345 0
-323 -341 -129 193 345 0
-323 -341 129 -193 345 0
-323 -341 129 193 -345 0
-323 -341 -130 -194 -346 0
-323 -341 -130 194 346 0
-323 -341 130 -194 346 0
-323 -341 130 194 -346 0
-323 -341 -131 -195 -347 0
-323 -341 -131 195 347 0
-323 -341 131 -195 347 0
-323 -341 131 195 -347 0
-323 -341 -132 -196 -348 0
-323 -341 -132 196 348 0
-323 -341 132 -196 348 0
-323 -341 132 196 -348 0
-323 -341 -133 -197 -349 0
-323 -341 -133 197 349 0
-323 -341 133 -197 349 0
-323 -341 133 197 -349 0
-323 -341 -134 -198 -350 0
-323 -341 -134 198 350 0
-323 -341 134 -198 350 0
-323 -341 134 198 -350 0
-323 -341 -135 -199 -351 0
-323 -341 -135 199 351 0
-323 -341 135 -199 351 0
-323 -341 135 199 -351 0
-323 -341 -136 -200 -352 0
-323 -341 -136 200 352 0
-323 -341 136 -200 352 0
-323 -341 136 200 -352 0
-323 -341 -137 -201 -353 0
-323 -341 -137 201 353 0
-323 -341 137 -201 353 0
-323 -341 137 201 -353 0
-323 -342 -129 -228 -345 0
-323 -342 -129 228 345 0
-323 -342 129 -228 345 0
-323 -342 129 228 -345 0
-323 -342 -130 -229 -346 0
-323 -342 -130 229 346 0
-323 -342 130 -229 346 0
-323 -342 130 229 -346 0
-323 -342 -131 -230 -347 0
-323 -342 -131 230 347 0
-323 -342 131 -230 347 0
-323 -342 131 230 -347 0
-323 -342 -132 -231 -348 0
-323 -342 -132 231 348 0
-323 -342 132 -231 348 0
-323 -342 132 231 -348 0
-323 -342 -133 -232 -349 0
-323 -342 -133 232 349 0
-323 -342 133 -232 349 0
-323 -342 133 232 -349 0
-323 -342 -134 -233 -350 0
-323 -342 -134 233 350 0
-323 -342 134 -233 350 0
-323 -342 134 233 -350 0
-323 -342 -135 -234 -351 0
-323 -342 -135 234 351 0
-323 -342 135 -234 351 0
-323 -342 135 234 -351 0
-323 -342 -136 -235 -352 0
-323 -342 -136 235 352 0
-323 -342 136 -235 352 0
-323 -342 136 235 -352 0
-323 -342 -137 -236 -353 0
-323 -342 -137 236 353 0
-323 -342 137 -236 353 0
-323 -342 137 236 -353 0
-323 -343 -129 -265 -345 0
-323 -343 -129 265 345 0
-323 -343 129 -265 345 0
-323 -343 129 265 -345 0
-323 -343 -130 -266 -346 0
-323 -343 -130 266 346 0
-323 -343 130 -266 346 0
-323 -343 130 266 -346 0
-323 -343 -131 -267 -347 0
-323 -343 -131 267 347 0
-323 -343 131 -267 347 0
-323 -343 131 267 -347 0
-323 -343 -132 -268 -348 0
-323 -343 -132 268 348 0
-323 -343 132 -268 348 0
-323 -343 132 268 -348 0
-323 -343 -133 -269 -349 0
-323 -343 -133 269 349 0
-323 -343 133 -269 349 0
-323 -343 133 269 -349 0
-323 -343 -134 -270 -350 0
-323 -343 -134 270 350 0
-323 -343 134 -270 350 0
-323 -343 134 270 -350 0
-323 -343 -135 -271 -351 0
-323 -343 -135 271 351 0
-323 -343 135 -271 351 0
-323 -343 135 271 -351 0
-323 -343 -136 -272 -352 0
-323 -343 -136 272 352 0
-323 -343 136 -272 352 0
-323 -343 136 272 -352 0
-323 -343 -137 -273 -353 0
-323 -343 -137 273 353 0
-323 -343 137 -273 353 0
-323 -343 137 273 -353 0
-323 -344 -129 -304 -345 0
-323 -344 -129 304 345 0
-323 -344 129 -304 345 0
-323 -344 129 304 -345 0
-323 -344 -130 -305 -346 0
-323 -344 -130 305 346 0
-323 -344 130 -305 346 0
-323 -344 130 305 -346 0
-323 -344 -131 -306 -347 0
-323 -344 -131 306 347 0
-323 -344 131 -306 347 0
-323 -344 131 306 -347 0
-323 -344 -132 -307 -348 0
-323 -344 -132 307 348 0
-323 -344 132 -307 348 0
-323 -344 132 307 -348 0
-323 -344 -133 -308 -349 0
-323 -344 -133 308 349 0
-323 -344 133 -308 349 0
-323 -344 133 308 -349 0
-323 -344 -134 -309 -350 0
-323 -344 -134 309 350 0
-323 -344 134 -309 350 0
-323 -344 134 309 -350 0
-323 -344 -135 -310 -351 0
-323 -344 -135 310 351 0
-323 -344 135 -310 351 0
-323 -344 135 310 -351 0
-323 -344 -136 -311 -352 0
-323 -344 -136 311 352 0
-323 -344 136 -311 352 0
-323 -344 136 311 -352 0
-323 -344 -137 -312 -353 0
-323 -344 -137 312 353 0
-323 -344 137 -312 353 0
-323 -344 137 312 -353 0
-324 -341 -160 -193 -345 0
-324 -341 -160 193 345 0
-324 -341 160 -193 345 0
-324 -341 160 193 -345 0
-324 -341 -161 -194 -346 0
-324 -341 -161 194 346 0
-324 -341 161 -194 346 0
-324 -341 161 194 -346 0
-324 -341 -162 -195 -347 0
-324 -341 -162 195 347 0
-324 -341 162 -195 347 0
-324 -341 162 195 -347 0
-324 -341 -163 -196 -348 0
-324 -341 -163 196 348 0
-324 -341 163 -196 348 0
-324 -341 163 196 -348 0
-324 -341 -164 -197 -349 0
-324 -341 -164 197 349 0
-324 -341 164 -197 349 0
-324 -341 164 197 -349 0
-324 -341 -165 -198 -350 0
-324 -341 -165 198 350 0
-324 -341 165 -198 350 0
-324 -341 165 198 -350 0
-324 -341 -166 -199 -351 0
-324 -341 -166 199 351 0
-324 -341 166 -199 351 0
-324 -341 166 199 -351 0
-324 -341 -167 -200 -352 0
-324 -341 -167 200 352 0
-324 -341 167 -200 352 0
-324 -341 167 200 -352 0
-324 -341 -168 -201 -353 0
-324 -341 -168 201 353 0
-324 -341 168 -201 353 0
-324 -341 168 201 -353 0
-324 -342 -160 -228 -345 0
-324 -342 -160 228 345 0
-324 -342 160 -228 345 0
-324 -342 160 228 -345 0
-324 -342 -161 -229 -346 0
-324 -342 -161 229 346 0
-324 -342 161 -229 346 0
-324 -342 161 229 -346 0
-324 -342 -162 -230 -347 0
-324 -342 -162 230 347 0
-324 -342 162 -230 347 0
-324 -342 162 230 -347 0
-324 -342 -163 -231 -348 0
-324 -342 -163 231 348 0
-324 -342 163 -231 348 0
-324 -342 163 231 -348 0
-324 -342 -164 -232 -349 0
-324 -342 -164 232 349 0
-324 -342 164 -232 349 0
-324 -342 164 232 -349 0
-324 -342 -165 -233 -350 0
-324 -342 -165 233 350 0
-324 -342 165 -233 350 0
-324 -342 165 233 -350 0
-324 -342 -166 -234 -351 0
-324 -342 -166 234 351 0
-324 -342 166 -234 351 0
-324 -342 166 234 -351 0
-324 -342 -167 -235 -352 0
-324 -342 -167 235 352 0
-324 -342 167 -235 352 0
-324 -342 167 235 -352 0
-324 -342 -168 -236 -353 0
-324 -342 -168 236 353 0
-324 -342 168 -236 353 0
-324 -342 168 236 -353 0
-324 -343 -160 -265 -345 0
-324 -343 -160 265 345 0
-324 -343 160 -265 345 0
-324 -343 160 265 -345 0
-324 -343 -161 -266 -346 0
-324 -343 -161 266 346 0
-324 -343 161 -266 346 0
-324 -343 161 266 -346 0
-324 -343 -162 -267 -347 0
-324 -343 -162 267 347 0
-324 -343 162 -267 347 0
-324 -343 162 267 -347 0
-324 -343 -163 -268 -348 0
-324 -343 -163 268 348 0
-324 -343 163 -268 348 0
-324 -343 163 268 -348 0
-324 -343 -164 -269 -349 0
-324 -343 -164 269 349 0
-324 -343 164 -269 349 0
-324 -343 164 269 -349 0
-324 -343 -165 -270 -350 0
-324 -343 -165 270 350 0
-324 -343 165 -270 350 0
-324 -343 165 270 -350 0
-324 -343 -166 -271 -351 0
-324 -343 -166 271 351 0
-324 -343 166 -271 351 0
-324 -343 166 271 -351 0
-324 -343 -167 -272 -352 0
-324 -343 -167 272 352 0
-324 -343 167 -272 352 0
-324 -343 167 272 -352 0
-324 -343 -168 -273 -353 0
-324 -343 -168 273 353 0
-324 -343 168 -273 353 0
-324 -343 168 273 -353 0
-324 -344 -160 -304 -345 0
-324 -344 -160 304 345 0
-324 -344 160 -304 345 0
-324 -344 160 304 -345 0
-324 -344 -161 -305 -346 0
-324 -344 -161 305 346 0
-324 -344 161 -305 346 0
-324 -344 161 305 -346 0
-324 -344 -162 -306 -347 0
-324 -344 -162 306 347 0
-324 -344 162 -306 347 0
-324 -344 162 306 -347 0
-324 -344 -163 -307 -348 0
-324 -344 -163 307 348 0
-324 -344 163 -307 348 0
-324 -344 163 307 -348 0
-324 -344 -164 -308 -349 0
-324 -344 -164 308 349 0
-324 -344 164 -308 349 0
-324 -344 164 308 -349 0
-324 -344 -165 -309 -350 0
-324 -344 -165 309 350 0
-324 -344 165 -309 350 0
-324 -344 165 309 -350 0
-324 -344 -166 -310 -351 0
-324 -344 -166 310 351 0
-324 -344 166 -310 351 0
-324 -344 166 310 -351 0
-324 -344 -167 -311 -352 0
-324 -344 -167 311 352 0
-324 -344 167 -311 352 0
-324 -344 167 311 -352 0
-324 -344 -168 -312 -353 0
-324 -344 -168 312 353 0
-324 -344 168 -312 353 0
-324 -344 168 312 -353 0
-325 -342 -193 -228 -345 0
-325 -342 -193 228 345 0
-325 -342 193 -228 345 0
-325 -342 193 228 -345 0
-325 -342 -194 -229 -346 0
-325 -342 -194 229 346 0
-325 -342 194 -229 346 0
-325 -342 194 229 -346 0
-325 -342 -195 -230 -347 0
-325 -342 -195 230 347 0
-325 -342 195 -230 347 0
-325 -342 195 230 -347 0
-325 -342 -196 -231 -348 0
-325 -342 -196 231 348 0
-325 -342 196 -231 348 0
-325 -342 196 231 -348 0
-325 -342 -197 -232 -349 0
-325 -342 -197 232 349 0
-325 -342 197 -232 349 0
-325 -342 197 232 -349 0
-325 -342 -198 -233 -350 0
-325 -342 -198 233 350 0
-325 -342 198 -233 350 0
-325 -342 198 233 -350 0
-325 -342 -199 -234 -351 0
-325 -342 -199 234 351 0
-325 -342 199 -234 351 0
-325 -342 199 234 -351 0
-325 -342 -200 -235 -352 0
-325 -342 -200 235 352 0
-325 -342 200 -235 352 0
-325 -342 200 235 -352 0
-325 -342 -201 -236 -353 0
-325 -342 -201 236 353 0
-325 -342 201 -236 353 0
-325 -342 201 236 -353 0
-325 -343 -193 -265 -345 0
-325 -343 -193 265 345 0
-325 -343 193 -265 345 0
-325 -343 193 265 -345 0
-325 -343 -194 -266 -346 0
-325 -343 -194 266 346 0
-325 -343 194 -266 346 0
-325 -343 194 266 -346 0
-325 -343 -195 -267 -347 0
-325 -343 -195 267 347 0
-325 -343 195 -267 347 0
-325 -343 195 267 -347 0
-325 -343 -196 -268 -348 0
-325 -343 -196 268 348 0
-325 -343 196 -268 348 0
-325 -343 196 268 -348 0
-325 -343 -197 -269 -349 0
-325 -343 -197 269 349 0
-325 -343 197 -269 349 0
-325 -343 197 269 -349 0
-325 -343 -198 -270 -350 0
-325 -343 -198 270 350 0
-325 -343 198 -270 350 0
-325 -343 198 270 -350 0
-325 -343 -199 -271 -351 0
-325 -343 -199 271 351 0
-325 -343 199 -271 351 0
-325 -343 199 271 -351 0
-325 -343 -200 -272 -352 0
-325 -343 -200 272 352 0
-325 -343 200 -272 352 0
-325 -343 200 272 -352 0
-325 -343 -201 -273 -353 0
-325 -343 -201 273 353 0
-325 -343 201 -273 353 0
-325 -343 201 273 -353 0
-325 -344 -193 -304 -345 0
-325 -344 -193 304 345 0
-325 -344 193 -304 345 0
-325 -344 193 304 -345 0
-325 -344 -194 -305 -346 0
-325 -344 -194 305 346 0
-325 -344 194 -305 346 0
-325 -344 194 305 -346 0
-325 -344 -195 -306 -347 0
-325 -344 -195 306 347 0
-325 -344 195 -306 347 0
-325 -344 195 306 -347 0
-325 -344 -196 -307 -348 0
-325 -344 -196 307 348 0
-325 -344 196 -307 348 0
-325 -344 196 307 -348 0
-325 -344 -197 -308 -349 0
-325 -344 -197 308 349 0
-325 -344 197 -308 349 0
-325 -344 197 308 -349 0
-325 -344 -198 -309 -350 0
-325 -344 -198 309 350 0
-325 -344 198 -309 350 0
-325 -344 198 309 -350 0
-325 -344 -199 -310 -351 0
-325 -344 -199 310 351 0
-325 -344 199 -310 351 0
-325 -344 199 310 -351 0
-325 -344 -200 -311 -352 0
-325 -344 -200 311 352 0
-325 -344 200 -311 352 0
-325 -344 200 311 -352 0
-325 -344 -201 -312 -353 0
-325 -344 -201 312 353 0
-325 -344 201 -312 353 0
-325 -344 201 312 -353 0
-326 -343 -228 -265 -345 0
-326 -343 -228 265 345 0
-326 -343 228 -265 345 0
-326 -343 228 265 -345 0
-326 -343 -229 -266 -346 0
-326 -343 -229 266 346 0
-326 -343 229 -266 346 0
-326 -343 229 266 -346 0
-326 -343 -230 -267 -347 0
-326 -343 -230 267 347 0
-326 -343 230 -267 347 0
-326 -343 230 267 -347 0
-326 -343 -231 -268 -348 0
-326 -343 -231 268 348 0
-326 -343 231 -268 348 0
-326 -343 231 268 -348 0
-326 -343 -232 -269 -349 0
-326 -343 -232 269 349 0
-326 -343 232 -269 349 0
-326 -343 232 269 -349 0
-326 -343 -233 -270 -350 0
-326 -343 -233 270 350 0
-326 -343 233 -270 350 0
-326 -343 233 270 -350 0
-326 -343 -234 -271 -351 0
-326 -343 -234 271 351 0
-326 -343 234 -271 351 0
-326 -343 234 271 -351 0
-326 -343 -235 -272 -352 0
-326 -343 -235 272 352 0
-326 -343 235 -272 352 0
-326 -343 235 272 -352 0
-326 -343 -236 -273 -353 0
-326 -343 -236 273 353 0
-326 -343 236 -273 353 0
-326 -343 236 273 -353 0
-326 -344 -228 -304 -345 0
-326 -344 -228 304 345 0
-326 -344 228 -304 345 0
-326 -344 228 304 -345 0
-326 -344 -229 -305 -346 0
-326 -344 -229 305 346 0
-326 -344 229 -305 346 0
-326 -344 229 305 -346 0
-326 -344 -230 -306 -347 0
-326 -344 -230 306 347 0
-326 -344 230 -306 347 0
-326 -344 230 306 -347 0
-326 -344 -231 -307 -348 0
-326 -344 -231 307 348 0
-326 -344 231 -307 348 0
-326 -344 231 307 -348 0
-326 -344 -232 -308 -349 0
-326 -344 -232 308 349 0
-326 -344 232 -308 349 0
-326 -344 232 308 -349 0
-326 -344 -233 -309 -350 0
-326 -344 -233 309 350 0
-326 -344 233 -309 350 0
-326 -344 233 309 -350 0
-326 -344 -234 -310 -351 0
-326 -344 -234 310 351 0
-326 -344 234 -310 351 0
-326 -344 234 310 -351 0
-326 -344 -235 -311 -352 0
-326 -344 -235 311 352 0
-326 -344 235 -311 352 0
-326 -344 235 311 -352 0
-326 -344 -236 -312 -353 0
-326 -344 -236 312 353 0
-326 -344 236 -312 353 0
-326 -344 236 312 -353 0
-327 -344 -265 -304 -345 0
-327 -344 -265 304 345 0
-327 -344 265 -304 345 0
-327 -344 265 304 -345 0
-327 -344 -266 -305 -346 0
-327 -344 -266 305 346 0
-327 -344 266 -305 346 0
-327 -344 266 305 -346 0
-327 -344 -267 -306 -347 0
-327 -344 -267 306 347 0
-327 -344 267 -306 347 0
-327 -344 267 306 -347 0
-327 -344 -268 -307 -348 0
-327 -344 -268 307 348 0
-327 -344 268 -307 348 0
-327 -344 268 307 -348 0
-327 -344 -269 -308 -349 0
-327 -344 -269 308 349 0
-327 -344 269 -308 349 0
-327 -344 269 308 -349 0
-327 -344 -270 -309 -350 0
-327 -344 -270 309 350 0
-327 -344 270 -309 350 0
-327 -344 270 309 -350 0
-327 -344 -271 -310 -351 0
-327 -344 -271 310 351 0
-327 -344 271 -310 351 0
-327 -344 271 310 -351 0
-327 -344 -272 -311 -352 0
-327 -344 -272 311 352 0
-327 -344 272 -311 352 0
-327 -344 272 311 -352 0
-327 -344 -273 -312 -353 0
-327 -344 -273 312 353 0
-327 -344 273 -312 353 0
-327 -344 273 312 -353 0
345 346 347 348 349 350 351 352 353 0
354 355 356 357 358 359 360 361 362 363 364 365 366 367 368 369 370 0
-354 -355 0
-354 -356 0
-354 -357 0
-354 -358 0
-354 -359 0
-354 -360 0
-354 -361 0
-354 -362 0
-354 -363 0
-354 -364 0
-354 -365 0
-354 -366 0
-354 -367 0
-354 -368 0
-354 -369 0
-354 -370 0
-355 -356 0
-355 -357 0
-355 -358 0
-355 -359 0
-355 -360 0
-355 -361 0
-355 -362 0
-355 -363 0
-355 -364 0
-355 -365 0
-355 -366 0
-355 -367 0
-355 -368 0
-355 -369 0
-355 -370 0
-356 -357 0
-356 -358 0
-356 -359 0
-356 -360 0
-356 -361 0
-356 -362 0
-356 -363 0
-356 -364 0
-356 -365 0
-356 -366 0
-356 -367 0
-356 -368 0
-356 -369 0
-356 -370 0
-357 -358 0
-357 -359 0
-357 -360 0
-357 -361 0
-357 -362 0
-357 -363 0
-357 -364 0
-357 -365 0
-357 -366 0
-357 -367 0
-357 -368 0
-357 -369 0
-357 -370 0
-358 -359 0
-358 -360 0
-358 -361 0
-358 -362 0
-358 -363 0
-358 -364 0
-358 -365 0
-358 -366 0
-358 -367 0
-358 -368 0
-358 -369 0
-358 -370 0
-359 -360 0
-359 -361 0
-359 -362 0
-359 -363 0
-359 -364 0
-359 -365 0
-359 -366 0
-359 -367 0
-359 -368 0
-359 -369 0
-359 -370 0
-360 -361 0
-360 -362 0
-360 -363 0
-360 -364 0
-360 -365 0
-360 -366 0
-360 -367 0
-360 -368 0
-360 -369 0
-360 -370 0
-361 -362 0
-361 -363 0
-361 -364 0
-361 -365 0
-361 -366 0
-361 -367 0
-361 -368 0
-361 -369 0
-361 -370 0
-362 -363 0
-362 -364 0
-362 -365 0
-362 -366 0
-362 -367 0
-362 -368 0
-362 -369 0
-362 -370 0
-363 -364 0
-363 -365 0
-363 -366 0
-363 -367 0
-363 -368 0
-363 -369 0
-363 -370 0
-364 -365 0
-364 -366 0
-364 -367 0
-364 -368 0
-364 -369 0
-364 -370 0
-365 -366 0
-365 -367 0
-365 -368 0
-365 -369 0
-365 -370 0
-366 -367 0
-366 -368 0
-366 -369 0
-366 -370 0
-367 -368 0
-367 -369 0
-367 -370 0
-368 -369 0
-368 -370 0
-369 -370 0
371 372 373 374 375 376 377 378 379 380 381 382 383 384 385 386 387 0
-371 -372 0
-371 -373 0
-371 -374 0
-371 -375 0
-371 -376 0
-371 -377 0
-371 -378 0
-371 -379 0
-371 -380 0
-371 -381 0
-371 -382 0
-371 -383 0
-371 -384 0
-371 -385 0
-371 -386 0
-371 -387 0
-372 -373 0
-372 -374 0
-372 -375 0
-372 -376 0
-372 -377 0
-372 -378 0
-372 -379 0
-372 -380 0
-372 -381 0
-372 -382 0
-372 -383 0
-372 -384 0
-372 -385 0
-372 -386 0
-372 -387 0
-373 -374 0
-373 -375 0
-373 -376 0
-373 -377 0
-373 -378 0
-373 -379 0
-373 -380 0
-373 -381 0
-373 -382 0
-373 -383 0
-373 -384 0
-373 -385 0
-373 -386 0
-373 -387 0
-374 -375 0
-374 -376 0
-374 -377 0
-374 -378 0
-374 -379 0
-374 -380 0
-374 -381 0
-374 -382 0
-374 -383 0
-374 -384 0
-374 -385 0
-374 -386 0
-374 -387 0
-375 -376 0
-375 -377 0
-375 -378 0
-375 -379 0
-375 -380 0
-375 -381 0
-375 -382 0
-375 -383 0
-375 -384 0
-375 -385 0
-375 -386 0
-375 -387 0
-376 -377 0
-376 -378 0
-376 -379 0
-376 -380 0
-376 -381 0
-376 -382 0
-376 -383 0
-376 -384 0
-376 -385 0
-376 -386 0
-376 -387 0
-377 -378 0
-377 -379 0
-377 -380 0
-377 -381 0
-377 -382 0
-377 -383 0
-377 -384 0
-377 -385 0
-377 -386 0
-377 -387 0
-378 -379 0
-378 -380 0
-378 -381 0
-378 -382 0
-378 -383 0
-378 -384 0
-378 -385 0
-378 -386 0
-378 -387 0
-379 -380 0
-379 -381 0
-379 -382 0
-379 -383 0
-379 -384 0
-379 -385 0
-379 -386 0
-379 -387 0
-380 -381 0
-380 -382 0
-380 -383 0
-380 -384 0
-380 -385 0
-380 -386 0
-380 -387 0
-381 -382 0
-381 -383 0
-381 -384 0
-381 -385 0
-381 -386 0
-381 -387 0
-382 -383 0
-382 -384 0
-382 -385 0
-382 -386 0
-382 -387 0
-383 -384 0
-383 -385 0
-383 -386 0
-383 -387 0
-384 -385 0
-384 -386 0
-384 -387 0
-385 -386 0
-385 -387 0
-386 -387 0
-354 -371 0
-355 -371 0
-355 -372 0
-356 -371 0
-356 -372 0
-356 -373 0
-357 -371 0
-357 -372 0
-357 -373 0
-357 -374 0
-358 -371 0
-358 -372 0
-358 -373 0
-358 -374 0
-358 -375 0
-359 -371 0
-359 -372 0
-359 -373 0
-359 -374 0
-359 -375 0
-359 -376 0
-360 -371 0
-360 -372 0
-360 -373 0
-360 -374 0
-360 -375 0
-360 -376 0
-360 -377 0
-361 -371 0
-361 -372 0
-361 -373 0
-361 -374 0
-361 -375 0
-361 -376 0
-361 -377 0
-361 -378 0
-362 -371 0
-362 -372 0
-362 -373 0
-362 -374 0
-362 -375 0
-362 -376 0
-362 -377 0
-362 -378 0
-362 -379 0
-363 -371 0
-363 -372 0
-363 -373 0
-363 -374 0
-363 -375 0
-363 -376 0
-363 -377 0
-363 -378 0
-363 -379 0
-363 -380 0
-364 -371 0
-364 -372 0
-364 -373 0
-364 -374 0
-364 -375 0
-364 -376 0
-364 -377 0
-364 -378 0
-364 -379 0
-364 -380 0
-364 -381 0
-365 -371 0
-365 -372 0
-365 -373 0
-365 -374 0
-365 -375 0
-365 -376 0
-365 -377 0
-365 -378 0
-365 -379 0
-365 -380 0
-365 -381 0
-365 -382 0
-366 -371 0
-366 -372 0
-366 -373 0
-366 -374 0
-366 -375 0
-366 -376 0
-366 -377 0
-366 -378 0
-366 -379 0
-366 -380 0
-366 -381 0
-366 -382 0
-366 -383 0
-367 -371 0
-367 -372 0
-367 -373 0
-367 -374 0
-367 -375 0
-367 -376 0
-367 -377 0
-367 -378 0
-367 -379 0
-367 -380 0
-367 -381 0
-367 -382 0
-367 -383 0
-367 -384 0
-368 -371 0
-368 -372 0
-368 -373 0
-368 -374 0
-368 -375 0
-368 -376 0
-368 -377 0
-368 -378 0
-368 -379 0
-368 -380 0
-368 -381 0
-368 -382 0
-368 -383 0
-368 -384 0
-368 -385 0
-369 -371 0
-369 -372 0
-369 -373 0
-369 -374 0
-369 -375 0
-369 -376 0
-369 -377 0
-369 -378 0
-369 -379 0
-369 -380 0
-369 -381 0
-369 -382 0
-369 -383 0
-369 -384 0
-369 -385 0
-369 -386 0
-370 -371 0
-370 -372 0
-370 -373 0
-370 -374 0
-370 -375 0
-370 -376 0
-370 -377 0
-370 -378 0
-370 -379 0
-370 -380 0
-370 -381 0
-370 -382 0
-370 -383 0
-370 -384 0
-370 -385 0
-370 -386 0
-370 -387 0
-354 -372 -1 -10 -388 0
-354 -372 -1 10 388 0
-354 -372 1 -10 388 0
-354 -372 1 10 -388 0
-354 -372 -2 -11 -389 0
-354 -372 -2 11 389 0
-354 -372 2 -11 389 0
-354 -372 2 11 -389 0
-354 -372 -3 -12 -390 0
-354 -372 -3 12 390 0
-354 -372 3 -12 390 0
-354 -372 3 12 -390 0
-354 -372 -4 -13 -391 0
-354 -372 -4 13 391 0
-354 -372 4 -13 391 0
-354 -372 4 13 -391 0
-354 -372 -5 -14 -392 0
-354 -372 -5 14 392 0
-354 -372 5 -14 392 0
-354 -372 5 14 -392 0
-354 -372 -6 -15 -393 0
-354 -372 -6 15 393 0
-354 -372 6 -15 393 0
-354 -372 6 15 -393 0
-354 -372 -7 -16 -394 0
-354 -372 -7 16 394 0
-354 -372 7 -16 394 0
-354 -372 7 16 -394 0
-354 -372 -8 -17 -395 0
-354 -372 -8 17 395 0
-354 -372 8 -17 395 0
-354 -372 8 17 -395 0
-354 -372 -9 -18 -396 0
-354 -372 -9 18 396 0
-354 -372 9 -18 396 0
-354 -372 9 18 -396 0
-354 -373 -1 -19 -388 0
-354 -373 -1 19 388 0
-354 -373 1 -19 388 0
-354 -373 1 19 -388 0
-354 -373 -2 -20 -389 0
-354 -373 -2 20 389 0
-354 -373 2 -20 389 0
-354 -373 2 20 -389 0
-354 -373 -3 -21 -390 0
-354 -373 -3 21 390 0
-354 -373 3 -21 390 0
-354 -373 3 21 -390 0
-354 -373 -4 -22 -391 0
-354 -373 -4 22 391 0
-354 -373 4 -22 391 0
-354 -373 4 22 -391 0
-354 -373 -5 -23 -392 0
-354 -373 -5 23 392 0
-354 -373 5 -23 392 0
-354 -373 5 23 -392 0
-354 -373 -6 -24 -393 0
-354 -373 -6 24 393 0
-354 -373 6 -24 393 0
-354 -373 6 24 -393 0
-354 -373 -7 -25 -394 0
-354 -373 -7 25 394 0
-354 -373 7 -25 394 0
-354 -373 7 25 -394 0
-354 -373 -8 -26 -395 0
-354 -373 -8 26 395 0
-354 -373 8 -26 395 0
-354 -373 8 26 -395 0
-354 -373 -9 -27 -396 0
-354 -373 -9 27 396 0
-354 -373 9 -27 396 0
-354 -373 9 27 -396 0
-354 -374 -1 -28 -388 0
-354 -374 -1 28 388 0
-354 -374 1 -28 388 0
-354 -374 1 28 -388 0
-354 -374 -2 -29 -389 0
-354 -374 -2 29 389 0
-354 -374 2 -29 389 0
-354 -374 2 29 -389 0
-354 -374 -3 -30 -390 0
-354 -374 -3 30 390 0
-354 -374 3 -30 390 0
-354 -374 3 30 -390 0
-354 -374 -4 -31 -391 0
-354 -374 -4 31 391 0
-354 -374 4 -31 391 0
-354 -374 4 31 -391 0
-354 -374 -5 -32 -392 0
-354 -374 -5 32 392 0
-354 -374 5 -32 392 0
-354 -374 5 32 -392 0
-354 -374 -6 -33 -393 0
-354 -374 -6 33 393 0
-354 -374 6 -33 393 0
-354 -374 6 33 -393 0
-354 -374 -7 -34 -394 0
-354 -374 -7 34 394 0
-354 -374 7 -34 394 0
-354 -374 7 34 -394 0
-354 -374 -8 -35 -395 0
-354 -374 -8 35 395 0
-354 -374 8 -35 395 0
-354 -374 8 35 -395 0
-354 -374 -9 -36 -396 0
-354 -374 -9 36 396 0
-354 -374 9 -36 396 0
-354 -374 9 36 -396 0
-354 -375 -1 -37 -388 0
-354 -375 -1 37 388 0
-354 -375 1 -37 388 0
-354 -375 1 37 -388 0
-354 -375 -2 -38 -389 0
-354 -375 -2 38 389 0
-354 -375 2 -38 389 0
-354 -375 2 38 -389 0
-354 -375 -3 -39 -390 0
-354 -375 -3 39 390 0
-354 -375 3 -39 390 0
-354 -375 3 39 -390 0
-354 -375 -4 -40 -391 0
-354 -375 -4 40 391 0
-354 -375 4 -40 391 0
-354 -375 4 40 -391 0
-354 -375 -5 -41 -392 0
-354 -375 -5 41 392 0
-354 -375 5 -41 392 0
-354 -375 5 41 -392 0
-354 -375 -6 -42 -393 0
-354 -375 -6 42 393 0
-354 -375 6 -42 393 0
-354 -375 6 42 -393 0
-354 -375 -7 -43 -394 0
-354 -375 -7 43 394 0
-354 -375 7 -43 394 0
-354 -375 7 43 -394 0
-354 -375 -8 -44 -395 0
-354 -375 -8 44 395 0
-354 -375 8 -44 395 0
-354 -375 8 44 -395 0
-354 -375 -9 -45 -396 0
-354 -375 -9 45 396 0
-354 -375 9 -45 396 0
-354 -375 9 45 -396 0
-354 -376 -1 -46 -388 0
-354 -376 -1 46 388 0
-354 -376 1 -46 388 0
-354 -376 1 46 -388 0
-354 -376 -2 -47 -389 0
-354 -376 -2 47 389 0
-354 -376 2 -47 389 0
-354 -376 2 47 -389 0
-354 -376 -3 -48 -390 0
-354 -376 -3 48 390 0
-354 -376 3 -48 390 0
-354 -376 3 48 -390 0
-354 -376 -4 -49 -391 0
-354 -376 -4 49 391 0
-354 -376 4 -49 391 0
-354 -376 4 49 -391 0
-354 -376 -5 -50 -392 0
-354 -376 -5 50 392 0
-354 -376 5 -50 392 0
-354 -376 5 50 -392 0
-354 -376 -6 -51 -393 0
-354 -376 -6 51 393 0
-354 -376 6 -51 393 0
-354 -376 6 51 -393 0
-354 -376 -7 -52 -394 0
-354 -376 -7 52 394 0
-354 -376 7 -52 394 0
-354 -376 7 52 -394 0
-354 -376 -8 -53 -395 0
-354 -376 -8 53 395 0
-354 -376 8 -53 395 0
-354 -376 8 53 -395 0
-354 -376 -9 -54 -396 0
-354 -376 -9 54 396 0
-354 -376 9 -54 396 0
-354 -376 9 54 -396 0
-354 -377 -1 -55 -388 0
-354 -377 -1 55 388 0
-354 -377 1 -55 388 0
-354 -377 1 55 -388 0
-354 -377 -2 -56 -389 0
-354 -377 -2 56 389 0
-354 -377 2 -56 389 0
-354 -377 2 56 -389 0
-354 -377 -3 -57 -390 0
-354 -377 -3 57 390 0
-354 -377 3 -57 390 0
-354 -377 3 57 -390 0
-354 -377 -4 -58 -391 0
-354 -377 -4 58 391 0
-354 -377 4 -58 391 0
-354 -377 4 58 -391 0
-354 -377 -5 -59 -392 0
-354 -377 -5 59 392 0
-354 -377 5 -59 392 0
-354 -377 5 59 -392 0
-354 -377 -6 -60 -393 0
-354 -377 -6 60 393 0
-354 -377 6 -60 393 0
-354 -377 6 60 -393 0
-354 -377 -7 -61 -394 0
-354 -377 -7 61 394 0
-354 -377 7 -61 394 0
-354 -377 7 61 -394 0
-354 -377 -8 -62 -395 0
-354 -377 -8 62 395 0
-354 -377 8 -62 395 0
-354 -377 8 62 -395 0
-354 -377 -9 -63 -396 0
-354 -377 -9 63 396 0
-354 -377 9 -63 396 0
-354 -377 9 63 -396 0
-354 -378 -1 -64 -388 0
-354 -378 -1 64 388 0
-354 -378 1 -64 388 0
-354 -378 1 64 -388 0
-354 -378 -2 -65 -389 0
-354 -378 -2 65 389 0
-354 -378 2 -65 389 0
-354 -378 2 65 -389 0
-354 -378 -3 -66 -390 0
-354 -378 -3 66 390 0
-354 -378 3 -66 390 0
-354 -378 3 66 -390 0
-354 -378 -4 -67 -391 0
-354 -378 -4 67 391 0
-354 -378 4 -67 391 0
-354 -378 4 67 -391 0
-354 -378 -5 -68 -392 0
-354 -378 -5 68 392 0
-354 -378 5 -68 392 0
-354 -378 5 68 -392 0
-354 -378 -6 -69 -393 0
-354 -378 -6 69 393 0
-354 -378 6 -69 393 0
-354 -378 6 69 -393 0
-354 -378 -7 -70 -394 0
-354 -378 -7 70 394 0
-354 -378 7 -70 394 0
-354 -378 7 70 -394 0
-354 -378 -8 -71 -395 0
-354 -378 -8 71 395 0
-354 -378 8 -71 395 0
-354 -378 8 71 -395 0
-354 -378 -9 -72 -396 0
-354 -378 -9 72 396 0
-354 -378 9 -72 396 0
-354 -378 9 72 -396 0
-354 -379 -1 -73 -388 0
-354 -379 -1 73 388 0
-354 -379 1 -73 388 0
-354 -379 1 73 -388 0
-354 -379 -2 -74 -389 0
-354 -379 -2 74 389 0
-354 -379 2 -74 389 0
-354 -379 2 74 -389 0
-354 -379 -3 -75 -390 0
-354 -379 -3 75 390 0
-354 -379 3 -75 390 0
-354 -379 3 75 -390 0
-354 -379 -4 -76 -391 0
-354 -379 -4 76 391 0
-354 -379 4 -76 391 0
-354 -379 4 76 -391 0
-354 -379 -5 -77 -392 0
-354 -379 -5 77 392 0
-354 -379 5 -77 392 0
-354 -379 5 77 -392 0
-354 -379 -6 -78 -393 0
-354 -379 -6 78 393 0
-354 -379 6 -78 393 0
-354 -379 6 78 -393 0
-354 -379 -7 -79 -394 0
-354 -379 -7 79 394 0
-354 -379 7 -79 394 0
-354 -379 7 79 -394 0
-354 -379 -8 -80 -395 0
-354 -379 -8 80 395 0
-354 -379 8 -80 395 0
-354 -379 8 80 -395 0
-354 -379 -9 -81 -396 0
-354 -379 -9 81 396 0
-354 -379 9 -81 396 0
-354 -379 9 81 -396 0
-354 -380 -1 -100 -388 0
-354 -380 -1 100 388 0
-354 -380 1 -100 388 0
-354 -380 1 100 -388 0
-354 -380 -2 -101 -389 0
-354 -380 -2 101 389 0
-354 -380 2 -101 389 0
-354 -380 2 101 -389 0
-354 -380 -3 -102 -390 0
-354 -380 -3 102 390 0
-354 -380 3 -102 390 0
-354 -380 3 102 -390 0
-354 -380 -4 -103 -391 0
-354 -380 -4 103 391 0
-354 -380 4 -103 391 0
-354 -380 4 103 -391 0
-354 -380 -5 -104 -392 0
-354 -380 -5 104 392 0
-354 -380 5 -104 392 0
-354 -380 5 104 -392 0
-354 -380 -6 -105 -393 0
-354 -380 -6 105 393 0
-354 -380 6 -105 393 0
-354 -380 6 105 -393 0
-354 -380 -7 -106 -394 0
-354 -380 -7 106 394 0
-354 -380 7 -106 394 0
-354 -380 7 106 -394 0
-354 -380 -8 -107 -395 0
-354 -380 -8 107 395 0
-354 -380 8 -107 395 0
-354 -380 8 107 -395 0
-354 -380 -9 -108 -396 0
-354 -380 -9 108 396 0
-354 -380 9 -108 396 0
-354 -380 9 108 -396 0
-354 -381 -1 -129 -388 0
-354 -381 -1 129 388 0
-354 -381 1 -129 388 0
-354 -381 1 129 -388 0
-354 -381 -2 -130 -389 0
-354 -381 -2 130 389 0
-354 -381 2 -130 389 0
-354 -381 2 130 -389 0
-354 -381 -3 -131 -390 0
-354 -381 -3 131 390 0
-354 -381 3 -131 390 0
-354 -381 3 131 -390 0
-354 -381 -4 -132 -391 0
-354 -381 -4 132 391 0
-354 -381 4 -132 391 0
-354 -381 4 132 -391 0
-354 -381 -5 -133 -392 0
-354 -381 -5 133 392 0
-354 -381 5 -133 392 0
-354 -381 5 133 -392 0
-354 -381 -6 -134 -393 0
-354 -381 -6 134 393 0
-354 -381 6 -134 393 0
-354 -381 6 134 -393 0
-354 -381 -7 -135 -394 0
-354 -381 -7 135 394 0
-354 -381 7 -135 394 0
-354 -381 7 135 -394 0
-354 -381 -8 -136 -395 0
-354 -381 -8 136 395 0
-354 -381 8 -136 395 0
-354 -381 8 136 -395 0
-354 -381 -9 -137 -396 0
-354 -381 -9 137 396 0
-354 -381 9 -137 396 0
-354 -381 9 137 -396 0
-354 -382 -1 -160 -388 0
-354 -382 -1 160 388 0
-354 -382 1 -160 388 0
-354 -382 1 160 -388 0
-354 -382 -2 -161 -389 0
-354 -382 -2 161 389 0
-354 -382 2 -161 389 0
-354 -382 2 161 -389 0
-354 -382 -3 -162 -390 0
-354 -382 -3 162 390 0
-354 -382 3 -162 390 0
-354 -382 3 162 -390 0
-354 -382 -4 -163 -391 0
-354 -382 -4 163 391 0
-354 -382 4 -163 391 0
-354 -382 4 163 -391 0
-354 -382 -5 -164 -392 0
-354 -382 -5 164 392 0
-354 -382 5 -164 392 0
-354 -382 5 164 -392 0
-354 -382 -6 -165 -393 0
-354 -382 -6 165 393 0
-354 -382 6 -165 393 0
-354 -382 6 165 -393 0
-354 -382 -7 -166 -394 0
-354 -382 -7 166 394 0
-354 -382 7 -166 394 0
-354 -382 7 166 -394 0
-354 -382 -8 -167 -395 0
-354 -382 -8 167 395 0
-354 -382 8 -167 395 0
-354 -382 8 167 -395 0
-354 -382 -9 -168 -396 0
-354 -382 -9 168 396 0
-354 -382 9 -168 396 0
-354 -382 9 168 -396 0
-354 -383 -1 -193 -388 0
-354 -383 -1 193 388 0
-354 -383 1 -193 388 0
-354 -383 1 193 -388 0
-354 -383 -2 -194 -389 0
-354 -383 -2 194 389 0
-354 -383 2 -194 389 0
-354 -383 2 194 -389 0
-354 -383 -3 -195 -390 0
-354 -383 -3 195 390 0
-354 -383 3 -195 390 0
-354 -383 3 195 -390 0
-354 -383 -4 -196 -391 0
-354 -383 -4 196 391 0
-354 -383 4 -196 391 0
-354 -383 4 196 -391 0
-354 -383 -5 -197 -392 0
-354 -383 -5 197 392 0
-354 -383 5 -197 392 0
-354 -383 5 197 -392 0
-354 -383 -6 -198 -393 0
-354 -383 -6 198 393 0
-354 -383 6 -198 393 0
-354 -383 6 198 -393 0
-354 -383 -7 -199 -394 0
-354 -383 -7 199 394 0
-354 -383 7 -199 394 0
-354 -383 7 199 -394 0
-354 -383 -8 -200 -395 0
-354 -383 -8 200 395 0
-354 -383 8 -200 395 0
-354 -383 8 200 -395 0
-354 -383 -9 -201 -396 0
-354 -383 -9 201 396 0
-354 -383 9 -201 396 0
-354 -383 9 201 -396 0
-354 -384 -1 -228 -388 0
-354 -384 -1 228 388 0
-354 -384 1 -228 388 0
-354 -384 1 228 -388 0
-354 -384 -2 -229 -389 0
-354 -384 -2 229 389 0
-354 -384 2 -229 389 0
-354 -384 2 229 -389 0
-354 -384 -3 -230 -390 0
-354 -384 -3 230 390 0
-354 -384 3 -230 390 0
-354 -384 3 230 -390 0
-354 -384 -4 -231 -391 0
-354 -384 -4 231 391 0
-354 -384 4 -231 391 0
-354 -384 4 231 -391 0
-354 -384 -5 -232 -392 0
-354 -384 -5 232 392 0
-354 -384 5 -232 392 0
-354 -384 5 232 -392 0
-354 -384 -6 -233 -393 0
-354 -384 -6 233 393 0
-354 -384 6 -233 393 0
-354 -384 6 233 -393 0
-354 -384 -7 -234 -394 0
-354 -384 -7 234 394 0
-354 -384 7 -234 394 0
-354 -384 7 234 -394 0
-354 -384 -8 -235 -395 0
-354 -384 -8 235 395 0
-354 -384 8 -235 395 0
-354 -384 8 235 -395 0
-354 -384 -9 -236 -396 0
-354 -384 -9 236 396 0
-354 -384 9 -236 396 0
-354 -384 9 236 -396 0
-354 -385 -1 -265 -388 0
-354 -385 -1 265 388 0
-354 -385 1 -265 388 0
-354 -385 1 265 -388 0
-354 -385 -2 -266 -389 0
-354 -385 -2 266 389 0
-354 -385 2 -266 389 0
-354 -385 2 266 -389 0
-354 -385 -3 -267 -390 0
-354 -385 -3 267 390 0
-354 -385 3 -267 390 0
-354 -385 3 267 -390 0
-354 -385 -4 -268 -391 0
-354 -385 -4 268 391 0
-354 -385 4 -268 391 0
-354 -385 4 268 -391 0
-354 -385 -5 -269 -392 0
-354 -385 -5 269 392 0
-354 -385 5 -269 392 0
-354 -385 5 269 -392 0
-354 -385 -6 -270 -393 0
-354 -385 -6 270 393 0
-354 -385 6 -270 393 0
-354 -385 6 270 -393 0
-354 -385 -7 -271 -394 0
-354 -385 -7 271 394 0
-354 -385 7 -271 394 0
-354 -385 7 271 -394 0
-354 -385 -8 -272 -395 0
-354 -385 -8 272 395 0
-354 -385 8 -272 395 0
-354 -385 8 272 -395 0
-354 -385 -9 -273 -396 0
-354 -385 -9 273 396 0
-354 -385 9 -273 396 0
-354 -385 9 273 -396 0
-354 -386 -1 -304 -388 0
-354 -386 -1 304 388 0
-354 -386 1 -304 388 0
-354 -386 1 304 -388 0
-354 -386 -2 -305 -389 0
-354 -386 -2 305 389 0
-354 -386 2 -305 389 0
-354 -386 2 305 -389 0
-354 -386 -3 -306 -390 0
-354 -386 -3 306 390 0
-354 -386 3 -306 390 0
-354 -386 3 306 -390 0
-354 -386 -4 -307 -391 0
-354 -386 -4 307 391 0
-354 -386 4 -307 391 0
-354 -386 4 307 -391 0
-354 -386 -5 -308 -392 0
-354 -386 -5 308 392 0
-354 -386 5 -308 392 0
-354 -386 5 308 -392 0
-354 -386 -6 -309 -393 0
-354 -386 -6 309 393 0
-354 -386 6 -309 393 0
-354 -386 6 309 -393 0
-354 -386 -7 -310 -394 0
-354 -386 -7 310 394 0
-354 -386 7 -310 394 0
-354 -386 7 310 -394 0
-354 -386 -8 -311 -395 0
-354 -386 -8 311 395 0
-354 -386 8 -311 395 0
-354 -386 8 311 -395 0
-354 -386 -9 -312 -396 0
-354 -386 -9 312 396 0
-354 -386 9 -312 396 0
-354 -386 9 312 -396 0
-354 -387 -1 -345 -388 0
-354 -387 -1 345 388 0
-354 -387 1 -345 388 0
-354 -387 1 345 -388 0
-354 -387 -2 -346 -389 0
-354 -387 -2 346 389 0
-354 -387 2 -346 389 0
-354 -387 2 346 -389 0
-354 -387 -3 -347 -390 0
-354 -387 -3 347 390 0
-354 -387 3 -347 390 0
-354 -387 3 347 -390 0
-354 -387 -4 -348 -391 0
-354 -387 -4 348 391 0
-354 -387 4 -348 391 0
-354 -387 4 348 -391 0
-354 -387 -5 -349 -392 0
-354 -387 -5 349 392 0
-354 -387 5 -349 392 0
-354 -387 5 349 -392 0
-354 -387 -6 -350 -393 0
-354 -387 -6 350 393 0
-354 -387 6 -350 393 0
-354 -387 6 350 -393 0
-354 -387 -7 -351 -394 0
-354 -387 -7 351 394 0
-354 -387 7 -351 394 0
-354 -387 7 351 -394 0
-354 -387 -8 -352 -395 0
-354 -387 -8 352 395 0
-354 -387 8 -352 395 0
-354 -387 8 352 -395 0
-354 -387 -9 -353 -396 0
-354 -387 -9 353 396 0
-354 -387 9 -353 396 0
-354 -387 9 353 -396 0
-355 -373 -10 -19 -388 0
-355 -373 -10 19 388 0
-355 -373 10 -19 388 0
-355 -373 10 19 -388 0
-355 -373 -11 -20 -389 0
-355 -373 -11 20 389 0
-355 -373 11 -20 389 0
-355 -373 11 20 -389 0
-355 -373 -12 -21 -390 0
-355 -373 -12 21 390 0
-355 -373 12 -21 390 0
-355 -373 12 21 -390 0
-355 -373 -13 -22 -391 0
-355 -373 -13 22 391 0
-355 -373 13 -22 391 0
-355 -373 13 22 -391 0
-355 -373 -14 -23 -392 0
-355 -373 -14 23 392 0
-355 -373 14 -23 392 0
-355 -373 14 23 -392 0
-355 -373 -15 -24 -393 0
-355 -373 -15 24 393 0
-355 -373 15 -24 393 0
-355 -373 15 24 -393 0
-355 -373 -16 -25 -394 0
-355 -373 -16 25 394 0
-355 -373 16 -25 394 0
-355 -373 16 25 -394 0
-355 -373 -17 -26 -395 0
-355 -373 -17 26 395 0
-355 -373 17 -26 395 0
-355 -373 17 26 -395 0
-355 -373 -18 -27 -396 0
-355 -373 -18 27 396 0
-355 -373 18 -27 396 0
-355 -373 18 27 -396 0
-355 -374 -10 -28 -388 0
-355 -374 -10 28 388 0
-355 -374 10 -28 388 0
-355 -374 10 28 -388 0
-355 -374 -11 -29 -389 0
-355 -374 -11 29 389 0
-355 -374 11 -29 389 0
-355 -374 11 29 -389 0
-355 -374 -12 -30 -390 0
-355 -374 -12 30 390 0
-355 -374 12 -30 390 0
-355 -374 12 30 -390 0
-355 -374 -13 -31 -391 0
-355 -374 -13 31 391 0
-355 -374 13 -31 391 0
-355 -374 13 31 -391 0
-355 -374 -14 -32 -392 0
-355 -374 -14 32 392 0
-355 -374 14 -32 392 0
-355 -374 14 32 -392 0
-355 -374 -15 -33 -393 0
-355 -374 -15 33 393 0
-355 -374 15 -33 393 0
-355 -374 15 33 -393 0
-355 -374 -16 -34 -394 0
-355 -374 -16 34 394 0
-355 -374 16 -34 394 0
-355 -374 16 34 -394 0
-355 -374 -17 -35 -395 0
-355 -374 -17 35 395 0
-355 -374 17 -35 395 0
-355 -374 17 35 -395 0
-355 -374 -18 -36 -396 0
-355 -374 -18 36 396 0
-355 -374 18 -36 396 0
-355 -374 18 36 -396 0
-355 -375 -10 -37 -388 0
-355 -375 -10 37 388 0
-355 -375 10 -37 388 0
-355 -375 10 37 -388 0
-355 -375 -11 -38 -389 0
-355 -375 -11 38 389 0
-355 -375 11 -38 389 0
-355 -375 11 38 -389 0
-355 -375 -12 -39 -390 0
-355 -375 -12 39 390 0
-355 -375 12 -39 390 0
-355 -375 12 39 -390 0
-355 -375 -13 -40 -391 0
-355 -375 -13 40 391 0
-355 -375 13 -40 391 0
-355 -375 13 40 -391 0
-355 -375 -14 -41 -392 0
-355 -375 -14 41 392 0
-355 -375 14 -41 392 0
-355 -375 14 41 -392 0
-355 -375 -15 -42 -393 0
-355 -375 -15 42 393 0
-355 -375 15 -42 393 0
-355 -375 15 42 -393 0
-355 -375 -16 -43 -394 0
-355 -375 -16 43 394 0
-355 -375 16 -43 394 0
-355 -375 16 43 -394 0
-355 -375 -17 -44 -395 0
-355 -375 -17 44 395 0
-355 -375 17 -44 395 0
-355 -375 17 44 -395 0
-355 -375 -18 -45 -396 0
-355 -375 -18 45 396 0
-355 -375 18 -45 396 0
-355 -375 18 45 -396 0
-355 -376 -10 -46 -388 0
-355 -376 -10 46 388 0
-355 -376 10 -46 388 0
-355 -376 10 46 -388 0
-355 -376 -11 -47 -389 0
-355 -376 -11 47 389 0
-355 -376 11 -47 389 0
-355 -376 11 47 -389 0
-355 -376 -12 -48 -390 0
-355 -376 -12 48 390 0
-355 -376 12 -48 390 0
-355 -376 12 48 -390 0
-355 -376 -13 -49 -391 0
-355 -376 -13 49 391 0
-355 -376 13 -49 391 0
-355 -376 13 49 -391 0
-355 -376 -14 -50 -392 0
-355 -376 -14 50 392 0
-355 -376 14 -50 392 0
-355 -376 14 50 -392 0
-355 -376 -15 -51 -393 0
-355 -376 -15 51 393 0
-355 -376 15 -51 393 0
-355 -376 15 51 -393 0
-355 -376 -16 -52 -394 0
-355 -376 -16 52 394 0
-355 -376 16 -52 394 0
-355 -376 16 52 -394 0
-355 -376 -17 -53 -395 0
-355 -376 -17 53 395 0
-355 -376 17 -53 395 0
-355 -376 17 53 -395 0
-355 -376 -18 -54 -396 0
-355 -376 -18 54 396 0
-355 -376 18 -54 396 0
-355 -376 18 54 -396 0
-355 -377 -10 -55 -388 0
-355 -377 -10 55 388 0
-355 -377 10 -55 388 0
-355 -377 10 55 -388 0
-355 -377 -11 -56 -389 0
-355 -377 -11 56 389 0
-355 -377 11 -56 389 0
-355 -377 11 56 -389 0
-355 -377 -12 -57 -390 0
-355 -377 -12 57 390 0
-355 -377 12 -57 390 0
-355 -377 12 57 -390 0
-355 -377 -13 -58 -391 0
-355 -377 -13 58 391 0
-355 -377 13 -58 391 0
-355 -377 13 58 -391 0
-355 -377 -14 -59 -392 0
-355 -377 -14 59 392 0
-355 -377 14 -59 392 0
-355 -377 14 59 -392 0
-355 -377 -15 -60 -393 0
-355 -377 -15 60 393 0
-355 -377 15 -60 393 0
-355 -377 15 60 -393 0
-355 -377 -16 -61 -394 0
-355 -377 -16 61 394 0
-355 -377 16 -61 394 0
-355 -377 16 61 -394 0
-355 -377 -17 -62 -395 0
-355 -377 -17 62 395 0
-355 -377 17 -62 395 0
-355 -377 17 62 -395 0
-355 -377 -18 -63 -396 0
-355 -377 -18 63 396 0
-355 -377 18 -63 396 0
-355 -377 18 63 -396 0
-355 -378 -10 -64 -388 0
-355 -378 -10 64 388 0
-355 -378 10 -64 388 0
-355 -378 10 64 -388 0
-355 -378 -11 -65 -389 0
-355 -378 -11 65 389 0
-355 -378 11 -65 389 0
-355 -378 11 65 -389 0
-355 -378 -12 -66 -390 0
-355 -378 -12 66 390 0
-355 -378 12 -66 390 0
-355 -378 12 66 -390 0
-355 -378 -13 -67 -391 0
-355 -378 -13 67 391 0
-355 -378 13 -67 391 0
-355 -378 13 67 -391 0
-355 -378 -14 -68 -392 0
-355 -378 -14 68 392 0
-355 -378 14 -68 392 0
-355 -378 14 68 -392 0
-355 -378 -15 -69 -393 0
-355 -378 -15 69 393 0
-355 -378 15 -69 393 0
-355 -378 15 69 -393 0
-355 -378 -16 -70 -394 0
-355 -378 -16 70 394 0
-355 -378 16 -70 394 0
-355 -378 16 70 -394 0
-355 -378 -17 -71 -395 0
-355 -378 -17 71 395 0
-355 -378 17 -71 395 0
-355 -378 17 71 -395 0
-355 -378 -18 -72 -396 0
-355 -378 -18 72 396 0
-355 -378 18 -72 396 0
-355 -378 18 72 -396 0
-355 -379 -10 -73 -388 0
-355 -379 -10 73 388 0
-355 -379 10 -73 388 0
-355 -379 10 73 -388 0
-355 -379 -11 -74 -389 0
-355 -379 -11 74 389 0
-355 -379 11 -74 389 0
-355 -379 11 74 -389 0
-355 -379 -12 -75 -390 0
-355 -379 -12 75 390 0
-355 -379 12 -75 390 0
-355 -379 12 75 -390 0
-355 -379 -13 -76 -391 0
-355 -379 -13 76 391 0
-355 -379 13 -76 391 0
-355 -379 13 76 -391 0
-355 -379 -14 -77 -392 0
-355 -379 -14 77 392 0
-355 -379 14 -77 392 0
-355 -379 14 77 -392 0
-355 -379 -15 -78 -393 0
-355 -379 -15 78 393 0
-355 -379 15 -78 393 0
-355 -379 15 78 -393 0
-355 -379 -16 -79 -394 0
-355 -379 -16 79 394 0
-355 -379 16 -79 394 0
-355 -379 16 79 -394 0
-355 -379 -17 -80 -395 0
-355 -379 -17 80 395 0
-355 -379 17 -80 395 0
-355 -379 17 80 -395 0
-355 -379 -18 -81 -396 0
-355 -379 -18 81 396 0
-355 -379 18 -81 396 0
-355 -379 18 81 -396 0
-355 -380 -10 -100 -388 0
-355 -380 -10 100 388 0
-355 -380 10 -100 388 0
-355 -380 10 100 -388 0
-355 -380 -11 -101 -389 0
-355 -380 -11 101 389 0
-355 -380 11 -101 389 0
-355 -380 11 101 -389 0
-355 -380 -12 -102 -390 0
-355 -380 -12 102 390 0
-355 -380 12 -102 390 0
-355 -380 12 102 -390 0
-355 -380 -13 -103 -391 0
-355 -380 -13 103 391 0
-355 -380 13 -103 391 0
-355 -380 13 103 -391 0
-355 -380 -14 -104 -392 0
-355 -380 -14 104 392 0
-355 -380 14 -104 392 0
-355 -380 14 104 -392 0
-355 -380 -15 -105 -393 0
-355 -380 -15 105 393 0
-355 -380 15 -105 393 0
-355 -380 15 105 -393 0
-355 -380 -16 -106 -394 0
-355 -380 -16 106 394 0
-355 -380 16 -106 394 0
-355 -380 16 106 -394 0
-355 -380 -17 -107 -395 0
-355 -380 -17 107 395 0
-355 -380 17 -107 395 0
-355 -380 17 107 -395 0
-355 -380 -18 -108 -396 0
-355 -380 -18 108 396 0
-355 -380 18 -108 396 0
-355 -380 18 108 -396 0
-355 -381 -10 -129 -388 0
-355 -381 -10 129 388 0
-355 -381 10 -129 388 0
-355 -381 10 129 -388 0
-355 -381 -11 -130 -389 0
-355 -381 -11 130 389 0
-355 -381 11 -130 389 0
-355 -381 11 130 -389 0
-355 -381 -12 -131 -390 0
-355 -381 -12 131 390 0
-355 -381 12 -131 390 0
-355 -381 12 131 -390 0
-355 -381 -13 -132 -391 0
-355 -381 -13 132 391 0
-355 -381 13 -132 391 0
-355 -381 13 132 -391 0
-355 -381 -14 -133 -392 0
-355 -381 -14 133 392 0
-355 -381 14 -133 392 0
-355 -381 14 133 -392 0
-355 -381 -15 -134 -393 0
-355 -381 -15 134 393 0
-355 -381 15 -134 393 0
-355 -381 15 134 -393 0
-355 -381 -16 -135 -394 0
-355 -381 -16 135 394 0
-355 -381 16 -135 394 0
-355 -381 16 135 -394 0
-355 -381 -17 -136 -395 0
-355 -381 -17 136 395 0
-355 -381 17 -136 395 0
-355 -381 17 136 -395 0
-355 -381 -18 -137 -396 0
-355 -381 -18 137 396 0
-355 -381 18 -137 396 0
-355 -381 18 137 -396 0
-355 -382 -10 -160 -388 0
-355 -382 -10 160 388 0
-355 -382 10 -160 388 0
-355 -382 10 160 -388 0
-355 -382 -11 -161 -389 0
-355 -382 -11 161 389 0
-355 -382 11 -161 389 0
-355 -382 11 161 -389 0
-355 -382 -12 -162 -390 0
-355 -382 -12 162 390 0
-355 -382 12 -162 390 0
-355 -382 12 162 -390 0
-355 -382 -13 -163 -391 0
-355 -382 -13 163 391 0
-355 -382 13 -163 391 0
-355 -382 13 163 -391 0
-355 -382 -14 -164 -392 0
-355 -382 -14 164 392 0
-355 -382 14 -164 392 0
-355 -382 14 164 -392 0
-355 -382 -15 -165 -393 0
-355 -382 -15 165 393 0
-355 -382 15 -165 393 0
-355 -382 15 165 -393 0
-355 -382 -16 -166 -394 0
-355 -382 -16 166 394 0
-355 -382 16 -166 394 0
-355 -382 16 166 -394 0
-355 -382 -17 -167 -395 0
-355 -382 -17 167 395 0
-355 -382 17 -167 395 0
-355 -382 17 167 -395 0
-355 -382 -18 -168 -396 0
-355 -382 -18 168 396 0
-355 -382 18 -168 396 0
-355 -382 18 168 -396 0
-355 -383 -10 -193 -388 0
-355 -383 -10 193 388 0
-355 -383 10 -193 388 0
-355 -383 10 193 -388 0
-355 -383 -11 -194 -389 0
-355 -383 -11 194 389 0
-355 -383 11 -194 389 0
-355 -383 11 194 -389 0
-355 -383 -12 -195 -390 0
-355 -383 -12 195 390 0
-355 -383 12 -195 390 0
-355 -383 12 195 -390 0
-355 -383 -13 -196 -391 0
-355 -383 -13 196 391 0
-355 -383 13 -196 391 0
-355 -383 13 196 -391 0
-355 -383 -14 -197 -392 0
-355 -383 -14 197 392 0
-355 -383 14 -197 392 0
-355 -383 14 197 -392 0
-355 -383 -15 -198 -393 0
-355 -383 -15 198 393 0
-355 -383 15 -198 393 0
-355 -383 15 198 -393 0
-355 -383 -16 -199 -394 0
-355 -383 -16 199 394 0
-355 -383 16 -199 394 0
-355 -383 16 199 -394 0
-355 -383 -17 -200 -395 0
-355 -383 -17 200 395 0
-355 -383 17 -200 395 0
-355 -383 17 200 -395 0
-355 -383 -18 -201 -396 0
-355 -383 -18 201 396 0
-355 -383 18 -201 396 0
-355 -383 18 201 -396 0
-355 -384 -10 -228 -388 0
-355 -384 -10 228 388 0
-355 -384 10 -228 388 0
-355 -384 10 228 -388 0
-355 -384 -11 -229 -389 0
-355 -384 -11 229 389 0
-355 -384 11 -229 389 0
-355 -384 11 229 -389 0
-355 -384 -12 -230 -390 0
-355 -384 -12 230 390 0
-355 -384 12 -230 390 0
-355 -384 12 230 -390 0
-355 -384 -13 -231 -391 0
-355 -384 -13 231 391 0
-355 -384 13 -231 391 0
-355 -384 13 231 -391 0
-355 -384 -14 -232 -392 0
-355 -384 -14 232 392 0
-355 -384 14 -232 392 0
-355 -384 14 232 -392 0
-355 -384 -15 -233 -393 0
-355 -384 -15 233 393 0
-355 -384 15 -233 393 0
-355 -384 15 233 -393 0
-355 -384 -16 -234 -394 0
-355 -384 -16 234 394 0
-355 -384 16 -234 394 0
-355 -384 16 234 -394 0
-355 -384 -17 -235 -395 0
-355 -384 -17 235 395 0
-355 -384 17 -235 395 0
-355 -384 17 235 -395 0
-355 -384 -18 -236 -396 0
-355 -384 -18 236 396 0
-355 -384 18 -236 396 0
-355 -384 18 236 -396 0
-355 -385 -10 -265 -388 0
-355 -385 -10 265 388 0
-355 -385 10 -265 388 0
-355 -385 10 265 -388 0
-355 -385 -11 -266 -389 0
-355 -385 -11 266 389 0
-355 -385 11 -266 389 0
-355 -385 11 266 -389 0
-355 -385 -12 -267 -390 0
-355 -385 -12 267 390 0
-355 -385 12 -267 390 0
-355 -385 12 267 -390 0
-355 -385 -13 -268 -391 0
-355 -385 -13 268 391 0
-355 -385 13 -268 391 0
-355 -385 13 268 -391 0
-355 -385 -14 -269 -392 0
-355 -385 -14 269 392 0
-355 -385 14 -269 392 0
-355 -385 14 269 -392 0
-355 -385 -15 -270 -393 0
-355 -385 -15 270 393 0
-355 -385 15 -270 393 0
-355 -385 15 270 -393 0
-355 -385 -16 -271 -394 0
-355 -385 -16 271 394 0
-355 -385 16 -271 394 0
-355 -385 16 271 -394 0
-355 -385 -17 -272 -395 0
-355 -385 -17 272 395 0
-355 -385 17 -272 395 0
-355 -385 17 272 -395 0
-355 -385 -18 -273 -396 0
-355 -385 -18 273 396 0
-355 -385 18 -273 396 0
-355 -385 18 273 -396 0
-355 -386 -10 -304 -388 0
-355 -386 -10 304 388 0
-355 -386 10 -304 388 0
-355 -386 10 304 -388 0
-355 -386 -11 -305 -389 0
-355 -386 -11 305 389 0
-355 -386 11 -305 389 0
-355 -386 11 305 -389 0
-355 -386 -12 -306 -390 0
-355 -386 -12 306 390 0
-355 -386 12 -306 390 0
-355 -386 12 306 -390 0
-355 -386 -13 -307 -391 0
-355 -386 -13 307 391 0
-355 -386 13 -307 391 0
-355 -386 13 307 -391 0
-355 -386 -14 -308 -392 0
-355 -386 -14 308 392 0
-355 -386 14 -308 392 0
-355 -386 14 308 -392 0
-355 -386 -15 -309 -393 0
-355 -386 -15 309 393 0
-355 -386 15 -309 393 0
-355 -386 15 309 -393 0
-355 -386 -16 -310 -394 0
-355 -386 -16 310 394 0
-355 -386 16 -310 394 0
-355 -386 16 310 -394 0
-355 -386 -17 -311 -395 0
-355 -386 -17 311 395 0
-355 -386 17 -311 395 0
-355 -386 17 311 -395 0
-355 -386 -18 -312 -396 0
-355 -386 -18 312 396 0
-355 -386 18 -312 396 0
-355 -386 18 312 -396 0
-355 -387 -10 -345 -388 0
-355 -387 -10 345 388 0
-355 -387 10 -345 388 0
-355 -387 10 345 -388 0
-355 -387 -11 -346 -389 0
-355 -387 -11 346 389 0
-355 -387 11 -346 389 0
-355 -387 11 346 -389 0
-355 -387 -12 -347 -390 0
-355 -387 -12 347 390 0
-355 -387 12 -347 390 0
-355 -387 12 347 -390 0
-355 -387 -13 -348 -391 0
-355 -387 -13 348 391 0
-355 -387 13 -348 391 0
-355 -387 13 348 -391 0
-355 -387 -14 -349 -392 0
-355 -387 -14 349 392 0
-355 -387 14 -349 392 0
-355 -387 14 349 -392 0
-355 -387 -15 -350 -393 0
-355 -387 -15 350 393 0
-355 -387 15 -350 393 0
-355 -387 15 350 -393 0
-355 -387 -16 -351 -394 0
-355 -387 -16 351 394 0
-355 -387 16 -351 394 0
-355 -387 16 351 -394 0
-355 -387 -17 -352 -395 0
-355 -387 -17 352 395 0
-355 -387 17 -352 395 0
-355 -387 17 352 -395 0
-355 -387 -18 -353 -396 0
-355 -387 -18 353 396 0
-355 -387 18 -353 396 0
-355 -387 18 353 -396 0
-356 -374 -19 -28 -388 0
-356 -374 -19 28 388 0
-356 -374 19 -28 388 0
-356 -374 19 28 -388 0
-356 -374 -20 -29 -389 0
-356 -374 -20 29 389 0
-356 -374 20 -29 389 0
-356 -374 20 29 -389 0
-356 -374 -21 -30 -390 0
-356 -374 -21 30 390 0
-356 -374 21 -30 390 0
-356 -374 21 30 -390 0
-356 -374 -22 -31 -391 0
-356 -374 -22 31 391 0
-356 -374 22 -31 391 0
-356 -374 22 31 -391 0
-356 -374 -23 -32 -392 0
-356 -374 -23 32 392 0
-356 -374 23 -32 392 0
-356 -374 23 32 -392 0
-356 -374 -24 -33 -393 0
-356 -374 -24 33 393 0
-356 -374 24 -33 393 0
-356 -374 24 33 -393 0
-356 -374 -25 -34 -394 0
-356 -374 -25 34 394 0
-356 -374 25 -34 394 0
-356 -374 25 34 -394 0
-356 -374 -26 -35 -395 0
-356 -374 -26 35 395 0
-356 -374 26 -35 395 0
-356 -374 26 35 -395 0
-356 -374 -27 -36 -396 0
-356 -374 -27 36 396 0
-356 -374 27 -36 396 0
-356 -374 27 36 -396 0
-356 -375 -19 -37 -388 0
-356 -375 -19 37 388 0
-356 -375 19 -37 388 0
-356 -375 19 37 -388 0
-356 -375 -20 -38 -389 0
-356 -375 -20 38 389 0
-356 -375 20 -38 389 0
-356 -375 20 38 -389 0
-356 -375 -21 -39 -390 0
-356 -375 -21 39 390 0
-356 -375 21 -39 390 0
-356 -375 21 39 -390 0
-356 -375 -22 -40 -391 0
-356 -375 -22 40 391 0
-356 -375 22 -40 391 0
-356 -375 22 40 -391 0
-356 -375 -23 -41 -392 0
-356 -375 -23 41 392 0
-356 -375 23 -41 392 0
-356 -375 23 41 -392 0
-356 -375 -24 -42 -393 0
-356 -375 -24 42 393 0
-356 -375 24 -42 393 0
-356 -375 24 42 -393 0
-356 -375 -25 -43 -394 0
-356 -375 -25 43 394 0
-356 -375 25 -43 394 0
-356 -375 25 43 -394 0
-356 -375 -26 -44 -395 0
-356 -375 -26 44 395 0
-356 -375 26 -44 395 0
-356 -375 26 44 -395 0
-356 -375 -27 -45 -396 0
-356 -375 -27 45 396 0
-356 -375 27 -45 396 0
-356 -375 27 45 -396 0
-356 -376 -19 -46 -388 0
-356 -376 -19 46 388 0
-356 -376 19 -46 388 0
-356 -376 19 46 -388 0
-356 -376 -20 -47 -389 0
-356 -376 -20 47 389 0
-356 -376 20 -47 389 0
-356 -376 20 47 -389 0
-356 -376 -21 -48 -390 0
-356 -376 -21 48 390 0
-356 -376 21 -48 390 0
-356 -376 21 48 -390 0
-356 -376 -22 -49 -391 0
-356 -376 -22 49 391 0
-356 -376 22 -49 391 0
-356 -376 22 49 -391 0
-356 -376 -23 -50 -392 0
-356 -376 -23 50 392 0
-356 -376 23 -50 392 0
-356 -376 23 50 -392 0
-356 -376 -24 -51 -393 0
-356 -376 -24 51 393 0
-356 -376 24 -51 393 0
-356 -376 24 51 -393 0
-356 -376 -25 -52 -394 0
-356 -376 -25 52 394 0
-356 -376 25 -52 394 0
-356 -376 25 52 -394 0
-356 -376 -26 -53 -395 0
-356 -376 -26 53 395 0
-356 -376 26 -53 395 0
-356 -376 26 53 -395 0
-356 -376 -27 -54 -396 0
-356 -376 -27 54 396 0
-356 -376 27 -54 396 0
-356 -376 27 54 -396 0
-356 -377 -19 -55 -388 0
-356 -377 -19 55 388 0
-356 -377 19 -55 388 0
-356 -377 19 55 -388 0
-356 -377 -20 -56 -389 0
-356 -377 -20 56 389 0
-356 -377 20 -56 389 0
-356 -377 20 56 -389 0
-356 -377 -21 -57 -390 0
-356 -377 -21 57 390 0
-356 -377 21 -57 390 0
-356 -377 21 57 -390 0
-356 -377 -22 -58 -391 0
-356 -377 -22 58 391 0
-356 -377 22 -58 391 0
-356 -377 22 58 -391 0
-356 -377 -23 -59 -392 0
-356 -377 -23 59 392 0
-356 -377 23 -59 392 0
-356 -377 23 59 -392 0
-356 -377 -24 -60 -393 0
-356 -377 -24 60 393 0
-356 -377 24 -60 393 0
-356 -377 24 60 -393 0
-356 -377 -25 -61 -394 0
-356 -377 -25 61 394 0
-356 -377 25 -61 394 0
-356 -377 25 61 -394 0
-356 -377 -26 -62 -395 0
-356 -377 -26 62 395 0
-356 -377 26 -62 395 0
-356 -377 26 62 -395 0
-356 -377 -27 -63 -396 0
-356 -377 -27 63 396 0
-356 -377 27 -63 396 0
-356 -377 27 63 -396 0
-356 -378 -19 -64 -388 0
-356 -378 -19 64 388 0
-356 -378 19 -64 388 0
-356 -378 19 64 -388 0
-356 -378 -20 -65 -389 0
-356 -378 -20 65 389 0
-356 -378 20 -65 389 0
-356 -378 20 65 -389 0
-356 -378 -21 -66 -390 0
-356 -378 -21 66 390 0
-356 -378 21 -66 390 0
-356 -378 21 66 -390 0
-356 -378 -22 -67 -391 0
-356 -378 -22 67 391 0
-356 -378 22 -67 391 0
-356 -378 22 67 -391 0
-356 -378 -23 -68 -392 0
-356 -378 -23 68 392 0
-356 -378 23 -68 392 0
-356 -378 23 68 -392 0
-356 -378 -24 -69 -393 0
-356 -378 -24 69 393 0
-356 -378 24 -69 393 0
-356 -378 24 69 -393 0
-356 -378 -25 -70 -394 0
-356 -378 -25 70 394 0
-356 -378 25 -70 394 0
-356 -378 25 70 -394 0
-356 -378 -26 -71 -395 0
-356 -378 -26 71 395 0
-356 -378 26 -71 395 0
-356 -378 26 71 -395 0
-356 -378 -27 -72 -396 0
-356 -378 -27 72 396 0
-356 -378 27 -72 396 0
-356 -378 27 72 -396 0
-356 -379 -19 -73 -388 0
-356 -379 -19 73 388 0
-356 -379 19 -73 388 0
-356 -379 19 73 -388 0
-356 -379 -20 -74 -389 0
-356 -379 -20 74 389 0
-356 -379 20 -74 389 0
-356 -379 20 74 -389 0
-356 -379 -21 -75 -390 0
-356 -379 -21 75 390 0
-356 -379 21 -75 390 0
-356 -379 21 75 -390 0
-356 -379 -22 -76 -391 0
-356 -379 -22 76 391 0
-356 -379 22 -76 391 0
-356 -379 22 76 -391 0
-356 -379 -23 -77 -392 0
-356 -379 -23 77 392 0
-356 -379 23 -77 392 0
-356 -379 23 77 -392 0
-356 -379 -24 -78 -393 0
-356 -379 -24 78 393 0
-356 -379 24 -78 393 0
-356 -379 24 78 -393 0
-356 -379 -25 -79 -394 0
-356 -379 -25 79 394 0
-356 -379 25 -79 394 0
-356 -379 25 79 -394 0
-356 -379 -26 -80 -395 0
-356 -379 -26 80 395 0
-356 -379 26 -80 395 0
-356 -379 26 80 -395 0
-356 -379 -27 -81 -396 0
-356 -379 -27 81 396 0
-356 -379 27 -81 396 0
-356 -379 27 81 -396 0
-356 -380 -19 -100 -388 0
-356 -380 -19 100 388 0
-356 -380 19 -100 388 0
-356 -380 19 100 -388 0
-356 -380 -20 -101 -389 0
-356 -380 -20 101 389 0
-356 -380 20 -101 389 0
-356 -380 20 101 -389 0
-356 -380 -21 -102 -390 0
-356 -380 -21 102 390 0
-356 -380 21 -102 390 0
-356 -380 21 102 -390 0
-356 -380 -22 -103 -391 0
-356 -380 -22 103 391 0
-356 -380 22 -103 391 0
-356 -380 22 103 -391 0
-356 -380 -23 -104 -392 0
-356 -380 -23 104 392 0
-356 -380 23 -104 392 0
-356 -380 23 104 -392 0
-356 -380 -24 -105 -393 0
-356 -380 -24 105 393 0
-356 -380 24 -105 393 0
-356 -380 24 105 -393 0
-356 -380 -25 -106 -394 0
-356 -380 -25 106 394 0
-356 -380 25 -106 394 0
-356 -380 25 106 -394 0
-356 -380 -26 -107 -395 0
-356 -380 -26 107 395 0
-356 -380 26 -107 395 0
-356 -380 26 107 -395 0
-356 -380 -27 -108 -396 0
-356 -380 -27 108 396 0
-356 -380 27 -108 396 0
-356 -380 27 108 -396 0
-356 -381 -19 -129 -388 0
-356 -381 -19 129 388 0
-356 -381 19 -129 388 0
-356 -381 19 129 -388 0
-356 -381 -20 -130 -389 0
-356 -381 -20 130 389 0
-356 -381 20 -130 389 0
-356 -381 20 130 -389 0
-356 -381 -21 -131 -390 0
-356 -381 -21 131 390 0
-356 -381 21 -131 390 0
-356 -381 21 131 -390 0
-356 -381 -22 -132 -391 0
-356 -381 -22 132 391 0
-356 -381 22 -132 391 0
-356 -381 22 132 -391 0
-356 -381 -23 -133 -392 0
-356 -381 -23 133 392 0
-356 -381 23 -133 392 0
-356 -381 23 133 -392 0
-356 -381 -24 -134 -393 0
-356 -381 -24 134 393 0
-356 -381 24 -134 393 0
-356 -381 24 134 -393 0
-356 -381 -25 -135 -394 0
-356 -381 -25 135 394 0
-356 -381 25 -135 394 0
-356 -381 25 135 -394 0
-356 -381 -26 -136 -395 0
-356 -381 -26 136 395 0
-356 -381 26 -136 395 0
-356 -381 26 136 -395 0
-356 -381 -27 -137 -396 0
-356 -381 -27 137 396 0
-356 -381 27 -137 396 0
-356 -381 27 137 -396 0
-356 -382 -19 -160 -388 0
-356 -382 -19 160 388 0
-356 -382 19 -160 388 0
-356 -382 19 160 -388 0
-356 -382 -20 -161 -389 0
-356 -382 -20 161 389 0
-356 -382 20 -161 389 0
-356 -382 20 161 -389 0
-356 -382 -21 -162 -390 0
-356 -382 -21 162 390 0
-356 -382 21 -162 390 0
-356 -382 21 162 -390 0
-356 -382 -22 -163 -391 0
-356 -382 -22 163 391 0
-356 -382 22 -163 391 0
-356 -382 22 163 -391 0
-356 -382 -23 -164 -392 0
-356 -382 -23 164 392 0
-356 -382 23 -164 392 0
-356 -382 23 164 -392 0
-356 -382 -24 -165 -393 0
-356 -382 -24 165 393 0
-356 -382 24 -165 393 0
-356 -382 24 165 -393 0
-356 -382 -25 -166 -394 0
-356 -382 -25 166 394 0
-356 -382 25 -166 394 0
-356 -382 25 166 -394 0
-356 -382 -26 -167 -395 0
-356 -382 -26 167 395 0
-356 -382 26 -167 395 0
-356 -382 26 167 -395 0
-356 -382 -27 -168 -396 0
-356 -382 -27 168 396 0
-356 -382 27 -168 396 0
-356 -382 27 168 -396 0
-356 -383 -19 -193 -388 0
-356 -383 -19 193 388 0
-356 -383 19 -193 388 0
-356 -383 19 193 -388 0
-356 -383 -20 -194 -389 0
-356 -383 -20 194 389 0
-356 -383 20 -194 389 0
-356 -383 20 194 -389 0
-356 -383 -21 -195 -390 0
-356 -383 -21 195 390 0
-356 -383 21 -195 390 0
-356 -383 21 195 -390 0
-356 -383 -22 -196 -391 0
-356 -383 -22 196 391 0
-356 -383 22 -196 391 0
-356 -383 22 196 -391 0
-356 -383 -23 -197 -392 0
-356 -383 -23 197 392 0
-356 -383 23 -197 392 0
-356 -383 23 197 -392 0
-356 -383 -24 -198 -393 0
-356 -383 -24 198 393 0
-356 -383 24 -198 393 0
-356 -383 24 198 -393 0
-356 -383 -25 -199 -394 0
-356 -383 -25 199 394 0
-356 -383 25 -199 394 0
-356 -383 25 199 -394 0
-356 -383 -26 -200 -395 0
-356 -383 -26 200 395 0
-356 -383 26 -200 395 0
-356 -383 26 200 -395 0
-356 -383 -27 -201 -396 0
-356 -383 -27 201 396 0
-356 -383 27 -201 396 0
-356 -383 27 201 -396 0
-356 -384 -19 -228 -388 0
-356 -384 -19 228 388 0
-356 -384 19 -228 388 0
-356 -384 19 228 -388 0
-356 -384 -20 -229 -389 0
-356 -384 -20 229 389 0
-356 -384 20 -229 389 0
-356 -384 20 229 -389 0
-356 -384 -21 -230 -390 0
-356 -384 -21 230 390 0
-356 -384 21 -230 390 0
-356 -384 21 230 -390 0
-356 -384 -22 -231 -391 0
-356 -384 -22 231 391 0
-356 -384 22 -231 391 0
-356 -384 22 231 -391 0
-356 -384 -23 -232 -392 0
-356 -384 -23 232 392 0
-356 -384 23 -232 392 0
-356 -384 23 232 -392 0
-356 -384 -24 -233 -393 0
-356 -384 -24 233 393 0
-356 -384 24 -233 393 0
-356 -384 24 233 -393 0
-356 -384 -25 -234 -394 0
-356 -384 -25 234 394 0
-356 -384 25 -234 394 0
-356 -384 25 234 -394 0
-356 -384 -26 -235 -395 0
-356 -384 -26 235 395 0
-356 -384 26 -235 395 0
-356 -384 26 235 -395 0
-356 -384 -27 -236 -396 0
-356 -384 -27 236 396 0
-356 -384 27 -236 396 0
-356 -384 27 236 -396 0
-356 -385 -19 -265 -388 0
-356 -385 -19 265 388 0
-356 -385 19 -265 388 0
-356 -385 19 265 -388 0
-356 -385 -20 -266 -389 0
-356 -385 -20 266 389 0
-356 -385 20 -266 389 0
-356 -385 20 266 -389 0
-356 -385 -21 -267 -390 0
-356 -385 -21 267 390 0
-356 -385 21 -267 390 0
-356 -385 21 267 -390 0
-356 -385 -22 -268 -391 0
-356 -385 -22 268 391 0
-356 -385 22 -268 391 0
-356 -385 22 268 -391 0
-356 -385 -23 -269 -392 0
-356 -385 -23 269 392 0
-356 -385 23 -269 392 0
-356 -385 23 269 -392 0
-356 -385 -24 -270 -393 0
-356 -385 -24 270 393 0
-356 -385 24 -270 393 0
-356 -385 24 270 -393 0
-356 -385 -25 -271 -394 0
-356 -385 -25 271 394 0
-356 -385 25 -271 394 0
-356 -385 25 271 -394 0
-356 -385 -26 -272 -395 0
-356 -385 -26 272 395 0
-356 -385 26 -272 395 0
-356 -385 26 272 -395 0
-356 -385 -27 -273 -396 0
-356 -385 -27 273 396 0
-356 -385 27 -273 396 0
-356 -385 27 273 -396 0
-356 -386 -19 -304 -388 0
-356 -386 -19 304 388 0
-356 -386 19 -304 388 0
-356 -386 19 304 -388 0
-356 -386 -20 -305 -389 0
-356 -386 -20 305 389 0
-356 -386 20 -305 389 0
-356 -386 20 305 -389 0
-356 -386 -21 -306 -390 0
-356 -386 -21 306 390 0
-356 -386 21 -306 390 0
-356 -386 21 306 -390 0
-356 -386 -22 -307 -391 0
-356 -386 -22 307 391 0
-356 -386 22 -307 391 0
-356 -386 22 307 -391 0
-356 -386 -23 -308 -392 0
-356 -386 -23 308 392 0
-356 -386 23 -308 392 0
-356 -386 23 308 -392 0
-356 -386 -24 -309 -393 0
-356 -386 -24 309 393 0
-356 -386 24 -309 393 0
-356 -386 24 309 -393 0
-356 -386 -25 -310 -394 0
-356 -386 -25 310 394 0
-356 -386 25 -310 394 0
-356 -386 25 310 -394 0
-356 -386 -26 -311 -395 0
-356 -386 -26 311 395 0
-356 -386 26 -311 395 0
-356 -386 26 311 -395 0
-356 -386 -27 -312 -396 0
-356 -386 -27 312 396 0
-356 -386 27 -312 396 0
-356 -386 27 312 -396 0
-356 -387 -19 -345 -388 0
-356 -387 -19 345 388 0
-356 -387 19 -345 388 0
-356 -387 19 345 -388 0
-356 -387 -20 -346 -389 0
-356 -387 -20 346 389 0
-356 -387 20 -346 389 0
-356 -387 20 346 -389 0
-356 -387 -21 -347 -390 0
-356 -387 -21 347 390 0
-356 -387 21 -347 390 0
-356 -387 21 347 -390 0
-356 -387 -22 -348 -391 0
-356 -387 -22 348 391 0
-356 -387 22 -348 391 0
-356 -387 22 348 -391 0
-356 -387 -23 -349 -392 0
-356 -387 -23 349 392 0
-356 -387 23 -349 392 0
-356 -387 23 349 -392 0
-356 -387 -24 -350 -393 0
-356 -387 -24 350 393 0
-356 -387 24 -350 393 0
-356 -387 24 350 -393 0
-356 -387 -25 -351 -394 0
-356 -387 -25 351 394 0
-356 -387 25 -351 394 0
-356 -387 25 351 -394 0
-356 -387 -26 -352 -395 0
-356 -387 -26 352 395 0
-356 -387 26 -352 395 0
-356 -387 26 352 -395 0
-356 -387 -27 -353 -396 0
-356 -387 -27 353 396 0
-356 -387 27 -353 396 0
-356 -387 27 353 -396 0
-357 -375 -28 -37 -388 0
-357 -375 -28 37 388 0
-357 -375 28 -37 388 0
-357 -375 28 37 -388 0
-357 -375 -29 -38 -389 0
-357 -375 -29 38 389 0
-357 -375 29 -38 389 0
-357 -375 29 38 -389 0
-357 -375 -30 -39 -390 0
-357 -375 -30 39 390 0
-357 -375 30 -39 390 0
-357 -375 30 39 -390 0
-357 -375 -31 -40 -391 0
-357 -375 -31 40 391 0
-357 -375 31 -40 391 0
-357 -375 31 40 -391 0
-357 -375 -32 -41 -392 0
-357 -375 -32 41 392 0
-357 -375 32 -41 392 0
-357 -375 32 41 -392 0
-357 -375 -33 -42 -393 0
-357 -375 -33 42 393 0
-357 -375 33 -42 393 0
-357 -375 33 42 -393 0
-357 -375 -34 -43 -394 0
-357 -375 -34 43 394 0
-357 -375 34 -43 394 0
-357 -375 34 43 -394 0
-357 -375 -35 -44 -395 0
-357 -375 -35 44 395 0
-357 -375 35 -44 395 0
-357 -375 35 44 -395 0
-357 -375 -36 -45 -396 0
-357 -375 -36 45 396 0
-357 -375 36 -45 396 0
-357 -375 36 45 -396 0
-357 -376 -28 -46 -388 0
-357 -376 -28 46 388 0
-357 -376 28 -46 388 0
-357 -376 28 46 -388 0
-357 -376 -29 -47 -389 0
-357 -376 -29 47 389 0
-357 -376 29 -47 389 0
-357 -376 29 47 -389 0
-357 -376 -30 -48 -390 0
-357 -376 -30 48 390 0
-357 -376 30 -48 390 0
-357 -376 30 48 -390 0
-357 -376 -31 -49 -391 0
-357 -376 -31 49 391 0
-357 -376 31 -49 391 0
-357 -376 31 49 -391 0
-357 -376 -32 -50 -392 0
-357 -376 -32 50 392 0
-357 -376 32 -50 392 0
-357 -376 32 50 -392 0
-357 -376 -33 -51 -393 0
-357 -376 -33 51 393 0
-357 -376 33 -51 393 0
-357 -376 33 51 -393 0
-357 -376 -34 -52 -394 0
-357 -376 -34 52 394 0
-357 -376 34 -52 394 0
-357 -376 34 52 -394 0
-357 -376 -35 -53 -395 0
-357 -376 -35 53 395 0
-357 -376 35 -53 395 0
-357 -376 35 53 -395 0
-357 -376 -36 -54 -396 0
-357 -376 -36 54 396 0
-357 -376 36 -54 396 0
-357 -376 36 54 -396 0
-357 -377 -28 -55 -388 0
-357 -377 -28 55 388 0
-357 -377 28 -55 388 0
-357 -377 28 55 -388 0
-357 -377 -29 -56 -389 0
-357 -377 -29 56 389 0
-357 -377 29 -56 389 0
-357 -377 29 56 -389 0
-357 -377 -30 -57 -390 0
-357 -377 -30 57 390 0
-357 -377 30 -57 390 0
-357 -377 30 57 -390 0
-357 -377 -31 -58 -391 0
-357 -377 -31 58 391 0
-357 -377 31 -58 391 0
-357 -377 31 58 -391 0
-357 -377 -32 -59 -392 0
-357 -377 -32 59 392 0
-357 -377 32 -59 392 0
-357 -377 32 59 -392 0
-357 -377 -33 -60 -393 0
-357 -377 -33 60 393 0
-357 -377 33 -60 393 0
-357 -377 33 60 -393 0
-357 -377 -34 -61 -394 0
-357 -377 -34 61 394 0
-357 -377 34 -61 394 0
-357 -377 34 61 -394 0
-357 -377 -35 -62 -395 0
-357 -377 -35 62 395 0
-357 -377 35 -62 395 0
-357 -377 35 62 -395 0
-357 -377 -36 -63 -396 0
-357 -377 -36 63 396 0
-357 -377 36 -63 396 0
-357 -377 36 63 -396 0
-357 -378 -28 -64 -388 0
-357 -378 -28 64 388 0
-357 -378 28 -64 388 0
-357 -378 28 64 -388 0
-357 -378 -29 -65 -389 0
-357 -378 -29 65 389 0
-357 -378 29 -65 389 0
-357 -378 29 65 -389 0
-357 -378 -30 -66 -390 0
-357 -378 -30 66 390 0
-357 -378 30 -66 390 0
-357 -378 30 66 -390 0
-357 -378 -31 -67 -391 0
-357 -378 -31 67 391 0
-357 -378 31 -67 391 0
-357 -378 31 67 -391 0
-357 -378 -32 -68 -392 0
-357 -378 -32 68 392 0
-357 -378 32 -68 392 0
-357 -378 32 68 -392 0
-357 -378 -33 -69 -393 0
-357 -378 -33 69 393 0
-357 -378 33 -69 393 0
-357 -378 33 69 -393 0
-357 -378 -34 -70 -394 0
-357 -378 -34 70 394 0
-357 -378 34 -70 394 0
-357 -378 34 70 -394 0
-357 -378 -35 -71 -395 0
-357 -378 -35 71 395 0
-357 -378 35 -71 395 0
-357 -378 35 71 -395 0
-357 -378 -36 -72 -396 0
-357 -378 -36 72 396 0
-357 -378 36 -72 396 0
-357 -378 36 72 -396 0
-357 -379 -28 -73 -388 0
-357 -379 -28 73 388 0
-357 -379 28 -73 388 0
-357 -379 28 73 -388 0
-357 -379 -29 -74 -389 0
-357 -379 -29 74 389 0
-357 -379 29 -74 389 0
-357 -379 29 74 -389 0
-357 -379 -30 -75 -390 0
-357 -379 -30 75 390 0
-357 -379 30 -75 390 0
-357 -379 30 75 -390 0
-357 -379 -31 -76 -391 0
-357 -379 -31 76 391 0
-357 -379 31 -76 391 0
-357 -379 31 76 -391 0
-357 -379 -32 -77 -392 0
-357 -379 -32 77 392 0
-357 -379 32 -77 392 0
-357 -379 32 77 -392 0
-357 -379 -33 -78 -393 0
-357 -379 -33 78 393 0
-357 -379 33 -78 393 0
-357 -379 33 78 -393 0
-357 -379 -34 -79 -394 0
-357 -379 -34 79 394 0
-357 -379 34 -79 394 0
-357 -379 34 79 -394 0
-357 -379 -35 -80 -395 0
-357 -379 -35 80 395 0
-357 -379 35 -80 395 0
-357 -379 35 80 -395 0
-357 -379 -36 -81 -396 0
-357 -379 -36 81 396 0
-357 -379 36 -81 396 0
-357 -379 36 81 -396 0
-357 -380 -28 -100 -388 0
-357 -380 -28 100 388 0
-357 -380 28 -100 388 0
-357 -380 28 100 -388 0
-357 -380 -29 -101 -389 0
-357 -380 -29 101 389 0
-357 -380 29 -101 389 0
-357 -380 29 101 -389 0
-357 -380 -30 -102 -390 0
-357 -380 -30 102 390 0
-357 -380 30 -102 390 0
-357 -380 30 102 -390 0
-357 -380 -31 -103 -391 0
-357 -380 -31 103 391 0
-357 -380 31 -103 391 0
-357 -380 31 103 -391 0
-357 -380 -32 -104 -392 0
-357 -380 -32 104 392 0
-357 -380 32 -104 392 0
-357 -380 32 104 -392 0
-357 -380 -33 -105 -393 0
-357 -380 -33 105 393 0
-357 -380 33 -105 393 0
-357 -380 33 105 -393 0
-357 -380 -34 -106 -394 0
-357 -380 -34 106 394 0
-357 -380 34 -106 394 0
-357 -380 34 106 -394 0
-357 -380 -35 -107 -395 0
-357 -380 -35 107 395 0
-357 -380 35 -107 395 0
-357 -380 35 107 -395 0
-357 -380 -36 -108 -396 0
-357 -380 -36 108 396 0
-357 -380 36 -108 396 0
-357 -380 36 108 -396 0
-357 -381 -28 -129 -388 0
-357 -381 -28 129 388 0
-357 -381 28 -129 388 0
-357 -381 28 129 -388 0
-357 -381 -29 -130 -389 0
-357 -381 -29 130 389 0
-357 -381 29 -130 389 0
-357 -381 29 130 -389 0
-357 -381 -30 -131 -390 0
-357 -381 -30 131 390 0
-357 -381 30 -131 390 0
-357 -381 30 131 -390 0
-357 -381 -31 -132 -391 0
-357 -381 -31 132 391 0
-357 -381 31 -132 391 0
-357 -381 31 132 -391 0
-357 -381 -32 -133 -392 0
-357 -381 -32 133 392 0
-357 -381 32 -133 392 0
-357 -381 32 133 -392 0
-357 -381 -33 -134 -393 0
-357 -381 -33 134 393 0
-357 -381 33 -134 393 0
-357 -381 33 134 -393 0
-357 -381 -34 -135 -394 0
-357 -381 -34 135 394 0
-357 -381 34 -135 394 0
-357 -381 34 135 -394 0
-357 -381 -35 -136 -395 0
-357 -381 -35 136 395 0
-357 -381 35 -136 395 0
-357 -381 35 136 -395 0
-357 -381 -36 -137 -396 0
-357 -381 -36 137 396 0
-357 -381 36 -137 396 0
-357 -381 36 137 -396 0
-357 -382 -28 -160 -388 0
-357 -382 -28 160 388 0
-357 -382 28 -160 388 0
-357 -382 28 160 -388 0
-357 -382 -29 -161 -389 0
-357 -382 -29 161 389 0
-357 -382 29 -161 389 0
-357 -382 29 161 -389 0
-357 -382 -30 -162 -390 0
-357 -382 -30 162 390 0
-357 -382 30 -162 390 0
-357 -382 30 162 -390 0
-357 -382 -31 -163 -391 0
-357 -382 -31 163 391 0
-357 -382 31 -163 391 0
-357 -382 31 163 -391 0
-357 -382 -32 -164 -392 0
-357 -382 -32 164 392 0
-357 -382 32 -164 392 0
-357 -382 32 164 -392 0
-357 -382 -33 -165 -393 0
-357 -382 -33 165 393 0
-357 -382 33 -165 393 0
-357 -382 33 165 -393 0
-357 -382 -34 -166 -394 0
-357 -382 -34 166 394 0
-357 -382 34 -166 394 0
-357 -382 34 166 -394 0
-357 -382 -35 -167 -395 0
-357 -382 -35 167 395 0
-357 -382 35 -167 395 0
-357 -382 35 167 -395 0
-357 -382 -36 -168 -396 0
-357 -382 -36 168 396 0
-357 -382 36 -168 396 0
-357 -382 36 168 -396 0
-357 -383 -28 -193 -388 0
-357 -383 -28 193 388 0
-357 -383 28 -193 388 0
-357 -383 28 193 -388 0
-357 -383 -29 -194 -389 0
-357 -383 -29 194 389 0
-357 -383 29 -194 389 0
-357 -383 29 194 -389 0
-357 -383 -30 -195 -390 0
-357 -383 -30 195 390 0
-357 -383 30 -195 390 0
-357 -383 30 195 -390 0
-357 -383 -31 -196 -391 0
-357 -383 -31 196 391 0
-357 -383 31 -196 391 0
-357 -383 31 196 -391 0
-357 -383 -32 -197 -392 0
-357 -383 -32 197 392 0
-357 -383 32 -197 392 0
-357 -383 32 197 -392 0
-357 -383 -33 -198 -393 0
-357 -383 -33 198 393 0
-357 -383 33 -198 393 0
-357 -383 33 198 -393 0
-357 -383 -34 -199 -394 0
-357 -383 -34 199 394 0
-357 -383 34 -199 394 0
-357 -383 34 199 -394 0
-357 -383 -35 -200 -395 0
-357 -383 -35 200 395 0
-357 -383 35 -200 395 0
-357 -383 35 200 -395 0
-357 -383 -36 -201 -396 0
-357 -383 -36 201 396 0
-357 -383 36 -201 396 0
-357 -383 36 201 -396 0
-357 -384 -28 -228 -388 0
-357 -384 -28 228 388 0
-357 -384 28 -228 388 0
-357 -384 28 228 -388 0
-357 -384 -29 -229 -389 0
-357 -384 -29 229 389 0
-357 -384 29 -229 389 0
-357 -384 29 229 -389 0
-357 -384 -30 -230 -390 0
-357 -384 -30 230 390 0
-357 -384 30 -230 390 0
-357 -384 30 230 -390 0
-357 -384 -31 -231 -391 0
-357 -384 -31 231 391 0
-357 -384 31 -231 391 0
-357 -384 31 231 -391 0
-357 -384 -32 -232 -392 0
-357 -384 -32 232 392 0
-357 -384 32 -232 392 0
-357 -384 32 232 -392 0
-357 -384 -33 -233 -393 0
-357 -384 -33 233 393 0
-357 -384 33 -233 393 0
-357 -384 33 233 -393 0
-357 -384 -34 -234 -394 0
-357 -384 -34 234 394 0
-357 -384 34 -234 394 0
-357 -384 34 234 -394 0
-357 -384 -35 -235 -395 0
-357 -384 -35 235 395 0
-357 -384 35 -235 395 0
-357 -384 35 235 -395 0
-357 -384 -36 -236 -396 0
-357 -384 -36 236 396 0
-357 -384 36 -236 396 0
-357 -384 36 236 -396 0
-357 -385 -28 -265 -388 0
-357 -385 -28 265 388 0
-357 -385 28 -265 388 0
-357 -385 28 265 -388 0
-357 -385 -29 -266 -389 0
-357 -385 -29 266 389 0
-357 -385 29 -266 389 0
-357 -385 29 266 -389 0
-357 -385 -30 -267 -390 0
-357 -385 -30 267 390 0
-357 -385 30 -267 390 0
-357 -385 30 267 -390 0
-357 -385 -31 -268 -391 0
-357 -385 -31 268 391 0
-357 -385 31 -268 391 0
-357 -385 31 268 -391 0
-357 -385 -32 -269 -392 0
-357 -385 -32 269 392 0
-357 -385 32 -269 392 0
-357 -385 32 269 -392 0
-357 -385 -33 -270 -393 0
-357 -385 -33 270 393 0
-357 -385 33 -270 393 0
-357 -385 33 270 -393 0
-357 -385 -34 -271 -394 0
-357 -385 -34 271 394 0
-357 -385 34 -271 394 0
-357 -385 34 271 -394 0
-357 -385 -35 -272 -395 0
-357 -385 -35 272 395 0
-357 -385 35 -272 395 0
-357 -385 35 272 -395 0
-357 -385 -36 -273 -396 0
-357 -385 -36 273 396 0
-357 -385 36 -273 396 0
-357 -385 36 273 -396 0
-357 -386 -28 -304 -388 0
-357 -386 -28 304 388 0
-357 -386 28 -304 388 0
-357 -386 28 304 -388 0
-357 -386 -29 -305 -389 0
-357 -386 -29 305 389 0
-357 -386 29 -305 389 0
-357 -386 29 305 -389 0
-357 -386 -30 -306 -390 0
-357 -386 -30 306 390 0
-357 -386 30 -306 390 0
-357 -386 30 306 -390 0
-357 -386 -31 -307 -391 0
-357 -386 -31 307 391 0
-357 -386 31 -307 391 0
-357 -386 31 307 -391 0
-357 -386 -32 -308 -392 0
-357 -386 -32 308 392 0
-357 -386 32 -308 392 0
-357 -386 32 308 -392 0
-357 -386 -33 -309 -393 0
-357 -386 -33 309 393 0
-357 -386 33 -309 393 0
-357 -386 33 309 -393 0
-357 -386 -34 -310 -394 0
-357 -386 -34 310 394 0
-357 -386 34 -310 394 0
-357 -386 34 310 -394 0
-357 -386 -35 -311 -395 0
-357 -386 -35 311 395 0
-357 -386 35 -311 395 0
-357 -386 35 311 -395 0
-357 -386 -36 -312 -396 0
-357 -386 -36 312 396 0
-357 -386 36 -312 396 0
-357 -386 36 312 -396 0
-357 -387 -28 -345 -388 0
-357 -387 -28 345 388 0
-357 -387 28 -345 388 0
-357 -387 28 345 -388 0
-357 -387 -29 -346 -389 0
-357 -387 -29 346 389 0
-357 -387 29 -346 389 0
-357 -387 29 346 -389 0
-357 -387 -30 -347 -390 0
-357 -387 -30 347 390 0
-357 -387 30 -347 390 0
-357 -387 30 347 -390 0
-357 -387 -31 -348 -391 0
-357 -387 -31 348 391 0
-357 -387 31 -348 391 0
-357 -387 31 348 -391 0
-357 -387 -32 -349 -392 0
-357 -387 -32 349 392 0
-357 -387 32 -349 392 0
-357 -387 32 349 -392 0
-357 -387 -33 -350 -393 0
-357 -387 -33 350 393 0
-357 -387 33 -350 393 0
-357 -387 33 350 -393 0
-357 -387 -34 -351 -394 0
-357 -387 -34 351 394 0
-357 -387 34 -351 394 0
-357 -387 34 351 -394 0
-357 -387 -35 -352 -395 0
-357 -387 -35 352 395 0
-357 -387 35 -352 395 0
-357 -387 35 352 -395 0
-357 -387 -36 -353 -396 0
-357 -387 -36 353 396 0
-357 -387 36 -353 396 0
-357 -387 36 353 -396 0
-358 -376 -37 -46 -388 0
-358 -376 -37 46 388 0
-358 -376 37 -46 388 0
-358 -376 37 46 -388 0
-358 -376 -38 -47 -389 0
-358 -376 -38 47 389 0
-358 -376 38 -47 389 0
-358 -376 38 47 -389 0
-358 -376 -39 -48 -390 0
-358 -376 -39 48 390 0
-358 -376 39 -48 390 0
-358 -376 39 48 -390 0
-358 -376 -40 -49 -391 0
-358 -376 -40 49 391 0
-358 -376 40 -49 391 0
-358 -376 40 49 -391 0
-358 -376 -41 -50 -392 0
-358 -376 -41 50 392 0
-358 -376 41 -50 392 0
-358 -376 41 50 -392 0
-358 -376 -42 -51 -393 0
-358 -376 -42 51 393 0
-358 -376 42 -51 393 0
-358 -376 42 51 -393 0
-358 -376 -43 -52 -394 0
-358 -376 -43 52 394 0
-358 -376 43 -52 394 0
-358 -376 43 52 -394 0
-358 -376 -44 -53 -395 0
-358 -376 -44 53 395 0
-358 -376 44 -53 395 0
-358 -376 44 53 -395 0
-358 -376 -45 -54 -396 0
-358 -376 -45 54 396 0
-358 -376 45 -54 396 0
-358 -376 45 54 -396 0
-358 -377 -37 -55 -388 0
-358 -377 -37 55 388 0
-358 -377 37 -55 388 0
-358 -377 37 55 -388 0
-358 -377 -38 -56 -389 0
-358 -377 -38 56 389 0
-358 -377 38 -56 389 0
-358 -377 38 56 -389 0
-358 -377 -39 -57 -390 0
-358 -377 -39 57 390 0
-358 -377 39 -57 390 0
-358 -377 39 57 -390 0
-358 -377 -40 -58 -391 0
-358 -377 -40 58 391 0
-358 -377 40 -58 391 0
-358 -377 40 58 -391 0
-358 -377 -41 -59 -392 0
-358 -377 -41 59 392 0
-358 -377 41 -59 392 0
-358 -377 41 59 -392 0
-358 -377 -42 -60 -393 0
-358 -377 -42 60 393 0
-358 -377 42 -60 393 0
-358 -377 42 60 -393 0
-358 -377 -43 -61 -394 0
-358 -377 -43 61 394 0
-358 -377 43 -61 394 0
-358 -377 43 61 -394 0
-358 -377 -44 -62 -395 0
-358 -377 -44 62 395 0
-358 -377 44 -62 395 0
-358 -377 44 62 -395 0
-358 -377 -45 -63 -396 0
-358 -377 -45 63 396 0
-358 -377 45 -63 396 0
-358 -377 45 63 -396 0
-358 -378 -37 -64 -388 0
-358 -378 -37 64 388 0
-358 -378 37 -64 388 0
-358 -378 37 64 -388 0
-358 -378 -38 -65 -389 0
-358 -378 -38 65 389 0
-358 -378 38 -65 389 0
-358 -378 38 65 -389 0
-358 -378 -39 -66 -390 0
-358 -378 -39 66 390 0
-358 -378 39 -66 390 0
-358 -378 39 66 -390 0
-358 -378 -40 -67 -391 0
-358 -378 -40 67 391 0
-358 -378 40 -67 391 0
-358 -378 40 67 -391 0
-358 -378 -41 -68 -392 0
-358 -378 -41 68 392 0
-358 -378 41 -68 392 0
-358 -378 41 68 -392 0
-358 -378 -42 -69 -393 0
-358 -378 -42 69 393 0
-358 -378 42 -69 393 0
-358 -378 42 69 -393 0
-358 -378 -43 -70 -394 0
-358 -378 -43 70 394 0
-358 -378 43 -70 394 0
-358 -378 43 70 -394 0
-358 -378 -44 -71 -395 0
-358 -378 -44 71 395 0
-358 -378 44 -71 395 0
-358 -378 44 71 -395 0
-358 -378 -45 -72 -396 0
-358 -378 -45 72 396 0
-358 -378 45 -72 396 0
-358 -378 45 72 -396 0
-358 -379 -37 -73 -388 0
-358 -379 -37 73 388 0
-358 -379 37 -73 388 0
-358 -379 37 73 -388 0
-358 -379 -38 -74 -389 0
-358 -379 -38 74 389 0
-358 -379 38 -74 389 0
-358 -379 38 74 -389 0
-358 -379 -39 -75 -390 0
-358 -379 -39 75 390 0
-358 -379 39 -75 390 0
-358 -379 39 75 -390 0
-358 -379 -40 -76 -391 0
-358 -379 -40 76 391 0
-358 -379 40 -76 391 0
-358 -379 40 76 -391 0
-358 -379 -41 -77 -392 0
-358 -379 -41 77 392 0
-358 -379 41 -77 392 0
-358 -379 41 77 -392 0
-358 -379 -42 -78 -393 0
-358 -379 -42 78 393 0
-358 -379 42 -78 393 0
-358 -379 42 78 -393 0
-358 -379 -43 -79 -394 0
-358 -379 -43 79 394 0
-358 -379 43 -79 394 0
-358 -379 43 79 -394 0
-358 -379 -44 -80 -395 0
-358 -379 -44 80 395 0
-358 -379 44 -80 395 0
-358 -379 44 80 -395 0
-358 -379 -45 -81 -396 0
-358 -379 -45 81 396 0
-358 -379 45 -81 396 0
-358 -379 45 81 -396 0
-358 -380 -37 -100 -388 0
-358 -380 -37 100 388 0
-358 -380 37 -100 388 0
-358 -380 37 100 -388 0
-358 -380 -38 -101 -389 0
-358 -380 -38 101 389 0
-358 -380 38 -101 389 0
-358 -380 38 101 -389 0
-358 -380 -39 -102 -390 0
-358 -380 -39 102 390 0
-358 -380 39 -102 390 0
-358 -380 39 102 -390 0
-358 -380 -40 -103 -391 0
-358 -380 -40 103 391 0
-358 -380 40 -103 391 0
-358 -380 40 103 -391 0
-358 -380 -41 -104 -392 0
-358 -380 -41 104 392 0
-358 -380 41 -104 392 0
-358 -380 41 104 -392 0
-358 -380 -42 -105 -393 0
-358 -380 -42 105 393 0
-358 -380 42 -105 393 0
-358 -380 42 105 -393 0
-358 -380 -43 -106 -394 0
-358 -380 -43 106 394 0
-358 -380 43 -106 394 0
-358 -380 43 106 -394 0
-358 -380 -44 -107 -395 0
-358 -380 -44 107 395 0
-358 -380 44 -107 395 0
-358 -380 44 107 -395 0
-358 -380 -45 -108 -396 0
-358 -380 -45 108 396 0
-358 -380 45 -108 396 0
-358 -380 45 108 -396 0
-358 -381 -37 -129 -388 0
-358 -381 -37 129 388 0
-358 -381 37 -129 388 0
-358 -381 37 129 -388 0
-358 -381 -38 -130 -389 0
-358 -381 -38 130 389 0
-358 -381 38 -130 389 0
-358 -381 38 130 -389 0
-358 -381 -39 -131 -390 0
-358 -381 -39 131 390 0
-358 -381 39 -131 390 0
-358 -381 39 131 -390 0
-358 -381 -40 -132 -391 0
-358 -381 -40 132 391 0
-358 -381 40 -132 391 0
-358 -381 40 132 -391 0
-358 -381 -41 -133 -392 0
-358 -381 -41 133 392 0
-358 -381 41 -133 392 0
-358 -381 41 133 -392 0
-358 -381 -42 -134 -393 0
-358 -381 -42 134 393 0
-358 -381 42 -134 393 0
-358 -381 42 134 -393 0
-358 -381 -43 -135 -394 0
-358 -381 -43 135 394 0
-358 -381 43 -135 394 0
-358 -381 43 135 -394 0
-358 -381 -44 -136 -395 0
-358 -381 -44 136 395 0
-358 -381 44 -136 395 0
-358 -381 44 136 -395 0
-358 -381 -45 -137 -396 0
-358 -381 -45 137 396 0
-358 -381 45 -137 396 0
-358 -381 45 137 -396 0
-358 -382 -37 -160 -388 0
-358 -382 -37 160 388 0
-358 -382 37 -160 388 0
-358 -382 37 160 -388 0
-358 -382 -38 -161 -389 0
-358 -382 -38 161 389 0
-358 -382 38 -161 389 0
-358 -382 38 161 -389 0
-358 -382 -39 -162 -390 0
-358 -382 -39 162 390 0
-358 -382 39 -162 390 0
-358 -382 39 162 -390 0
-358 -382 -40 -163 -391 0
-358 -382 -40 163 391 0
-358 -382 40 -163 391 0
-358 -382 40 163 -391 0
-358 -382 -41 -164 -392 0
-358 -382 -41 164 392 0
-358 -382 41 -164 392 0
-358 -382 41 164 -392 0
-358 -382 -42 -165 -393 0
-358 -382 -42 165 393 0
-358 -382 42 -165 393 0
-358 -382 42 165 -393 0
-358 -382 -43 -166 -394 0
-358 -382 -43 166 394 0
-358 -382 43 -166 394 0
-358 -382 43 166 -394 0
-358 -382 -44 -167 -395 0
-358 -382 -44 167 395 0
-358 -382 44 -167 395 0
-358 -382 44 167 -395 0
-358 -382 -45 -168 -396 0
-358 -382 -45 168 396 0
-358 -382 45 -168 396 0
-358 -382 45 168 -396 0
-358 -383 -37 -193 -388 0
-358 -383 -37 193 388 0
-358 -383 37 -193 388 0
-358 -383 37 193 -388 0
-358 -383 -38 -194 -389 0
-358 -383 -38 194 389 0
-358 -383 38 -194 389 0
-358 -383 38 194 -389 0
-358 -383 -39 -195 -390 0
-358 -383 -39 195 390 0
-358 -383 39 -195 390 0
-358 -383 39 195 -390 0
-358 -383 -40 -196 -391 0
-358 -383 -40 196 391 0
-358 -383 40 -196 391 0
-358 -383 40 196 -391 0
-358 -383 -41 -197 -392 0
-358 -383 -41 197 392 0
-358 -383 41 -197 392 0
-358 -383 41 197 -392 0
-358 -383 -42 -198 -393 0
-358 -383 -42 198 393 0
-358 -383 42 -198 393 0
-358 -383 42 198 -393 0
-358 -383 -43 -199 -394 0
-358 -383 -43 199 394 0
-358 -383 43 -199 394 0
-358 -383 43 199 -394 0
-358 -383 -44 -200 -395 0
-358 -383 -44 200 395 0
-358 -383 44 -200 395 0
-358 -383 44 200 -395 0
-358 -383 -45 -201 -396 0
-358 -383 -45 201 396 0
-358 -383 45 -201 396 0
-358 -383 45 201 -396 0
-358 -384 -37 -228 -388 0
-358 -384 -37 228 388 0
-358 -384 37 -228 388 0
-358 -384 37 228 -388 0
-358 -384 -38 -229 -389 0
-358 -384 -38 229 389 0
-358 -384 38 -229 389 0
-358 -384 38 229 -389 0
-358 -384 -39 -230 -390 0
-358 -384 -39 230 390 0
-358 -384 39 -230 390 0
-358 -384 39 230 -390 0
-358 -384 -40 -231 -391 0
-358 -384 -40 231 391 0
-358 -384 40 -231 391 0
-358 -384 40 231 -391 0
-358 -384 -41 -232 -392 0
-358 -384 -41 232 392 0
-358 -384 41 -232 392 0
-358 -384 41 232 -392 0
-358 -384 -42 -233 -393 0
-358 -384 -42 233 393 0
-358 -384 42 -233 393 0
-358 -384 42 233 -393 0
-358 -384 -43 -234 -394 0
-358 -384 -43 234 394 0
-358 -384 43 -234 394 0
-358 -384 43 234 -394 0
-358 -384 -44 -235 -395 0
-358 -384 -44 235 395 0
-358 -384 44 -235 395 0
-358 -384 44 235 -395 0
-358 -384 -45 -236 -396 0
-358 -384 -45 236 396 0
-358 -384 45 -236 396 0
-358 -384 45 236 -396 0
-358 -385 -37 -265 -388 0
-358 -385 -37 265 388 0
-358 -385 37 -265 388 0
-358 -385 37 265 -388 0
-358 -385 -38 -266 -389 0
-358 -385 -38 266 389 0
-358 -385 38 -266 389 0
-358 -385 38 266 -389 0
-358 -385 -39 -267 -390 0
-358 -385 -39 267 390 0
-358 -385 39 -267 390 0
-358 -385 39 267 -390 0
-358 -385 -40 -268 -391 0
-358 -385 -40 268 391 0
-358 -385 40 -268 391 0
-358 -385 40 268 -391 0
-358 -385 -41 -269 -392 0
-358 -385 -41 269 392 0
-358 -385 41 -269 392 0
-358 -385 41 269 -392 0
-358 -385 -42 -270 -393 0
-358 -385 -42 270 393 0
-358 -385 42 -270 393 0
-358 -385 42 270 -393 0
-358 -385 -43 -271 -394 0
-358 -385 -43 271 394 0
-358 -385 43 -271 394 0
-358 -385 43 271 -394 0
-358 -385 -44 -272 -395 0
-358 -385 -44 272 395 0
-358 -385 44 -272 395 0
-358 -385 44 272 -395 0
-358 -385 -45 -273 -396 0
-358 -385 -45 273 396 0
-358 -385 45 -273 396 0
-358 -385 45 273 -396 0
-358 -386 -37 -304 -388 0
-358 -386 -37 304 388 0
-358 -386 37 -304 388 0
-358 -386 37 304 -388 0
-358 -386 -38 -305 -389 0
-358 -386 -38 305 389 0
-358 -386 38 -305 389 0
-358 -386 38 305 -389 0
-358 -386 -39 -306 -390 0
-358 -386 -39 306 390 0
-358 -386 39 -306 390 0
-358 -386 39 306 -390 0
-358 -386 -40 -307 -391 0
-358 -386 -40 307 391 0
-358 -386 40 -307 391 0
-358 -386 40 307 -391 0
-358 -386 -41 -308 -392 0
-358 -386 -41 308 392 0
-358 -386 41 -308 392 0
-358 -386 41 308 -392 0
-358 -386 -42 -309 -393 0
-358 -386 -42 309 393 0
-358 -386 42 -309 393 0
-358 -386 42 309 -393 0
-358 -386 -43 -310 -394 0
-358 -386 -43 310 394 0
-358 -386 43 -310 394 0
-358 -386 43 310 -394 0
-358 -386 -44 -311 -395 0
-358 -386 -44 311 395 0
-358 -386 44 -311 395 0
-358 -386 44 311 -395 0
-358 -386 -45 -312 -396 0
-358 -386 -45 312 396 0
-358 -386 45 -312 396 0
-358 -386 45 312 -396 0
-358 -387 -37 -345 -388 0
-358 -387 -37 345 388 0
-358 -387 37 -345 388 0
-358 -387 37 345 -388 0
-358 -387 -38 -346 -389 0
-358 -387 -38 346 389 0
-358 -387 38 -346 389 0
-358 -387 38 346 -389 0
-358 -387 -39 -347 -390 0
-358 -387 -39 347 390 0
-358 -387 39 -347 390 0
-358 -387 39 347 -390 0
-358 -387 -40 -348 -391 0
-358 -387 -40 348 391 0
-358 -387 40 -348 391 0
-358 -387 40 348 -391 0
-358 -387 -41 -349 -392 0
-358 -387 -41 349 392 0
-358 -387 41 -349 392 0
-358 -387 41 349 -392 0
-358 -387 -42 -350 -393 0
-358 -387 -42 350 393 0
-358 -387 42 -350 393 0
-358 -387 42 350 -393 0
-358 -387 -43 -351 -394 0
-358 -387 -43 351 394 0
-358 -387 43 -351 394 0
-358 -387 43 351 -394 0
-358 -387 -44 -352 -395 0
-358 -387 -44 352 395 0
-358 -387 44 -352 395 0
-358 -387 44 352 -395 0
-358 -387 -45 -353 -396 0
-358 -387 -45 353 396 0
-358 -387 45 -353 396 0
-358 -387 45 353 -396 0
-359 -377 -46 -55 -388 0
-359 -377 -46 55 388 0
-359 -377 46 -55 388 0
-359 -377 46 55 -388 0
-359 -377 -47 -56 -389 0
-359 -377 -47 56 389 0
-359 -377 47 -56 389 0
-359 -377 47 56 -389 0
-359 -377 -48 -57 -390 0
-359 -377 -48 57 390 0
-359 -377 48 -57 390 0
-359 -377 48 57 -390 0
-359 -377 -49 -58 -391 0
-359 -377 -49 58 391 0
-359 -377 49 -58 391 0
-359 -377 49 58 -391 0
-359 -377 -50 -59 -392 0
-359 -377 -50 59 392 0
-359 -377 50 -59 392 0
-359 -377 50 59 -392 0
-359 -377 -51 -60 -393 0
-359 -377 -51 60 393 0
-359 -377 51 -60 393 0
-359 -377 51 60 -393 0
-359 -377 -52 -61 -394 0
-359 -377 -52 61 394 0
-359 -377 52 -61 394 0
-359 -377 52 61 -394 0
-359 -377 -53 -62 -395 0
-359 -377 -53 62 395 0
-359 -377 53 -62 395 0
-359 -377 53 62 -395 0
-359 -377 -54 -63 -396 0
-359 -377 -54 63 396 0
-359 -377 54 -63 396 0
-359 -377 54 63 -396 0
-359 -378 -46 -64 -388 0
-359 -378 -46 64 388 0
-359 -378 46 -64 388 0
-359 -378 46 64 -388 0
-359 -378 -47 -65 -389 0
-359 -378 -47 65 389 0
-359 -378 47 -65 389 0
-359 -378 47 65 -389 0
-359 -378 -48 -66 -390 0
-359 -378 -48 66 390 0
-359 -378 48 -66 390 0
-359 -378 48 66 -390 0
-359 -378 -49 -67 -391 0
-359 -378 -49 67 391 0
-359 -378 49 -67 391 0
-359 -378 49 67 -391 0
-359 -378 -50 -68 -392 0
-359 -378 -50 68 392 0
-359 -378 50 -68 392 0
-359 -378 50 68 -392 0
-359 -378 -51 -69 -393 0
-359 -378 -51 69 393 0
-359 -378 51 -69 393 0
-359 -378 51 69 -393 0
-359 -378 -52 -70 -394 0
-359 -378 -52 70 394 0
-359 -378 52 -70 394 0
-359 -378 52 70 -394 0
-359 -378 -53 -71 -395 0
-359 -378 -53 71 395 0
-359 -378 53 -71 395 0
-359 -378 53 71 -395 0
-359 -378 -54 -72 -396 0
-359 -378 -54 72 396 0
-359 -378 54 -72 396 0
-359 -378 54 72 -396 0
-359 -379 -46 -73 -388 0
-359 -379 -46 73 388 0
-359 -379 46 -73 388 0
-359 -379 46 73 -388 0
-359 -379 -47 -74 -389 0
-359 -379 -47 74 389 0
-359 -379 47 -74 389 0
-359 -379 47 74 -389 0
-359 -379 -48 -75 -390 0
-359 -379 -48 75 390 0
-359 -379 48 -75 390 0
-359 -379 48 75 -390 0
-359 -379 -49 -76 -391 0
-359 -379 -49 76 391 0
-359 -379 49 -76 391 0
-359 -379 49 76 -391 0
-359 -379 -50 -77 -392 0
-359 -379 -50 77 392 0
-359 -379 50 -77 392 0
-359 -379 50 77 -392 0
-359 -379 -51 -78 -393 0
-359 -379 -51 78 393 0
-359 -379 51 -78 393 0
-359 -379 51 78 -393 0
-359 -379 -52 -79 -394 0
-359 -379 -52 79 394 0
-359 -379 52 -79 394 0
-359 -379 52 79 -394 0
-359 -379 -53 -80 -395 0
-359 -379 -53 80 395 0
-359 -379 53 -80 395 0
-359 -379 53 80 -395 0
-359 -379 -54 -81 -396 0
-359 -379 -54 81 396 0
-359 -379 54 -81 396 0
-359 -379 54 81 -396 0
-359 -380 -46 -100 -388 0
-359 -380 -46 100 388 0
-359 -380 46 -100 388 0
-359 -380 46 100 -388 0
-359 -380 -47 -101 -389 0
-359 -380 -47 101 389 0
-359 -380 47 -101 389 0
-359 -380 47 101 -389 0
-359 -380 -48 -102 -390 0
-359 -380 -48 102 390 0
-359 -380 48 -102 390 0
-359 -380 48 102 -390 0
-359 -380 -49 -103 -391 0
-359 -380 -49 103 391 0
-359 -380 49 -103 391 0
-359 -380 49 103 -391 0
-359 -380 -50 -104 -392 0
-359 -380 -50 104 392 0
-359 -380 50 -104 392 0
-359 -380 50 104 -392 0
-359 -380 -51 -105 -393 0
-359 -380 -51 105 393 0
-359 -380 51 -105 393 0
-359 -380 51 105 -393 0
-359 -380 -52 -106 -394 0
-359 -380 -52 106 394 0
-359 -380 52 -106 394 0
-359 -380 52 106 -394 0
-359 -380 -53 -107 -395 0
-359 -380 -53 107 395 0
-359 -380 53 -107 395 0
-359 -380 53 107 -395 0
-359 -380 -54 -108 -396 0
-359 -380 -54 108 396 0
-359 -380 54 -108 396 0
-359 -380 54 108 -396 0
-359 -381 -46 -129 -388 0
-359 -381 -46 129 388 0
-359 -381 46 -129 388 0
-359 -381 46 129 -388 0
-359 -381 -47 -130 -389 0
-359 -381 -47 130 389 0
-359 -381 47 -130 389 0
-359 -381 47 130 -389 0
-359 -381 -48 -131 -390 0
-359 -381 -48 131 390 0
-359 -381 48 -131 390 0
-359 -381 48 131 -390 0
-359 -381 -49 -132 -391 0
-359 -381 -49 132 391 0
-359 -381 49 -132 391 0
-359 -381 49 132 -391 0
-359 -381 -50 -133 -392 0
-359 -381 -50 133 392 0
-359 -381 50 -133 392 0
-359 -381 50 133 -392 0
-359 -381 -51 -134 -393 0
-359 -381 -51 134 393 0
-359 -381 51 -134 393 0
-359 -381 51 134 -393 0
-359 -381 -52 -135 -394 0
-359 -381 -52 135 394 0
-359 -381 52 -135 394 0
-359 -381 52 135 -394 0
-359 -381 -53 -136 -395 0
-359 -381 -53 136 395 0
-359 -381 53 -136 395 0
-359 -381 53 136 -395 0
-359 -381 -54 -137 -396 0
-359 -381 -54 137 396 0
-359 -381 54 -137 396 0
-359 -381 54 137 -396 0
-359 -382 -46 -160 -388 0
-359 -382 -46 160 388 0
-359 -382 46 -160 388 0
-359 -382 46 160 -388 0
-359 -382 -47 -161 -389 0
-359 -382 -47 161 389 0
-359 -382 47 -161 389 0
-359 -382 47 161 -389 0
-359 -382 -48 -162 -390 0
-359 -382 -48 162 390 0
-359 -382 48 -162 390 0
-359 -382 48 162 -390 0
-359 -382 -49 -163 -391 0
-359 -382 -49 163 391 0
-359 -382 49 -163 391 0
-359 -382 49 163 -391 0
-359 -382 -50 -164 -392 0
-359 -382 -50 164 392 0
-359 -382 50 -164 392 0
-359 -382 50 164 -392 0
-359 -382 -51 -165 -393 0
-359 -382 -51 165 393 0
-359 -382 51 -165 393 0
-359 -382 51 165 -393 0
-359 -382 -52 -166 -394 0
-359 -382 -52 166 394 0
-359 -382 52 -166 394 0
-359 -382 52 166 -394 0
-359 -382 -53 -167 -395 0
-359 -382 -53 167 395 0
-359 -382 53 -167 395 0
-359 -382 53 167 -395 0
-359 -382 -54 -168 -396 0
-359 -382 -54 168 396 0
-359 -382 54 -168 396 0
-359 -382 54 168 -396 0
-359 -383 -46 -193 -388 0
-359 -383 -46 193 388 0
-359 -383 46 -193 388 0
-359 -383 46 193 -388 0
-359 -383 -47 -194 -389 0
-359 -383 -47 194 389 0
-359 -383 47 -194 389 0
-359 -383 47 194 -389 0
-359 -383 -48 -195 -390 0
-359 -383 -48 195 390 0
-359 -383 48 -195 390 0
-359 -383 48 195 -390 0
-359 -383 -49 -196 -391 0
-359 -383 -49 196 391 0
-359 -383 49 -196 391 0
-359 -383 49 196 -391 0
-359 -383 -50 -197 -392 0
-359 -383 -50 197 392 0
-359 -383 50 -197 392 0
-359 -383 50 197 -392 0
-359 -383 -51 -198 -393 0
-359 -383 -51 198 393 0
-359 -383 51 -198 393 0
-359 -383 51 198 -393 0
-359 -383 -52 -199 -394 0
-359 -383 -52 199 394 0
-359 -383 52 -199 394 0
-359 -383 52 199 -394 0
-359 -383 -53 -200 -395 0
-359 -383 -53 200 395 0
-359 -383 53 -200 395 0
-359 -383 53 200 -395 0
-359 -383 -54 -201 -396 0
-359 -383 -54 201 396 0
-359 -383 54 -201 396 0
-359 -383 54 201 -396 0
-359 -384 -46 -228 -388 0
-359 -384 -46 228 388 0
-359 -384 46 -228 388 0
-359 -384 46 228 -388 0
-359 -384 -47 -229 -389 0
-359 -384 -47 229 389 0
-359 -384 47 -229 389 0
-359 -384 47 229 -389 0
-359 -384 -48 -230 -390 0
-359 -384 -48 230 390 0
-359 -384 48 -230 390 0
-359 -384 48 230 -390 0
-359 -384 -49 -231 -391 0
-359 -384 -49 231 391 0
-359 -384 49 -231 391 0
-359 -384 49 231 -391 0
-359 -384 -50 -232 -392 0
-359 -384 -50 232 392 0
-359 -384 50 -232 392 0
-359 -384 50 232 -392 0
-359 -384 -51 -233 -393 0
-359 -384 -51 233 393 0
-359 -384 51 -233 393 0
-359 -384 51 233 -393 0
-359 -384 -52 -234 -394 0
-359 -384 -52 234 394 0
-359 -384 52 -234 394 0
-359 -384 52 234 -394 0
-359 -384 -53 -235 -395 0
-359 -384 -53 235 395 0
-359 -384 53 -235 395 0
-359 -384 53 235 -395 0
-359 -384 -54 -236 -396 0
-359 -384 -54 236 396 0
-359 -384 54 -236 396 0
-359 -384 54 236 -396 0
-359 -385 -46 -265 -388 0
-359 -385 -46 265 388 0
-359 -385 46 -265 388 0
-359 -385 46 265 -388 0
-359 -385 -47 -266 -389 0
-359 -385 -47 266 389 0
-359 -385 47 -266 389 0
-359 -385 47 266 -389 0
-359 -385 -48 -267 -390 0
-359 -385 -48 267 390 0
-359 -385 48 -267 390 0
-359 -385 48 267 -390 0
-359 -385 -49 -268 -391 0
-359 -385 -49 268 391 0
-359 -385 49 -268 391 0
-359 -385 49 268 -391 0
-359 -385 -50 -269 -392 0
-359 -385 -50 269 392 0
-359 -385 50 -269 392 0
-359 -385 50 269 -392 0
-359 -385 -51 -270 -393 0
-359 -385 -51 270 393 0
-359 -385 51 -270 393 0
-359 -385 51 270 -393 0
-359 -385 -52 -271 -394 0
-359 -385 -52 271 394 0
-359 -385 52 -271 394 0
-359 -385 52 271 -394 0
-359 -385 -53 -272 -395 0
-359 -385 -53 272 395 0
-359 -385 53 -272 395 0
-359 -385 53 272 -395 0
-359 -385 -54 -273 -396 0
-359 -385 -54 273 396 0
-359 -385 54 -273 396 0
-359 -385 54 273 -396 0
-359 -386 -46 -304 -388 0
-359 -386 -46 304 388 0
-359 -386 46 -304 388 0
-359 -386 46 304 -388 0
-359 -386 -47 -305 -389 0
-359 -386 -47 305 389 0
-359 -386 47 -305 389 0
-359 -386 47 305 -389 0
-359 -386 -48 -306 -390 0
-359 -386 -48 306 390 0
-359 -386 48 -306 390 0
-359 -386 48 306 -390 0
-359 -386 -49 -307 -391 0
-359 -386 -49 307 391 0
-359 -386 49 -307 391 0
-359 -386 49 307 -391 0
-359 -386 -50 -308 -392 0
-359 -386 -50 308 392 0
-359 -386 50 -308 392 0
-359 -386 50 308 -392 0
-359 -386 -51 -309 -393 0
-359 -386 -51 309 393 0
-359 -386 51 -309 393 0
-359 -386 51 309 -393 0
-359 -386 -52 -310 -394 0
-359 -386 -52 310 394 0
-359 -386 52 -310 394 0
-359 -386 52 310 -394 0
-359 -386 -53 -311 -395 0
-359 -386 -53 311 395 0
-359 -386 53 -311 395 0
-359 -386 53 311 -395 0
-359 -386 -54 -312 -396 0
-359 -386 -54 312 396 0
-359 -386 54 -312 396 0
-359 -386 54 312 -396 0
-359 -387 -46 -345 -388 0
-359 -387 -46 345 388 0
-359 -387 46 -345 388 0
-359 -387 46 345 -388 0
-359 -387 -47 -346 -389 0
-359 -387 -47 346 389 0
-359 -387 47 -346 389 0
-359 -387 47 346 -389 0
-359 -387 -48 -347 -390 0
-359 -387 -48 347 390 0
-359 -387 48 -347 390 0
-359 -387 48 347 -390 0
-359 -387 -49 -348 -391 0
-359 -387 -49 348 391 0
-359 -387 49 -348 391 0
-359 -387 49 348 -391 0
-359 -387 -50 -349 -392 0
-359 -387 -50 349 392 0
-359 -387 50 -349 392 0
-359 -387 50 349 -392 0
-359 -387 -51 -350 -393 0
-359 -387 -51 350 393 0
-359 -387 51 -350 393 0
-359 -387 51 350 -393 0
-359 -387 -52 -351 -394 0
-359 -387 -52 351 394 0
-359 -387 52 -351 394 0
-359 -387 52 351 -394 0
-359 -387 -53 -352 -395 0
-359 -387 -53 352 395 0
-359 -387 53 -352 395 0
-359 -387 53 352 -395 0
-359 -387 -54 -353 -396 0
-359 -387 -54 353 396 0
-359 -387 54 -353 396 0
-359 -387 54 353 -396 0
-360 -378 -55 -64 -388 0
-360 -378 -55 64 388 0
-360 -378 55 -64 388 0
-360 -378 55 64 -388 0
-360 -378 -56 -65 -389 0
-360 -378 -56 65 389 0
-360 -378 56 -65 389 0
-360 -378 56 65 -389 0
-360 -378 -57 -66 -390 0
-360 -378 -57 66 390 0
-360 -378 57 -66 390 0
-360 -378 57 66 -390 0
-360 -378 -58 -67 -391 0
-360 -378 -58 67 391 0
-360 -378 58 -67 391 0
-360 -378 58 67 -391 0
-360 -378 -59 -68 -392 0
-360 -378 -59 68 392 0
-360 -378 59 -68 392 0
-360 -378 59 68 -392 0
-360 -378 -60 -69 -393 0
-360 -378 -60 69 393 0
-360 -378 60 -69 393 0
-360 -378 60 69 -393 0
-360 -378 -61 -70 -394 0
-360 -378 -61 70 394 0
-360 -378 61 -70 394 0
-360 -378 61 70 -394 0
-360 -378 -62 -71 -395 0
-360 -378 -62 71 395 0
-360 -378 62 -71 395 0
-360 -378 62 71 -395 0
-360 -378 -63 -72 -396 0
-360 -378 -63 72 396 0
-360 -378 63 -72 396 0
-360 -378 63 72 -396 0
-360 -379 -55 -73 -388 0
-360 -379 -55 73 388 0
-360 -379 55 -73 388 0
-360 -379 55 73 -388 0
-360 -379 -56 -74 -389 0
-360 -379 -56 74 389 0
-360 -379 56 -74 389 0
-360 -379 56 74 -389 0
-360 -379 -57 -75 -390 0
-360 -379 -57 75 390 0
-360 -379 57 -75 390 0
-360 -379 57 75 -390 0
-360 -379 -58 -76 -391 0
-360 -379 -58 76 391 0
-360 -379 58 -76 391 0
-360 -379 58 76 -391 0
-360 -379 -59 -77 -392 0
-360 -379 -59 77 392 0
-360 -379 59 -77 392 0
-360 -379 59 77 -392 0
-360 -379 -60 -78 -393 0
-360 -379 -60 78 393 0
-360 -379 60 -78 393 0
-360 -379 60 78 -393 0
-360 -379 -61 -79 -394 0
-360 -379 -61 79 394 0
-360 -379 61 -79 394 0
-360 -379 61 79 -394 0
-360 -379 -62 -80 -395 0
-360 -379 -62 80 395 0
-360 -379 62 -80 395 0
-360 -379 62 80 -395 0
-360 -379 -63 -81 -396 0
-360 -379 -63 81 396 0
-360 -379 63 -81 396 0
-360 -379 63 81 -396 0
-360 -380 -55 -100 -388 0
-360 -380 -55 100 388 0
-360 -380 55 -100 388 0
-360 -380 55 100 -388 0
-360 -380 -56 -101 -389 0
-360 -380 -56 101 389 0
-360 -380 56 -101 389 0
-360 -380 56 101 -389 0
-360 -380 -57 -102 -390 0
-360 -380 -57 102 390 0
-360 -380 57 -102 390 0
-360 -380 57 102 -390 0
-360 -380 -58 -103 -391 0
-360 -380 -58 103 391 0
-360 -380 58 -103 391 0
-360 -380 58 103 -391 0
-360 -380 -59 -104 -392 0
-360 -380 -59 104 392 0
-360 -380 59 -104 392 0
-360 -380 59 104 -392 0
-360 -380 -60 -105 -393 0
-360 -380 -60 105 393 0
-360 -380 60 -105 393 0
-360 -380 60 105 -393 0
-360 -380 -61 -106 -394 0
-360 -380 -61 106 394 0
-360 -380 61 -106 394 0
-360 -380 61 106 -394 0
-360 -380 -62 -107 -395 0
-360 -380 -62 107 395 0
-360 -380 62 -107 395 0
-360 -380 62 107 -395 0
-360 -380 -63 -108 -396 0
-360 -380 -63 108 396 0
-360 -380 63 -108 396 0
-360 -380 63 108 -396 0
-360 -381 -55 -129 -388 0
-360 -381 -55 129 388 0
-360 -381 55 -129 388 0
-360 -381 55 129 -388 0
-360 -381 -56 -130 -389 0
-360 -381 -56 130 389 0
-360 -381 56 -130 389 0
-360 -381 56 130 -389 0
-360 -381 -57 -131 -390 0
-360 -381 -57 131 390 0
-360 -381 57 -131 390 0
-360 -381 57 131 -390 0
-360 -381 -58 -132 -391 0
-360 -381 -58 132 391 0
-360 -381 58 -132 391 0
-360 -381 58 132 -391 0
-360 -381 -59 -133 -392 0
-360 -381 -59 133 392 0
-360 -381 59 -133 392 0
-360 -381 59 133 -392 0
-360 -381 -60 -134 -393 0
-360 -381 -60 134 393 0
-360 -381 60 -134 393 0
-360 -381 60 134 -393 0
-360 -381 -61 -135 -394 0
-360 -381 -61 135 394 0
-360 -381 61 -135 394 0
-360 -381 61 135 -394 0
-360 -381 -62 -136 -395 0
-360 -381 -62 136 395 0
-360 -381 62 -136 395 0
-360 -381 62 136 -395 0
-360 -381 -63 -137 -396 0
-360 -381 -63 137 396 0
-360 -381 63 -137 396 0
-360 -381 63 137 -396 0
-360 -382 -55 -160 -388 0
-360 -382 -55 160 388 0
-360 -382 55 -160 388 0
-360 -382 55 160 -388 0
-360 -382 -56 -161 -389 0
-360 -382 -56 161 389 0
-360 -382 56 -161 389 0
-360 -382 56 161 -389 0
-360 -382 -57 -162 -390 0
-360 -382 -57 162 390 0
-360 -382 57 -162 390 0
-360 -382 57 162 -390 0
-360 -382 -58 -163 -391 0
-360 -382 -58 163 391 0
-360 -382 58 -163 391 0
-360 -382 58 163 -391 0
-360 -382 -59 -164 -392 0
-360 -382 -59 164 392 0
-360 -382 59 -164 392 0
-360 -382 59 164 -392 0
-360 -382 -60 -165 -393 0
-360 -382 -60 165 393 0
-360 -382 60 -165 393 0
-360 -382 60 165 -393 0
-360 -382 -61 -166 -394 0
-360 -382 -61 166 394 0
-360 -382 61 -166 394 0
-360 -382 61 166 -394 0
-360 -382 -62 -167 -395 0
-360 -382 -62 167 395 0
-360 -382 62 -167 395 0
-360 -382 62 167 -395 0
-360 -382 -63 -168 -396 0
-360 -382 -63 168 396 0
-360 -382 63 -168 396 0
-360 -382 63 168 -396 0
-360 -383 -55 -193 -388 0
-360 -383 -55 193 388 0
-360 -383 55 -193 388 0
-360 -383 55 193 -388 0
-360 -383 -56 -194 -389 0
-360 -383 -56 194 389 0
-360 -383 56 -194 389 0
-360 -383 56 194 -389 0
-360 -383 -57 -195 -390 0
-360 -383 -57 195 390 0
-360 -383 57 -195 390 0
-360 -383 57 195 -390 0
-360 -383 -58 -196 -391 0
-360 -383 -58 196 391 0
-360 -383 58 -196 391 0
-360 -383 58 196 -391 0
-360 -383 -59 -197 -392 0
-360 -383 -59 197 392 0
-360 -383 59 -197 392 0
-360 -383 59 197 -392 0
-360 -383 -60 -198 -393 0
-360 -383 -60 198 393 0
-360 -383 60 -198 393 0
-360 -383 60 198 -393 0
-360 -383 -61 -199 -394 0
-360 -383 -61 199 394 0
-360 -383 61 -199 394 0
-360 -383 61 199 -394 0
-360 -383 -62 -200 -395 0
-360 -383 -62 200 395 0
-360 -383 62 -200 395 0
-360 -383 62 200 -395 0
-360 -383 -63 -201 -396 0
-360 -383 -63 201 396 0
-360 -383 63 -201 396 0
-360 -383 63 201 -396 0
-360 -384 -55 -228 -388 0
-360 -384 -55 228 388 0
-360 -384 55 -228 388 0
-360 -384 55 228 -388 0
-360 -384 -56 -229 -389 0
-360 -384 -56 229 389 0
-360 -384 56 -229 389 0
-360 -384 56 229 -389 0
-360 -384 -57 -230 -390 0
-360 -384 -57 230 390 0
-360 -384 57 -230 390 0
-360 -384 57 230 -390 0
-360 -384 -58 -231 -391 0
-360 -384 -58 231 391 0
-360 -384 58 -231 391 0
-360 -384 58 231 -391 0
-360 -384 -59 -232 -392 0
-360 -384 -59 232 392 0
-360 -384 59 -232 392 0
-360 -384 59 232 -392 0
-360 -384 -60 -233 -393 0
-360 -384 -60 233 393 0
-360 -384 60 -233 393 0
-360 -384 60 233 -393 0
-360 -384 -61 -234 -394 0
-360 -384 -61 234 394 0
-360 -384 61 -234 394 0
-360 -384 61 234 -394 0
-360 -384 -62 -235 -395 0
-360 -384 -62 235 395 0
-360 -384 62 -235 395 0
-360 -384 62 235 -395 0
-360 -384 -63 -236 -396 0
-360 -384 -63 236 396 0
-360 -384 63 -236 396 0
-360 -384 63 236 -396 0
-360 -385 -55 -265 -388 0
-360 -385 -55 265 388 0
-360 -385 55 -265 388 0
-360 -385 55 265 -388 0
-360 -385 -56 -266 -389 0
-360 -385 -56 266 389 0
-360 -385 56 -266 389 0
-360 -385 56 266 -389 0
-360 -385 -57 -267 -390 0
-360 -385 -57 267 390 0
-360 -385 57 -267 390 0
-360 -385 57 267 -390 0
-360 -385 -58 -268 -391 0
-360 -385 -58 268 391 0
-360 -385 58 -268 391 0
-360 -385 58 268 -391 0
-360 -385 -59 -269 -392 0
-360 -385 -59 269 392 0
-360 -385 59 -269 392 0
-360 -385 59 269 -392 0
-360 -385 -60 -270 -393 0
-360 -385 -60 270 393 0
-360 -385 60 -270 393 0
-360 -385 60 270 -393 0
-360 -385 -61 -271 -394 0
-360 -385 -61 271 394 0
-360 -385 61 -271 394 0
-360 -385 61 271 -394 0
-360 -385 -62 -272 -395 0
-360 -385 -62 272 395 0
-360 -385 62 -272 395 0
-360 -385 62 272 -395 0
-360 -385 -63 -273 -396 0
-360 -385 -63 273 396 0
-360 -385 63 -273 396 0
-360 -385 63 273 -396 0
-360 -386 -55 -304 -388 0
-360 -386 -55 304 388 0
-360 -386 55 -304 388 0
-360 -386 55 304 -388 0
-360 -386 -56 -305 -389 0
-360 -386 -56 305 389 0
-360 -386 56 -305 389 0
-360 -386 56 305 -389 0
-360 -386 -57 -306 -390 0
-360 -386 -57 306 390 0
-360 -386 57 -306 390 0
-360 -386 57 306 -390 0
-360 -386 -58 -307 -391 0
-360 -386 -58 307 391 0
-360 -386 58 -307 391 0
-360 -386 58 307 -391 0
-360 -386 -59 -308 -392 0
-360 -386 -59 308 392 0
-360 -386 59 -308 392 0
-360 -386 59 308 -392 0
-360 -386 -60 -309 -393 0
-360 -386 -60 309 393 0
-360 -386 60 -309 393 0
-360 -386 60 309 -393 0
-360 -386 -61 -310 -394 0
-360 -386 -61 310 394 0
-360 -386 61 -310 394 0
-360 -386 61 310 -394 0
-360 -386 -62 -311 -395 0
-360 -386 -62 311 395 0
-360 -386 62 -311 395 0
-360 -386 62 311 -395 0
-360 -386 -63 -312 -396 0
-360 -386 -63 312 396 0
-360 -386 63 -312 396 0
-360 -386 63 312 -396 0
-360 -387 -55 -345 -388 0
-360 -387 -55 345 388 0
-360 -387 55 -345 388 0
-360 -387 55 345 -388 0
-360 -387 -56 -346 -389 0
-360 -387 -56 346 389 0
-360 -387 56 -346 389 0
-360 -387 56 346 -389 0
-360 -387 -57 -347 -390 0
-360 -387 -57 347 390 0
-360 -387 57 -347 390 0
-360 -387 57 347 -390 0
-360 -387 -58 -348 -391 0
-360 -387 -58 348 391 0
-360 -387 58 -348 391 0
-360 -387 58 348 -391 0
-360 -387 -59 -349 -392 0
-360 -387 -59 349 392 0
-360 -387 59 -349 392 0
-360 -387 59 349 -392 0
-360 -387 -60 -350 -393 0
-360 -387 -60 350 393 0
-360 -387 60 -350 393 0
-360 -387 60 350 -393 0
-360 -387 -61 -351 -394 0
-360 -387 -61 351 394 0
-360 -387 61 -351 394 0
-360 -387 61 351 -394 0
-360 -387 -62 -352 -395 0
-360 -387 -62 352 395 0
-360 -387 62 -352 395 0
-360 -387 62 352 -395 0
-360 -387 -63 -353 -396 0
-360 -387 -63 353 396 0
-360 -387 63 -353 396 0
-360 -387 63 353 -396 0
-361 -379 -64 -73 -388 0
-361 -379 -64 73 388 0
-361 -379 64 -73 388 0
-361 -379 64 73 -388 0
-361 -379 -65 -74 -389 0
-361 -379 -65 74 389 0
-361 -379 65 -74 389 0
-361 -379 65 74 -389 0
-361 -379 -66 -75 -390 0
-361 -379 -66 75 390 0
-361 -379 66 -75 390 0
-361 -379 66 75 -390 0
-361 -379 -67 -76 -391 0
-361 -379 -67 76 391 0
-361 -379 67 -76 391 0
-361 -379 67 76 -391 0
-361 -379 -68 -77 -392 0
-361 -379 -68 77 392 0
-361 -379 68 -77 392 0
-361 -379 68 77 -392 0
-361 -379 -69 -78 -393 0
-361 -379 -69 78 393 0
-361 -379 69 -78 393 0
-361 -379 69 78 -393 0
-361 -379 -70 -79 -394 0
-361 -379 -70 79 394 0
-361 -379 70 -79 394 0
-361 -379 70 79 -394 0
-361 -379 -71 -80 -395 0
-361 -379 -71 80 395 0
-361 -379 71 -80 395 0
-361 -379 71 80 -395 0
-361 -379 -72 -81 -396 0
-361 -379 -72 81 396 0
-361 -379 72 -81 396 0
-361 -379 72 81 -396 0
-361 -380 -64 -100 -388 0
-361 -380 -64 100 388 0
-361 -380 64 -100 388 0
-361 -380 64 100 -388 0
-361 -380 -65 -101 -389 0
-361 -380 -65 101 389 0
-361 -380 65 -101 389 0
-361 -380 65 101 -389 0
-361 -380 -66 -102 -390 0
-361 -380 -66 102 390 0
-361 -380 66 -102 390 0
-361 -380 66 102 -390 0
-361 -380 -67 -103 -391 0
-361 -380 -67 103 391 0
-361 -380 67 -103 391 0
-361 -380 67 103 -391 0
-361 -380 -68 -104 -392 0
-361 -380 -68 104 392 0
-361 -380 68 -104 392 0
-361 -380 68 104 -392 0
-361 -380 -69 -105 -393 0
-361 -380 -69 105 393 0
-361 -380 69 -105 393 0
-361 -380 69 105 -393 0
-361 -380 -70 -106 -394 0
-361 -380 -70 106 394 0
-361 -380 70 -106 394 0
-361 -380 70 106 -394 0
-361 -380 -71 -107 -395 0
-361 -380 -71 107 395 0
-361 -380 71 -107 395 0
-361 -380 71 107 -395 0
-361 -380 -72 -108 -396 0
-361 -380 -72 108 396 0
-361 -380 72 -108 396 0
-361 -380 72 108 -396 0
-361 -381 -64 -129 -388 0
-361 -381 -64 129 388 0
-361 -381 64 -129 388 0
-361 -381 64 129 -388 0
-361 -381 -65 -130 -389 0
-361 -381 -65 130 389 0
-361 -381 65 -130 389 0
-361 -381 65 130 -389 0
-361 -381 -66 -131 -390 0
-361 -381 -66 131 390 0
-361 -381 66 -131 390 0
-361 -381 66 131 -390 0
-361 -381 -67 -132 -391 0
-361 -381 -67 132 391 0
-361 -381 67 -132 391 0
-361 -381 67 132 -391 0
-361 -381 -68 -133 -392 0
-361 -381 -68 133 392 0
-361 -381 68 -133 392 0
-361 -381 68 133 -392 0
-361 -381 -69 -134 -393 0
-361 -381 -69 134 393 0
-361 -381 69 -134 393 0
-361 -381 69 134 -393 0
-361 -381 -70 -135 -394 0
-361 -381 -70 135 394 0
-361 -381 70 -135 394 0
-361 -381 70 135 -394 0
-361 -381 -71 -136 -395 0
-361 -381 -71 136 395 0
-361 -381 71 -136 395 0
-361 -381 71 136 -395 0
-361 -381 -72 -137 -396 0
-361 -381 -72 137 396 0
-361 -381 72 -137 396 0
-361 -381 72 137 -396 0
-361 -382 -64 -160 -388 0
-361 -382 -64 160 388 0
-361 -382 64 -160 388 0
-361 -382 64 160 -388 0
-361 -382 -65 -161 -389 0
-361 -382 -65 161 389 0
-361 -382 65 -161 389 0
-361 -382 65 161 -389 0
-361 -382 -66 -162 -390 0
-361 -382 -66 162 390 0
-361 -382 66 -162 390 0
-361 -382 66 162 -390 0
-361 -382 -67 -163 -391 0
-361 -382 -67 163 391 0
-361 -382 67 -163 391 0
-361 -382 67 163 -391 0
-361 -382 -68 -164 -392 0
-361 -382 -68 164 392 0
-361 -382 68 -164 392 0
-361 -382 68 164 -392 0
-361 -382 -69 -165 -393 0
-361 -382 -69 165 393 0
-361 -382 69 -165 393 0
-361 -382 69 165 -393 0
-361 -382 -70 -166 -394 0
-361 -382 -70 166 394 0
-361 -382 70 -166 394 0
-361 -382 70 166 -394 0
-361 -382 -71 -167 -395 0
-361 -382 -71 167 395 0
-361 -382 71 -167 395 0
-361 -382 71 167 -395 0
-361 -382 -72 -168 -396 0
-361 -382 -72 168 396 0
-361 -382 72 -168 396 0
-361 -382 72 168 -396 0
-361 -383 -64 -193 -388 0
-361 -383 -64 193 388 0
-361 -383 64 -193 388 0
-361 -383 64 193 -388 0
-361 -383 -65 -194 -389 0
-361 -383 -65 194 389 0
-361 -383 65 -194 389 0
-361 -383 65 194 -389 0
-361 -383 -66 -195 -390 0
-361 -383 -66 195 390 0
-361 -383 66 -195 390 0
-361 -383 66 195 -390 0
-361 -383 -67 -196 -391 0
-361 -383 -67 196 391 0
-361 -383 67 -196 391 0
-361 -383 67 196 -391 0
-361 -383 -68 -197 -392 0
-361 -383 -68 197 392 0
-361 -383 68 -197 392 0
-361 -383 68 197 -392 0
-361 -383 -69 -198 -393 0
-361 -383 -69 198 393 0
-361 -383 69 -198 393 0
-361 -383 69 198 -393 0
-361 -383 -70 -199 -394 0
-361 -383 -70 199 394 0
-361 -383 70 -199 394 0
-361 -383 70 199 -394 0
-361 -383 -71 -200 -395 0
-361 -383 -71 200 395 0
-361 -383 71 -200 395 0
-361 -383 71 200 -395 0
-361 -383 -72 -201 -396 0
-361 -383 -72 201 396 0
-361 -383 72 -201 396 0
-361 -383 72 201 -396 0
-361 -384 -64 -228 -388 0
-361 -384 -64 228 388 0
-361 -384 64 -228 388 0
-361 -384 64 228 -388 0
-361 -384 -65 -229 -389 0
-361 -384 -65 229 389 0
-361 -384 65 -229 389 0
-361 -384 65 229 -389 0
-361 -384 -66 -230 -390 0
-361 -384 -66 230 390 0
-361 -384 66 -230 390 0
-361 -384 66 230 -390 0
-361 -384 -67 -231 -391 0
-361 -384 -67 231 391 0
-361 -384 67 -231 391 0
-361 -384 67 231 -391 0
-361 -384 -68 -232 -392 0
-361 -384 -68 232 392 0
-361 -384 68 -232 392 0
-361 -384 68 232 -392 0
-361 -384 -69 -233 -393 0
-361 -384 -69 233 393 0
-361 -384 69 -233 393 0
-361 -384 69 233 -393 0
-361 -384 -70 -234 -394 0
-361 -384 -70 234 394 0
-361 -384 70 -234 394 0
-361 -384 70 234 -394 0
-361 -384 -71 -235 -395 0
-361 -384 -71 235 395 0
-361 -384 71 -235 395 0
-361 -384 71 235 -395 0
-361 -384 -72 -236 -396 0
-361 -384 -72 236 396 0
-361 -384 72 -236 396 0
-361 -384 72 236 -396 0
-361 -385 -64 -265 -388 0
-361 -385 -64 265 388 0
-361 -385 64 -265 388 0
-361 -385 64 265 -388 0
-361 -385 -65 -266 -389 0
-361 -385 -65 266 389 0
-361 -385 65 -266 389 0
-361 -385 65 266 -389 0
-361 -385 -66 -267 -390 0
-361 -385 -66 267 390 0
-361 -385 66 -267 390 0
-361 -385 66 267 -390 0
-361 -385 -67 -268 -391 0
-361 -385 -67 268 391 0
-361 -385 67 -268 391 0
-361 -385 67 268 -391 0
-361 -385 -68 -269 -392 0
-361 -385 -68 269 392 0
-361 -385 68 -269 392 0
-361 -385 68 269 -392 0
-361 -385 -69 -270 -393 0
-361 -385 -69 270 393 0
-361 -385 69 -270 393 0
-361 -385 69 270 -393 0
-361 -385 -70 -271 -394 0
-361 -385 -70 271 394 0
-361 -385 70 -271 394 0
-361 -385 70 271 -394 0
-361 -385 -71 -272 -395 0
-361 -385 -71 272 395 0
-361 -385 71 -272 395 0
-361 -385 71 272 -395 0
-361 -385 -72 -273 -396 0
-361 -385 -72 273 396 0
-361 -385 72 -273 396 0
-361 -385 72 273 -396 0
-361 -386 -64 -304 -388 0
-361 -386 -64 304 388 0
-361 -386 64 -304 388 0
-361 -386 64 304 -388 0
-361 -386 -65 -305 -389 0
-361 -386 -65 305 389 0
-361 -386 65 -305 389 0
-361 -386 65 305 -389 0
-361 -386 -66 -306 -390 0
-361 -386 -66 306 390 0
-361 -386 66 -306 390 0
-361 -386 66 306 -390 0
-361 -386 -67 -307 -391 0
-361 -386 -67 307 391 0
-361 -386 67 -307 391 0
-361 -386 67 307 -391 0
-361 -386 -68 -308 -392 0
-361 -386 -68 308 392 0
-361 -386 68 -308 392 0
-361 -386 68 308 -392 0
-361 -386 -69 -309 -393 0
-361 -386 -69 309 393 0
-361 -386 69 -309 393 0
-361 -386 69 309 -393 0
-361 -386 -70 -310 -394 0
-361 -386 -70 310 394 0
-361 -386 70 -310 394 0
-361 -386 70 310 -394 0
-361 -386 -71 -311 -395 0
-361 -386 -71 311 395 0
-361 -386 71 -311 395 0
-361 -386 71 311 -395 0
-361 -386 -72 -312 -396 0
-361 -386 -72 312 396 0
-361 -386 72 -312 396 0
-361 -386 72 312 -396 0
-361 -387 -64 -345 -388 0
-361 -387 -64 345 388 0
-361 -387 64 -345 388 0
-361 -387 64 345 -388 0
-361 -387 -65 -346 -389 0
-361 -387 -65 346 389 0
-361 -387 65 -346 389 0
-361 -387 65 346 -389 0
-361 -387 -66 -347 -390 0
-361 -387 -66 347 390 0
-361 -387 66 -347 390 0
-361 -387 66 347 -390 0
-361 -387 -67 -348 -391 0
-361 -387 -67 348 391 0
-361 -387 67 -348 391 0
-361 -387 67 348 -391 0
-361 -387 -68 -349 -392 0
-361 -387 -68 349 392 0
-361 -387 68 -349 392 0
-361 -387 68 349 -392 0
-361 -387 -69 -350 -393 0
-361 -387 -69 350 393 0
-361 -387 69 -350 393 0
-361 -387 69 350 -393 0
-361 -387 -70 -351 -394 0
-361 -387 -70 351 394 0
-361 -387 70 -351 394 0
-361 -387 70 351 -394 0
-361 -387 -71 -352 -395 0
-361 -387 -71 352 395 0
-361 -387 71 -352 395 0
-361 -387 71 352 -395 0
-361 -387 -72 -353 -396 0
-361 -387 -72 353 396 0
-361 -387 72 -353 396 0
-361 -387 72 353 -396 0
-362 -380 -73 -100 -388 0
-362 -380 -73 100 388 0
-362 -380 73 -100 388 0
-362 -380 73 100 -388 0
-362 -380 -74 -101 -389 0
-362 -380 -74 101 389 0
-362 -380 74 -101 389 0
-362 -380 74 101 -389 0
-362 -380 -75 -102 -390 0
-362 -380 -75 102 390 0
-362 -380 75 -102 390 0
-362 -380 75 102 -390 0
-362 -380 -76 -103 -391 0
-362 -380 -76 103 391 0
-362 -380 76 -103 391 0
-362 -380 76 103 -391 0
-362 -380 -77 -104 -392 0
-362 -380 -77 104 392 0
-362 -380 77 -104 392 0
-362 -380 77 104 -392 0
-362 -380 -78 -105 -393 0
-362 -380 -78 105 393 0
-362 -380 78 -105 393 0
-362 -380 78 105 -393 0
-362 -380 -79 -106 -394 0
-362 -380 -79 106 394 0
-362 -380 79 -106 394 0
-362 -380 79 106 -394 0
-362 -380 -80 -107 -395 0
-362 -380 -80 107 395 0
-362 -380 80 -107 395 0
-362 -380 80 107 -395 0
-362 -380 -81 -108 -396 0
-362 -380 -81 108 396 0
-362 -380 81 -108 396 0
-362 -380 81 108 -396 0
-362 -381 -73 -129 -388 0
-362 -381 -73 129 388 0
-362 -381 73 -129 388 0
-362 -381 73 129 -388 0
-362 -381 -74 -130 -389 0
-362 -381 -74 130 389 0
-362 -381 74 -130 389 0
-362 -381 74 130 -389 0
-362 -381 -75 -131 -390 0
-362 -381 -75 131 390 0
-362 -381 75 -131 390 0
-362 -381 75 131 -390 0
-362 -381 -76 -132 -391 0
-362 -381 -76 132 391 0
-362 -381 76 -132 391 0
-362 -381 76 132 -391 0
-362 -381 -77 -133 -392 0
-362 -381 -77 133 392 0
-362 -381 77 -133 392 0
-362 -381 77 133 -392 0
-362 -381 -78 -134 -393 0
-362 -381 -78 134 393 0
-362 -381 78 -134 393 0
-362 -381 78 134 -393 0
-362 -381 -79 -135 -394 0
-362 -381 -79 135 394 0
-362 -381 79 -135 394 0
-362 -381 79 135 -394 0
-362 -381 -80 -136 -395 0
-362 -381 -80 136 395 0
-362 -381 80 -136 395 0
-362 -381 80 136 -395 0
-362 -381 -81 -137 -396 0
-362 -381 -81 137 396 0
-362 -381 81 -137 396 0
-362 -381 81 137 -396 0
-362 -382 -73 -160 -388 0
-362 -382 -73 160 388 0
-362 -382 73 -160 388 0
-362 -382 73 160 -388 0
-362 -382 -74 -161 -389 0
-362 -382 -74 161 389 0
-362 -382 74 -161 389 0
-362 -382 74 161 -389 0
-362 -382 -75 -162 -390 0
-362 -382 -75 162 390 0
-362 -382 75 -162 390 0
-362 -382 75 162 -390 0
-362 -382 -76 -163 -391 0
-362 -382 -76 163 391 0
-362 -382 76 -163 391 0
-362 -382 76 163 -391 0
-362 -382 -77 -164 -392 0
-362 -382 -77 164 392 0
-362 -382 77 -164 392 0
-362 -382 77 164 -392 0
-362 -382 -78 -165 -393 0
-362 -382 -78 165 393 0
-362 -382 78 -165 393 0
-362 -382 78 165 -393 0
-362 -382 -79 -166 -394 0
-362 -382 -79 166 394 0
-362 -382 79 -166 394 0
-362 -382 79 166 -394 0
-362 -382 -80 -167 -395 0
-362 -382 -80 167 395 0
-362 -382 80 -167 395 0
-362 -382 80 167 -395 0
-362 -382 -81 -168 -396 0
-362 -382 -81 168 396 0
-362 -382 81 -168 396 0
-362 -382 81 168 -396 0
-362 -383 -73 -193 -388 0
-362 -383 -73 193 388 0
-362 -383 73 -193 388 0
-362 -383 73 193 -388 0
-362 -383 -74 -194 -389 0
-362 -383 -74 194 389 0
-362 -383 74 -194 389 0
-362 -383 74 194 -389 0
-362 -383 -75 -195 -390 0
-362 -383 -75 195 390 0
-362 -383 75 -195 390 0
-362 -383 75 195 -390 0
-362 -383 -76 -196 -391 0
-362 -383 -76 196 391 0
-362 -383 76 -196 391 0
-362 -383 76 196 -391 0
-362 -383 -77 -197 -392 0
-362 -383 -77 197 392 0
-362 -383 77 -197 392 0
-362 -383 77 197 -392 0
-362 -383 -78 -198 -393 0
-362 -383 -78 198 393 0
-362 -383 78 -198 393 0
-362 -383 78 198 -393 0
-362 -383 -79 -199 -394 0
-362 -383 -79 199 394 0
-362 -383 79 -199 394 0
-362 -383 79 199 -394 0
-362 -383 -80 -200 -395 0
-362 -383 -80 200 395 0
-362 -383 80 -200 395 0
-362 -383 80 200 -395 0
-362 -383 -81 -201 -396 0
-362 -383 -81 201 396 0
-362 -383 81 -201 396 0
-362 -383 81 201 -396 0
-362 -384 -73 -228 -388 0
-362 -384 -73 228 388 0
-362 -384 73 -228 388 0
-362 -384 73 228 -388 0
-362 -384 -74 -229 -389 0
-362 -384 -74 229 389 0
-362 -384 74 -229 389 0
-362 -384 74 229 -389 0
-362 -384 -75 -230 -390 0
-362 -384 -75 230 390 0
-362 -384 75 -230 390 0
-362 -384 75 230 -390 0
-362 -384 -76 -231 -391 0
-362 -384 -76 231 391 0
-362 -384 76 -231 391 0
-362 -384 76 231 -391 0
-362 -384 -77 -232 -392 0
-362 -384 -77 232 392 0
-362 -384 77 -232 392 0
-362 -384 77 232 -392 0
-362 -384 -78 -233 -393 0
-362 -384 -78 233 393 0
-362 -384 78 -233 393 0
-362 -384 78 233 -393 0
-362 -384 -79 -234 -394 0
-362 -384 -79 234 394 0
-362 -384 79 -234 394 0
-362 -384 79 234 -394 0
-362 -384 -80 -235 -395 0
-362 -384 -80 235 395 0
-362 -384 80 -235 395 0
-362 -384 80 235 -395 0
-362 -384 -81 -236 -396 0
-362 -384 -81 236 396 0
-362 -384 81 -236 396 0
-362 -384 81 236 -396 0
-362 -385 -73 -265 -388 0
-362 -385 -73 265 388 0
-362 -385 73 -265 388 0
-362 -385 73 265 -388 0
-362 -385 -74 -266 -389 0
-362 -385 -74 266 389 0
-362 -385 74 -266 389 0
-362 -385 74 266 -389 0
-362 -385 -75 -267 -390 0
-362 -385 -75 267 390 0
-362 -385 75 -267 390 0
-362 -385 75 267 -390 0
-362 -385 -76 -268 -391 0
-362 -385 -76 268 391 0
-362 -385 76 -268 391 0
-362 -385 76 268 -391 0
-362 -385 -77 -269 -392 0
-362 -385 -77 269 392 0
-362 -385 77 -269 392 0
-362 -385 77 269 -392 0
-362 -385 -78 -270 -393 0
-362 -385 -78 270 393 0
-362 -385 78 -270 393 0
-362 -385 78 270 -393 0
-362 -385 -79 -271 -394 0
-362 -385 -79 271 394 0
-362 -385 79 -271 394 0
-362 -385 79 271 -394 0
-362 -385 -80 -272 -395 0
-362 -385 -80 272 395 0
-362 -385 80 -272 395 0
-362 -385 80 272 -395 0
-362 -385 -81 -273 -396 0
-362 -385 -81 273 396 0
-362 -385 81 -273 396 0
-362 -385 81 273 -396 0
-362 -386 -73 -304 -388 0
-362 -386 -73 304 388 0
-362 -386 73 -304 388 0
-362 -386 73 304 -388 0
-362 -386 -74 -305 -389 0
-362 -386 -74 305 389 0
-362 -386 74 -305 389 0
-362 -386 74 305 -389 0
-362 -386 -75 -306 -390 0
-362 -386 -75 306 390 0
-362 -386 75 -306 390 0
-362 -386 75 306 -390 0
-362 -386 -76 -307 -391 0
-362 -386 -76 307 391 0
-362 -386 76 -307 391 0
-362 -386 76 307 -391 0
-362 -386 -77 -308 -392 0
-362 -386 -77 308 392 0
-362 -386 77 -308 392 0
-362 -386 77 308 -392 0
-362 -386 -78 -309 -393 0
-362 -386 -78 309 393 0
-362 -386 78 -309 393 0
-362 -386 78 309 -393 0
-362 -386 -79 -310 -394 0
-362 -386 -79 310 394 0
-362 -386 79 -310 394 0
-362 -386 79 310 -394 0
-362 -386 -80 -311 -395 0
-362 -386 -80 311 395 0
-362 -386 80 -311 395 0
-362 -386 80 311 -395 0
-362 -386 -81 -312 -396 0
-362 -386 -81 312 396 0
-362 -386 81 -312 396 0
-362 -386 81 312 -396 0
-362 -387 -73 -345 -388 0
-362 -387 -73 345 388 0
-362 -387 73 -345 388 0
-362 -387 73 345 -388 0
-362 -387 -74 -346 -389 0
-362 -387 -74 346 389 0
-362 -387 74 -346 389 0
-362 -387 74 346 -389 0
-362 -387 -75 -347 -390 0
-362 -387 -75 347 390 0
-362 -387 75 -347 390 0
-362 -387 75 347 -390 0
-362 -387 -76 -348 -391 0
-362 -387 -76 348 391 0
-362 -387 76 -348 391 0
-362 -387 76 348 -391 0
-362 -387 -77 -349 -392 0
-362 -387 -77 349 392 0
-362 -387 77 -349 392 0
-362 -387 77 349 -392 0
-362 -387 -78 -350 -393 0
-362 -387 -78 350 393 0
-362 -387 78 -350 393 0
-362 -387 78 350 -393 0
-362 -387 -79 -351 -394 0
-362 -387 -79 351 394 0
-362 -387 79 -351 394 0
-362 -387 79 351 -394 0
-362 -387 -80 -352 -395 0
-362 -387 -80 352 395 0
-362 -387 80 -352 395 0
-362 -387 80 352 -395 0
-362 -387 -81 -353 -396 0
-362 -387 -81 353 396 0
-362 -387 81 -353 396 0
-362 -387 81 353 -396 0
-363 -381 -100 -129 -388 0
-363 -381 -100 129 388 0
-363 -381 100 -129 388 0
-363 -381 100 129 -388 0
-363 -381 -101 -130 -389 0
-363 -381 -101 130 389 0
-363 -381 101 -130 389 0
-363 -381 101 130 -389 0
-363 -381 -102 -131 -390 0
-363 -381 -102 131 390 0
-363 -381 102 -131 390 0
-363 -381 102 131 -390 0
-363 -381 -103 -132 -391 0
-363 -381 -103 132 391 0
-363 -381 103 -132 391 0
-363 -381 103 132 -391 0
-363 -381 -104 -133 -392 0
-363 -381 -104 133 392 0
-363 -381 104 -133 392 0
-363 -381 104 133 -392 0
-363 -381 -105 -134 -393 0
-363 -381 -105 134 393 0
-363 -381 105 -134 393 0
-363 -381 105 134 -393 0
-363 -381 -106 -135 -394 0
-363 -381 -106 135 394 0
-363 -381 106 -135 394 0
-363 -381 106 135 -394 0
-363 -381 -107 -136 -395 0
-363 -381 -107 136 395 0
-363 -381 107 -136 395 0
-363 -381 107 136 -395 0
-363 -381 -108 -137 -396 0
-363 -381 -108 137 396 0
-363 -381 108 -137 396 0
-363 -381 108 137 -396 0
-363 -382 -100 -160 -388 0
-363 -382 -100 160 388 0
-363 -382 100 -160 388 0
-363 -382 100 160 -388 0
-363 -382 -101 -161 -389 0
-363 -382 -101 161 389 0
-363 -382 101 -161 389 0
-363 -382 101 161 -389 0
-363 -382 -102 -162 -390 0
-363 -382 -102 162 390 0
-363 -382 102 -162 390 0
-363 -382 102 162 -390 0
-363 -382 -103 -163 -391 0
-363 -382 -103 163 391 0
-363 -382 103 -163 391 0
-363 -382 103 163 -391 0
-363 -382 -104 -164 -392 0
-363 -382 -104 164 392 0
-363 -382 104 -164 392 0
-363 -382 104 164 -392 0
-363 -382 -105 -165 -393 0
-363 -382 -105 165 393 0
-363 -382 105 -165 393 0
-363 -382 105 165 -393 0
-363 -382 -106 -166 -394 0
-363 -382 -106 166 394 0
-363 -382 106 -166 394 0
-363 -382 106 166 -394 0
-363 -382 -107 -167 -395 0
-363 -382 -107 167 395 0
-363 -382 107 -167 395 0
-363 -382 107 167 -395 0
-363 -382 -108 -168 -396 0
-363 -382 -108 168 396 0
-363 -382 108 -168 396 0
-363 -382 108 168 -396 0
-363 -383 -100 -193 -388 0
-363 -383 -100 193 388 0
-363 -383 100 -193 388 0
-363 -383 100 193 -388 0
-363 -383 -101 -194 -389 0
-363 -383 -101 194 389 0
-363 -383 101 -194 389 0
-363 -383 101 194 -389 0
-363 -383 -102 -195 -390 0
-363 -383 -102 195 390 0
-363 -383 102 -195 390 0
-363 -383 102 195 -390 0
-363 -383 -103 -196 -391 0
-363 -383 -103 196 391 0
-363 -383 103 -196 391 0
-363 -383 103 196 -391 0
-363 -383 -104 -197 -392 0
-363 -383 -104 197 392 0
-363 -383 104 -197 392 0
-363 -383 104 197 -392 0
-363 -383 -105 -198 -393 0
-363 -383 -105 198 393 0
-363 -383 105 -198 393 0
-363 -383 105 198 -393 0
-363 -383 -106 -199 -394 0
-363 -383 -106 199 394 0
-363 -383 106 -199 394 0
-363 -383 106 199 -394 0
-363 -383 -107 -200 -395 0
-363 -383 -107 200 395 0
-363 -383 107 -200 395 0
-363 -383 107 200 -395 0
-363 -383 -108 -201 -396 0
-363 -383 -108 201 396 0
-363 -383 108 -201 396 0
-363 -383 108 201 -396 0
-363 -384 -100 -228 -388 0
-363 -384 -100 228 388 0
-363 -384 100 -228 388 0
-363 -384 100 228 -388 0
-363 -384 -101 -229 -389 0
-363 -384 -101 229 389 0
-363 -384 101 -229 389 0
-363 -384 101 229 -389 0
-363 -384 -102 -230 -390 0
-363 -384 -102 230 390 0
-363 -384 102 -230 390 0
-363 -384 102 230 -390 0
-363 -384 -103 -231 -391 0
-363 -384 -103 231 391 0
-363 -384 103 -231 391 0
-363 -384 103 231 -391 0
-363 -384 -104 -232 -392 0
-363 -384 -104 232 392 0
-363 -384 104 -232 392 0
-363 -384 104 232 -392 0
-363 -384 -105 -233 -393 0
-363 -384 -105 233 393 0
-363 -384 105 -233 393 0
-363 -384 105 233 -393 0
-363 -384 -106 -234 -394 0
-363 -384 -106 234 394 0
-363 -384 106 -234 394 0
-363 -384 106 234 -394 0
-363 -384 -107 -235 -395 0
-363 -384 -107 235 395 0
-363 -384 107 -235 395 0
-363 -384 107 235 -395 0
-363 -384 -108 -236 -396 0
-363 -384 -108 236 396 0
-363 -384 108 -236 396 0
-363 -384 108 236 -396 0
-363 -385 -100 -265 -388 0
-363 -385 -100 265 388 0
-363 -385 100 -265 388 0
-363 -385 100 265 -388 0
-363 -385 -101 -266 -389 0
-363 -385 -101 266 389 0
-363 -385 101 -266 389 0
-363 -385 101 266 -389 0
-363 -385 -102 -267 -390 0
-363 -385 -102 267 390 0
-363 -385 102 -267 390 0
-363 -385 102 267 -390 0
-363 -385 -103 -268 -391 0
-363 -385 -103 268 391 0
-363 -385 103 -268 391 0
-363 -385 103 268 -391 0
-363 -385 -104 -269 -392 0
-363 -385 -104 269 392 0
-363 -385 104 -269 392 0
-363 -385 104 269 -392 0
-363 -385 -105 -270 -393 0
-363 -385 -105 270 393 0
-363 -385 105 -270 393 0
-363 -385 105 270 -393 0
-363 -385 -106 -271 -394 0
-363 -385 -106 271 394 0
-363 -385 106 -271 394 0
-363 -385 106 271 -394 0
-363 -385 -107 -272 -395 0
-363 -385 -107 272 395 0
-363 -385 107 -272 395 0
-363 -385 107 272 -395 0
-363 -385 -108 -273 -396 0
-363 -385 -108 273 396 0
-363 -385 108 -273 396 0
-363 -385 108 273 -396 0
-363 -386 -100 -304 -388 0
-363 -386 -100 304 388 0
-363 -386 100 -304 388 0
-363 -386 100 304 -388 0
-363 -386 -101 -305 -389 0
-363 -386 -101 305 389 0
-363 -386 101 -305 389 0
-363 -386 101 305 -389 0
-363 -386 -102 -306 -390 0
-363 -386 -102 306 390 0
-363 -386 102 -306 390 0
-363 -386 102 306 -390 0
-363 -386 -103 -307 -391 0
-363 -386 -103 307 391 0
-363 -386 103 -307 391 0
-363 -386 103 307 -391 0
-363 -386 -104 -308 -392 0
-363 -386 -104 308 392 0
-363 -386 104 -308 392 0
-363 -386 104 308 -392 0
-363 -386 -105 -309 -393 0
-363 -386 -105 309 393 0
-363 -386 105 -309 393 0
-363 -386 105 309 -393 0
-363 -386 -106 -310 -394 0
-363 -386 -106 310 394 0
-363 -386 106 -310 394 0
-363 -386 106 310 -394 0
-363 -386 -107 -311 -395 0
-363 -386 -107 311 395 0
-363 -386 107 -311 395 0
-363 -386 107 311 -395 0
-363 -386 -108 -312 -396 0
-363 -386 -108 312 396 0
-363 -386 108 -312 396 0
-363 -386 108 312 -396 0
-363 -387 -100 -345 -388 0
-363 -387 -100 345 388 0
-363 -387 100 -345 388 0
-363 -387 100 345 -388 0
-363 -387 -101 -346 -389 0
-363 -387 -101 346 389 0
-363 -387 101 -346 389 0
-363 -387 101 346 -389 0
-363 -387 -102 -347 -390 0
-363 -387 -102 347 390 0
-363 -387 102 -347 390 0
-363 -387 102 347 -390 0
-363 -387 -103 -348 -391 0
-363 -387 -103 348 391 0
-363 -387 103 -348 391 0
-363 -387 103 348 -391 0
-363 -387 -104 -349 -392 0
-363 -387 -104 349 392 0
-363 -387 104 -349 392 0
-363 -387 104 349 -392 0
-363 -387 -105 -350 -393 0
-363 -387 -105 350 393 0
-363 -387 105 -350 393 0
-363 -387 105 350 -393 0
-363 -387 -106 -351 -394 0
-363 -387 -106 351 394 0
-363 -387 106 -351 394 0
-363 -387 106 351 -394 0
-363 -387 -107 -352 -395 0
-363 -387 -107 352 395 0
-363 -387 107 -352 395 0
-363 -387 107 352 -395 0
-363 -387 -108 -353 -396 0
-363 -387 -108 353 396 0
-363 -387 108 -353 396 0
-363 -387 108 353 -396 0
-364 -382 -129 -160 -388 0
-364 -382 -129 160 388 0
-364 -382 129 -160 388 0
-364 -382 129 160 -388 0
-364 -382 -130 -161 -389 0
-364 -382 -130 161 389 0
-364 -382 130 -161 389 0
-364 -382 130 161 -389 0
-364 -382 -131 -162 -390 0
-364 -382 -131 162 390 0
-364 -382 131 -162 390 0
-364 -382 131 162 -390 0
-364 -382 -132 -163 -391 0
-364 -382 -132 163 391 0
-364 -382 132 -163 391 0
-364 -382 132 163 -391 0
-364 -382 -133 -164 -392 0
-364 -382 -133 164 392 0
-364 -382 133 -164 392 0
-364 -382 133 164 -392 0
-364 -382 -134 -165 -393 0
-364 -382 -134 165 393 0
-364 -382 134 -165 393 0
-364 -382 134 165 -393 0
-364 -382 -135 -166 -394 0
-364 -382 -135 166 394 0
-364 -382 135 -166 394 0
-364 -382 135 166 -394 0
-364 -382 -136 -167 -395 0
-364 -382 -136 167 395 0
-364 -382 136 -167 395 0
-364 -382 136 167 -395 0
-364 -382 -137 -168 -396 0
-364 -382 -137 168 396 0
-364 -382 137 -168 396 0
-364 -382 137 168 -396 0
-364 -383 -129 -193 -388 0
-364 -383 -129 193 388 0
-364 -383 129 -193 388 0
-364 -383 129 193 -388 0
-364 -383 -130 -194 -389 0
-364 -383 -130 194 389 0
-364 -383 130 -194 389 0
-364 -383 130 194 -389 0
-364 -383 -131 -195 -390 0
-364 -383 -131 195 390 0
-364 -383 131 -195 390 0
-364 -383 131 195 -390 0
-364 -383 -132 -196 -391 0
-364 -383 -132 196 391 0
-364 -383 132 -196 391 0
-364 -383 132 196 -391 0
-364 -383 -133 -197 -392 0
-364 -383 -133 197 392 0
-364 -383 133 -197 392 0
-364 -383 133 197 -392 0
-364 -383 -134 -198 -393 0
-364 -383 -134 198 393 0
-364 -383 134 -198 393 0
-364 -383 134 198 -393 0
-364 -383 -135 -199 -394 0
-364 -383 -135 199 394 0
-364 -383 135 -199 394 0
-364 -383 135 199 -394 0
-364 -383 -136 -200 -395 0
-364 -383 -136 200 395 0
-364 -383 136 -200 395 0
-364 -383 136 200 -395 0
-364 -383 -137 -201 -396 0
-364 -383 -137 201 396 0
-364 -383 137 -201 396 0
-364 -383 137 201 -396 0
-364 -384 -129 -228 -388 0
-364 -384 -129 228 388 0
-364 -384 129 -228 388 0
-364 -384 129 228 -388 0
-364 -384 -130 -229 -389 0
-364 -384 -130 229 389 0
-364 -384 130 -229 389 0
-364 -384 130 229 -389 0
-364 -384 -131 -230 -390 0
-364 -384 -131 230 390 0
-364 -384 131 -230 390 0
-364 -384 131 230 -390 0
-364 -384 -132 -231 -391 0
-364 -384 -132 231 391 0
-364 -384 132 -231 391 0
-364 -384 132 231 -391 0
-364 -384 -133 -232 -392 0
-364 -384 -133 232 392 0
-364 -384 133 -232 392 0
-364 -384 133 232 -392 0
-364 -384 -134 -233 -393 0
-364 -384 -134 233 393 0
-364 -384 134 -233 393 0
-364 -384 134 233 -393 0
-364 -384 -135 -234 -394 0
-364 -384 -135 234 394 0
-364 -384 135 -234 394 0
-364 -384 135 234 -394 0
-364 -384 -136 -235 -395 0
-364 -384 -136 235 395 0
-364 -384 136 -235 395 0
-364 -384 136 235 -395 0
-364 -384 -137 -236 -396 0
-364 -384 -137 236 396 0
-364 -384 137 -236 396 0
-364 -384 137 236 -396 0
-364 -385 -129 -265 -388 0
-364 -385 -129 265 388 0
-364 -385 129 -265 388 0
-364 -385 129 265 -388 0
-364 -385 -130 -266 -389 0
-364 -385 -130 266 389 0
-364 -385 130 -266 389 0
-364 -385 130 266 -389 0
-364 -385 -131 -267 -390 0
-364 -385 -131 267 390 0
-364 -385 131 -267 390 0
-364 -385 131 267 -390 0
-364 -385 -132 -268 -391 0
-364 -385 -132 268 391 0
-364 -385 132 -268 391 0
-364 -385 132 268 -391 0
-364 -385 -133 -269 -392 0
-364 -385 -133 269 392 0
-364 -385 133 -269 392 0
-364 -385 133 269 -392 0
-364 -385 -134 -270 -393 0
-364 -385 -134 270 393 0
-364 -385 134 -270 393 0
-364 -385 134 270 -393 0
-364 -385 -135 -271 -394 0
-364 -385 -135 271 394 0
-364 -385 135 -271 394 0
-364 -385 135 271 -394 0
-364 -385 -136 -272 -395 0
-364 -385 -136 272 395 0
-364 -385 136 -272 395 0
-364 -385 136 272 -395 0
-364 -385 -137 -273 -396 0
-364 -385 -137 273 396 0
-364 -385 137 -273 396 0
-364 -385 137 273 -396 0
-364 -386 -129 -304 -388 0
-364 -386 -129 304 388 0
-364 -386 129 -304 388 0
-364 -386 129 304 -388 0
-364 -386 -130 -305 -389 0
-364 -386 -130 305 389 0
-364 -386 130 -305 389 0
-364 -386 130 305 -389 0
-364 -386 -131 -306 -390 0
-364 -386 -131 306 390 0
-364 -386 131 -306 390 0
-364 -386 131 306 -390 0
-364 -386 -132 -307 -391 0
-364 -386 -132 307 391 0
-364 -386 132 -307 391 0
-364 -386 132 307 -391 0
-364 -386 -133 -308 -392 0
-364 -386 -133 308 392 0
-364 -386 133 -308 392 0
-364 -386 133 308 -392 0
-364 -386 -134 -309 -393 0
-364 -386 -134 309 393 0
-364 -386 134 -309 393 0
-364 -386 134 309 -393 0
-364 -386 -135 -310 -394 0
-364 -386 -135 310 394 0
-364 -386 135 -310 394 0
-364 -386 135 310 -394 0
-364 -386 -136 -311 -395 0
-364 -386 -136 311 395 0
-364 -386 136 -311 395 0
-364 -386 136 311 -395 0
-364 -386 -137 -312 -396 0
-364 -386 -137 312 396 0
-364 -386 137 -312 396 0
-364 -386 137 312 -396 0
-364 -387 -129 -345 -388 0
-364 -387 -129 345 388 0
-364 -387 129 -345 388 0
-364 -387 129 345 -388 0
-364 -387 -130 -346 -389 0
-364 -387 -130 346 389 0
-364 -387 130 -346 389 0
-364 -387 130 346 -389 0
-364 -387 -131 -347 -390 0
-364 -387 -131 347 390 0
-364 -387 131 -347 390 0
-364 -387 131 347 -390 0
-364 -387 -132 -348 -391 0
-364 -387 -132 348 391 0
-364 -387 132 -348 391 0
-364 -387 132 348 -391 0
-364 -387 -133 -349 -392 0
-364 -387 -133 349 392 0
-364 -387 133 -349 392 0
-364 -387 133 349 -392 0
-364 -387 -134 -350 -393 0
-364 -387 -134 350 393 0
-364 -387 134 -350 393 0
-364 -387 134 350 -393 0
-364 -387 -135 -351 -394 0
-364 -387 -135 351 394 0
-364 -387 135 -351 394 0
-364 -387 135 351 -394 0
-364 -387 -136 -352 -395 0
-364 -387 -136 352 395 0
-364 -387 136 -352 395 0
-364 -387 136 352 -395 0
-364 -387 -137 -353 -396 0
-364 -387 -137 353 396 0
-364 -387 137 -353 396 0
-364 -387 137 353 -396 0
-365 -383 -160 -193 -388 0
-365 -383 -160 193 388 0
-365 -383 160 -193 388 0
-365 -383 160 193 -388 0
-365 -383 -161 -194 -389 0
-365 -383 -161 194 389 0
-365 -383 161 -194 389 0
-365 -383 161 194 -389 0
-365 -383 -162 -195 -390 0
-365 -383 -162 195 390 0
-365 -383 162 -195 390 0
-365 -383 162 195 -390 0
-365 -383 -163 -196 -391 0
-365 -383 -163 196 391 0
-365 -383 163 -196 391 0
-365 -383 163 196 -391 0
-365 -383 -164 -197 -392 0
-365 -383 -164 197 392 0
-365 -383 164 -197 392 0
-365 -383 164 197 -392 0
-365 -383 -165 -198 -393 0
-365 -383 -165 198 393 0
-365 -383 165 -198 393 0
-365 -383 165 198 -393 0
-365 -383 -166 -199 -394 0
-365 -383 -166 199 394 0
-365 -383 166 -199 394 0
-365 -383 166 199 -394 0
-365 -383 -167 -200 -395 0
-365 -383 -167 200 395 0
-365 -383 167 -200 395 0
-365 -383 167 200 -395 0
-365 -383 -168 -201 -396 0
-365 -383 -168 201 396 0
-365 -383 168 -201 396 0
-365 -383 168 201 -396 0
-365 -384 -160 -228 -388 0
-365 -384 -160 228 388 0
-365 -384 160 -228 388 0
-365 -384 160 228 -388 0
-365 -384 -161 -229 -389 0
-365 -384 -161 229 389 0
-365 -384 161 -229 389 0
-365 -384 161 229 -389 0
-365 -384 -162 -230 -390 0
-365 -384 -162 230 390 0
-365 -384 162 -230 390 0
-365 -384 162 230 -390 0
-365 -384 -163 -231 -391 0
-365 -384 -163 231 391 0
-365 -384 163 -231 391 0
-365 -384 163 231 -391 0
-365 -384 -164 -232 -392 0
-365 -384 -164 232 392 0
-365 -384 164 -232 392 0
-365 -384 164 232 -392 0
-365 -384 -165 -233 -393 0
-365 -384 -165 233 393 0
-365 -384 165 -233 393 0
-365 -384 165 233 -393 0
-365 -384 -166 -234 -394 0
-365 -384 -166 234 394 0
-365 -384 166 -234 394 0
-365 -384 166 234 -394 0
-365 -384 -167 -235 -395 0
-365 -384 -167 235 395 0
-365 -384 167 -235 395 0
-365 -384 167 235 -395 0
-365 -384 -168 -236 -396 0
-365 -384 -168 236 396 0
-365 -384 168 -236 396 0
-365 -384 168 236 -396 0
-365 -385 -160 -265 -388 0
-365 -385 -160 265 388 0
-365 -385 160 -265 388 0
-365 -385 160 265 -388 0
-365 -385 -161 -266 -389 0
-365 -385 -161 266 389 0
-365 -385 161 -266 389 0
-365 -385 161 266 -389 0
-365 -385 -162 -267 -390 0
-365 -385 -162 267 390 0
-365 -385 162 -267 390 0
-365 -385 162 267 -390 0
-365 -385 -163 -268 -391 0
-365 -385 -163 268 391 0
-365 -385 163 -268 391 0
-365 -385 163 268 -391 0
-365 -385 -164 -269 -392 0
-365 -385 -164 269 392 0
-365 -385 164 -269 392 0
-365 -385 164 269 -392 0
-365 -385 -165 -270 -393 0
-365 -385 -165 270 393 0
-365 -385 165 -270 393 0
-365 -385 165 270 -393 0
-365 -385 -166 -271 -394 0
-365 -385 -166 271 394 0
-365 -385 166 -271 394 0
-365 -385 166 271 -394 0
-365 -385 -167 -272 -395 0
-365 -385 -167 272 395 0
-365 -385 167 -272 395 0
-365 -385 167 272 -395 0
-365 -385 -168 -273 -396 0
-365 -385 -168 273 396 0
-365 -385 168 -273 396 0
-365 -385 168 273 -396 0
-365 -386 -160 -304 -388 0
-365 -386 -160 304 388 0
-365 -386 160 -304 388 0
-365 -386 160 304 -388 0
-365 -386 -161 -305 -389 0
-365 -386 -161 305 389 0
-365 -386 161 -305 389 0
-365 -386 161 305 -389 0
-365 -386 -162 -306 -390 0
-365 -386 -162 306 390 0
-365 -386 162 -306 390 0
-365 -386 162 306 -390 0
-365 -386 -163 -307 -391 0
-365 -386 -163 307 391 0
-365 -386 163 -307 391 0
-365 -386 163 307 -391 0
-365 -386 -164 -308 -392 0
-365 -386 -164 308 392 0
-365 -386 164 -308 392 0
-365 -386 164 308 -392 0
-365 -386 -165 -309 -393 0
-365 -386 -165 309 393 0
-365 -386 165 -309 393 0
-365 -386 165 309 -393 0
-365 -386 -166 -310 -394 0
-365 -386 -166 310 394 0
-365 -386 166 -310 394 0
-365 -386 166 310 -394 0
-365 -386 -167 -311 -395 0
-365 -386 -167 311 395 0
-365 -386 167 -311 395 0
-365 -386 167 311 -395 0
-365 -386 -168 -312 -396 0
-365 -386 -168 312 396 0
-365 -386 168 -312 396 0
-365 -386 168 312 -396 0
-365 -387 -160 -345 -388 0
-365 -387 -160 345 388 0
-365 -387 160 -345 388 0
-365 -387 160 345 -388 0
-365 -387 -161 -346 -389 0
-365 -387 -161 346 389 0
-365 -387 161 -346 389 0
-365 -387 161 346 -389 0
-365 -387 -162 -347 -390 0
-365 -387 -162 347 390 0
-365 -387 162 -347 390 0
-365 -387 162 347 -390 0
-365 -387 -163 -348 -391 0
-365 -387 -163 348 391 0
-365 -387 163 -348 391 0
-365 -387 163 348 -391 0
-365 -387 -164 -349 -392 0
-365 -387 -164 349 392 0
-365 -387 164 -349 392 0
-365 -387 164 349 -392 0
-365 -387 -165 -350 -393 0
-365 -387 -165 350 393 0
-365 -387 165 -350 393 0
-365 -387 165 350 -393 0
-365 -387 -166 -351 -394 0
-365 -387 -166 351 394 0
-365 -387 166 -351 394 0
-365 -387 166 351 -394 0
-365 -387 -167 -352 -395 0
-365 -387 -167 352 395 0
-365 -387 167 -352 395 0
-365 -387 167 352 -395 0
-365 -387 -168 -353 -396 0
-365 -387 -168 353 396 0
-365 -387 168 -353 396 0
-365 -387 168 353 -396 0
-366 -384 -193 -228 -388 0
-366 -384 -193 228 388 0
-366 -384 193 -228 388 0
-366 -384 193 228 -388 0
-366 -384 -194 -229 -389 0
-366 -384 -194 229 389 0
-366 -384 194 -229 389 0
-366 -384 194 229 -389 0
-366 -384 -195 -230 -390 0
-366 -384 -195 230 390 0
-366 -384 195 -230 390 0
-366 -384 195 230 -390 0
-366 -384 -196 -231 -391 0
-366 -384 -196 231 391 0
-366 -384 196 -231 391 0
-366 -384 196 231 -391 0
-366 -384 -197 -232 -392 0
-366 -384 -197 232 392 0
-366 -384 197 -232 392 0
-366 -384 197 232 -392 0
-366 -384 -198 -233 -393 0
-366 -384 -198 233 393 0
-366 -384 198 -233 393 0
-366 -384 198 233 -393 0
-366 -384 -199 -234 -394 0
-366 -384 -199 234 394 0
-366 -384 199 -234 394 0
-366 -384 199 234 -394 0
-366 -384 -200 -235 -395 0
-366 -384 -200 235 395 0
-366 -384 200 -235 395 0
-366 -384 200 235 -395 0
-366 -384 -201 -236 -396 0
-366 -384 -201 236 396 0
-366 -384 201 -236 396 0
-366 -384 201 236 -396 0
-366 -385 -193 -265 -388 0
-366 -385 -193 265 388 0
-366 -385 193 -265 388 0
-366 -385 193 265 -388 0
-366 -385 -194 -266 -389 0
-366 -385 -194 266 389 0
-366 -385 194 -266 389 0
-366 -385 194 266 -389 0
-366 -385 -195 -267 -390 0
-366 -385 -195 267 390 0
-366 -385 195 -267 390 0
-366 -385 195 267 -390 0
-366 -385 -196 -268 -391 0
-366 -385 -196 268 391 0
-366 -385 196 -268 391 0
-366 -385 196 268 -391 0
-366 -385 -197 -269 -392 0
-366 -385 -197 269 392 0
-366 -385 197 -269 392 0
-366 -385 197 269 -392 0
-366 -385 -198 -270 -393 0
-366 -385 -198 270 393 0
-366 -385 198 -270 393 0
-366 -385 198 270 -393 0
-366 -385 -199 -271 -394 0
-366 -385 -199 271 394 0
-366 -385 199 -271 394 0
-366 -385 199 271 -394 0
-366 -385 -200 -272 -395 0
-366 -385 -200 272 395 0
-366 -385 200 -272 395 0
-366 -385 200 272 -395 0
-366 -385 -201 -273 -396 0
-366 -385 -201 273 396 0
-366 -385 201 -273 396 0
-366 -385 201 273 -396 0
-366 -386 -193 -304 -388 0
-366 -386 -193 304 388 0
-366 -386 193 -304 388 0
-366 -386 193 304 -388 0
-366 -386 -194 -305 -389 0
-366 -386 -194 305 389 0
-366 -386 194 -305 389 0
-366 -386 194 305 -389 0
-366 -386 -195 -306 -390 0
-366 -386 -195 306 390 0
-366 -386 195 -306 390 0
-366 -386 195 306 -390 0
-366 -386 -196 -307 -391 0
-366 -386 -196 307 391 0
-366 -386 196 -307 391 0
-366 -386 196 307 -391 0
-366 -386 -197 -308 -392 0
-366 -386 -197 308 392 0
-366 -386 197 -308 392 0
-366 -386 197 308 -392 0
-366 -386 -198 -309 -393 0
-366 -386 -198 309 393 0
-366 -386 198 -309 393 0
-366 -386 198 309 -393 0
-366 -386 -199 -310 -394 0
-366 -386 -199 310 394 0
-366 -386 199 -310 394 0
-366 -386 199 310 -394 0
-366 -386 -200 -311 -395 0
-366 -386 -200 311 395 0
-366 -386 200 -311 395 0
-366 -386 200 311 -395 0
-366 -386 -201 -312 -396 0
-366 -386 -201 312 396 0
-366 -386 201 -312 396 0
-366 -386 201 312 -396 0
-366 -387 -193 -345 -388 0
-366 -387 -193 345 388 0
-366 -387 193 -345 388 0
-366 -387 193 345 -388 0
-366 -387 -194 -346 -389 0
-366 -387 -194 346 389 0
-366 -387 194 -346 389 0
-366 -387 194 346 -389 0
-366 -387 -195 -347 -390 0
-366 -387 -195 347 390 0
-366 -387 195 -347 390 0
-366 -387 195 347 -390 0
-366 -387 -196 -348 -391 0
-366 -387 -196 348 391 0
-366 -387 196 -348 391 0
-366 -387 196 348 -391 0
-366 -387 -197 -349 -392 0
-366 -387 -197 349 392 0
-366 -387 197 -349 392 0
-366 -387 197 349 -392 0
-366 -387 -198 -350 -393 0
-366 -387 -198 350 393 0
-366 -387 198 -350 393 0
-366 -387 198 350 -393 0
-366 -387 -199 -351 -394 0
-366 -387 -199 351 394 0
-366 -387 199 -351 394 0
-366 -387 199 351 -394 0
-366 -387 -200 -352 -395 0
-366 -387 -200 352 395 0
-366 -387 200 -352 395 0
-366 -387 200 352 -395 0
-366 -387 -201 -353 -396 0
-366 -387 -201 353 396 0
-366 -387 201 -353 396 0
-366 -387 201 353 -396 0
-367 -385 -228 -265 -388 0
-367 -385 -228 265 388 0
-367 -385 228 -265 388 0
-367 -385 228 265 -388 0
-367 -385 -229 -266 -389 0
-367 -385 -229 266 389 0
-367 -385 229 -266 389 0
-367 -385 229 266 -389 0
-367 -385 -230 -267 -390 0
-367 -385 -230 267 390 0
-367 -385 230 -267 390 0
-367 -385 230 267 -390 0
-367 -385 -231 -268 -391 0
-367 -385 -231 268 391 0
-367 -385 231 -268 391 0
-367 -385 231 268 -391 0
-367 -385 -232 -269 -392 0
-367 -385 -232 269 392 0
-367 -385 232 -269 392 0
-367 -385 232 269 -392 0
-367 -385 -233 -270 -393 0
-367 -385 -233 270 393 0
-367 -385 233 -270 393 0
-367 -385 233 270 -393 0
-367 -385 -234 -271 -394 0
-367 -385 -234 271 394 0
-367 -385 234 -271 394 0
-367 -385 234 271 -394 0
-367 -385 -235 -272 -395 0
-367 -385 -235 272 395 0
-367 -385 235 -272 395 0
-367 -385 235 272 -395 0
-367 -385 -236 -273 -396 0
-367 -385 -236 273 396 0
-367 -385 236 -273 396 0
-367 -385 236 273 -396 0
-367 -386 -228 -304 -388 0
-367 -386 -228 304 388 0
-367 -386 228 -304 388 0
-367 -386 228 304 -388 0
-367 -386 -229 -305 -389 0
-367 -386 -229 305 389 0
-367 -386 229 -305 389 0
-367 -386 229 305 -389 0
-367 -386 -230 -306 -390 0
-367 -386 -230 306 390 0
-367 -386 230 -306 390 0
-367 -386 230 306 -390 0
-367 -386 -231 -307 -391 0
-367 -386 -231 307 391 0
-367 -386 231 -307 391 0
-367 -386 231 307 -391 0
-367 -386 -232 -308 -392 0
-367 -386 -232 308 392 0
-367 -386 232 -308 392 0
-367 -386 232 308 -392 0
-367 -386 -233 -309 -393 0
-367 -386 -233 309 393 0
-367 -386 233 -309 393 0
-367 -386 233 309 -393 0
-367 -386 -234 -310 -394 0
-367 -386 -234 310 394 0
-367 -386 234 -310 394 0
-367 -386 234 310 -394 0
-367 -386 -235 -311 -395 0
-367 -386 -235 311 395 0
-367 -386 235 -311 395 0
-367 -386 235 311 -395 0
-367 -386 -236 -312 -396 0
-367 -386 -236 312 396 0
-367 -386 236 -312 396 0
-367 -386 236 312 -396 0
-367 -387 -228 -345 -388 0
-367 -387 -228 345 388 0
-367 -387 228 -345 388 0
-367 -387 228 345 -388 0
-367 -387 -229 -346 -389 0
-367 -387 -229 346 389 0
-367 -387 229 -346 389 0
-367 -387 229 346 -389 0
-367 -387 -230 -347 -390 0
-367 -387 -230 347 390 0
-367 -387 230 -347 390 0
-367 -387 230 347 -390 0
-367 -387 -231 -348 -391 0
-367 -387 -231 348 391 0
-367 -387 231 -348 391 0
-367 -387 231 348 -391 0
-367 -387 -232 -349 -392 0
-367 -387 -232 349 392 0
-367 -387 232 -349 392 0
-367 -387 232 349 -392 0
-367 -387 -233 -350 -393 0
-367 -387 -233 350 393 0
-367 -387 233 -350 393 0
-367 -387 233 350 -393 0
-367 -387 -234 -351 -394 0
-367 -387 -234 351 394 0
-367 -387 234 -351 394 0
-367 -387 234 351 -394 0
-367 -387 -235 -352 -395 0
-367 -387 -235 352 395 0
-367 -387 235 -352 395 0
-367 -387 235 352 -395 0
-367 -387 -236 -353 -396 0
-367 -387 -236 353 396 0
-367 -387 236 -353 396 0
-367 -387 236 353 -396 0
-368 -386 -265 -304 -388 0
-368 -386 -265 304 388 0
-368 -386 265 -304 388 0
-368 -386 265 304 -388 0
-368 -386 -266 -305 -389 0
-368 -386 -266 305 389 0
-368 -386 266 -305 389 0
-368 -386 266 305 -389 0
-368 -386 -267 -306 -390 0
-368 -386 -267 306 390 0
-368 -386 267 -306 390 0
-368 -386 267 306 -390 0
-368 -386 -268 -307 -391 0
-368 -386 -268 307 391 0
-368 -386 268 -307 391 0
-368 -386 268 307 -391 0
-368 -386 -269 -308 -392 0
-368 -386 -269 308 392 0
-368 -386 269 -308 392 0
-368 -386 269 308 -392 0
-368 -386 -270 -309 -393 0
-368 -386 -270 309 393 0
-368 -386 270 -309 393 0
-368 -386 270 309 -393 0
-368 -386 -271 -310 -394 0
-368 -386 -271 310 394 0
-368 -386 271 -310 394 0
-368 -386 271 310 -394 0
-368 -386 -272 -311 -395 0
-368 -386 -272 311 395 0
-368 -386 272 -311 395 0
-368 -386 272 311 -395 0
-368 -386 -273 -312 -396 0
-368 -386 -273 312 396 0
-368 -386 273 -312 396 0
-368 -386 273 312 -396 0
-368 -387 -265 -345 -388 0
-368 -387 -265 345 388 0
-368 -387 265 -345 388 0
-368 -387 265 345 -388 0
-368 -387 -266 -346 -389 0
-368 -387 -266 346 389 0
-368 -387 266 -346 389 0
-368 -387 266 346 -389 0
-368 -387 -267 -347 -390 0
-368 -387 -267 347 390 0
-368 -387 267 -347 390 0
-368 -387 267 347 -390 0
-368 -387 -268 -348 -391 0
-368 -387 -268 348 391 0
-368 -387 268 -348 391 0
-368 -387 268 348 -391 0
-368 -387 -269 -349 -392 0
-368 -387 -269 349 392 0
-368 -387 269 -349 392 0
-368 -387 269 349 -392 0
-368 -387 -270 -350 -393 0
-368 -387 -270 350 393 0
-368 -387 270 -350 393 0
-368 -387 270 350 -393 0
-368 -387 -271 -351 -394 0
-368 -387 -271 351 394 0
-368 -387 271 -351 394 0
-368 -387 271 351 -394 0
-368 -387 -272 -352 -395 0
-368 -387 -272 352 395 0
-368 -387 272 -352 395 0
-368 -387 272 352 -395 0
-368 -387 -273 -353 -396 0
-368 -387 -273 353 396 0
-368 -387 273 -353 396 0
-368 -387 273 353 -396 0
-369 -387 -304 -345 -388 0
-369 -387 -304 345 388 0
-369 -387 304 -345 388 0
-369 -387 304 345 -388 0
-369 -387 -305 -346 -389 0
-369 -387 -305 346 389 0
-369 -387 305 -346 389 0
-369 -387 305 346 -389 0
-369 -387 -306 -347 -390 0
-369 -387 -306 347 390 0
-369 -387 306 -347 390 0
-369 -387 306 347 -390 0
-369 -387 -307 -348 -391 0
-369 -387 -307 348 391 0
-369 -387 307 -348 391 0
-369 -387 307 348 -391 0
-369 -387 -308 -349 -392 0
-369 -387 -308 349 392 0
-369 -387 308 -349 392 0
-369 -387 308 349 -392 0
-369 -387 -309 -350 -393 0
-369 -387 -309 350 393 0
-369 -387 309 -350 393 0
-369 -387 309 350 -393 0
-369 -387 -310 -351 -394 0
-369 -387 -310 351 394 0
-369 -387 310 -351 394 0
-369 -387 310 351 -394 0
-369 -387 -311 -352 -395 0
-369 -387 -311 352 395 0
-369 -387 311 -352 395 0
-369 -387 311 352 -395 0
-369 -387 -312 -353 -396 0
-369 -387 -312 353 396 0
-369 -387 312 -353 396 0
-369 -387 312 353 -396 0
388 389 390 391 392 393 394 395 396 0
397 398 399 400 401 402 403 404 405 406 407 408 409 410 411 412 413 414 0
-397 -398 0
-397 -399 0
-397 -400 0
-397 -401 0
-397 -402 0
-397 -403 0
-397 -404 0
-397 -405 0
-397 -406 0
-397 -407 0
-397 -408 0
-397 -409 0
-397 -410 0
-397 -411 0
-397 -412 0
-397 -413 0
-397 -414 0
-398 -399 0
-398 -400 0
-398 -401 0
-398 -402 0
-398 -403 0
-398 -404 0
-398 -405 0
-398 -406 0
-398 -407 0
-398 -408 0
-398 -409 0
-398 -410 0
-398 -411 0
-398 -412 0
-398 -413 0
-398 -414 0
-399 -400 0
-399 -401 0
-399 -402 0
-399 -403 0
-399 -404 0
-399 -405 0
-399 -406 0
-399 -407 0
-399 -408 0
-399 -409 0
-399 -410 0
-399 -411 0
-399 -412 0
-399 -413 0
-399 -414 0
-400 -401 0
-400 -402 0
-400 -403 0
-400 -404 0
-400 -405 0
-400 -406 0
-400 -407 0
-400 -408 0
-400 -409 0
-400 -410 0
-400 -411 0
-400 -412 0
-400 -413 0
-400 -414 0
-401 -402 0
-401 -403 0
-401 -404 0
-401 -405 0
-401 -406 0
-401 -407 0
-401 -408 0
-401 -409 0
-401 -410 0
-401 -411 0
-401 -412 0
-401 -413 0
-401 -414 0
-402 -403 0
-402 -404 0
-402 -405 0
-402 -406 0
-402 -407 0
-402 -408 0
-402 -409 0
-402 -410 0
-402 -411 0
-402 -412 0
-402 -413 0
-402 -414 0
-403 -404 0
-403 -405 0
-403 -406 0
-403 -407 0
-403 -408 0
-403 -409 0
-403 -410 0
-403 -411 0
-403 -412 0
-403 -413 0
-403 -414 0
-404 -405 0
-404 -406 0
-404 -407 0
-404 -408 0
-404 -409 0
-404 -410 0
-404 -411 0
-404 -412 0
-404 -413 0
-404 -414 0
-405 -406 0
-405 -407 0
-405 -408 0
-405 -409 0
-405 -410 0
-405 -411 0
-405 -412 0
-405 -413 0
-405 -414 0
-406 -407 0
-406 -408 0
-406 -409 0
-406 -410 0
-406 -411 0
-406 -412 0
-406 -413 0
-406 -414 0
-407 -408 0
-407 -409 0
-407 -410 0
-407 -411 0
-407 -412 0
-407 -413 0
-407 -414 0
-408 -409 0
-408 -410 0
-408 -411 0
-408 -412 0
-408 -413 0
-408 -414 0
-409 -410 0
-409 -411 0
-409 -412 0
-409 -413 0
-409 -414 0
-410 -411 0
-410 -412 0
-410 -413 0
-410 -414 0
-411 -412 0
-411 -413 0
-411 -414 0
-412 -413 0
-412 -414 0
-413 -414 0
415 416 417 418 419 420 421 422 423 424 425 426 427 428 429 430 431 432 0
-415 -416 0
-415 -417 0
-415 -418 0
-415 -419 0
-415 -420 0
-415 -421 0
-415 -422 0
-415 -423 0
-415 -424 0
-415 -425 0
-415 -426 0
-415 -427 0
-415 -428 0
-415 -429 0
-415 -430 0
-415 -431 0
-415 -432 0
-416 -417 0
-416 -418 0
-416 -419 0
-416 -420 0
-416 -421 0
-416 -422 0
-416 -423 0
-416 -424 0
-416 -425 0
-416 -426 0
-416 -427 0
-416 -428 0
-416 -429 0
-416 -430 0
-416 -431 0
-416 -432 0
-417 -418 0
-417 -419 0
-417 -420 0
-417 -421 0
-417 -422 0
-417 -423 0
-417 -424 0
-417 -425 0
-417 -426 0
-417 -427 0
-417 -428 0
-417 -429 0
-417 -430 0
-417 -431 0
-417 -432 0
-418 -419 0
-418 -420 0
-418 -421 0
-418 -422 0
-418 -423 0
-418 -424 0
-418 -425 0
-418 -426 0
-418 -427 0
-418 -428 0
-418 -429 0
-418 -430 0
-418 -431 0
-418 -432 0
-419 -420 0
-419 -421 0
-419 -422 0
-419 -423 0
-419 -424 0
-419 -425 0
-419 -426 0
-419 -427 0
-419 -428 0
-419 -429 0
-419 -430 0
-419 -431 0
-419 -432 0
-420 -421 0
-420 -422 0
-420 -423 0
-420 -424 0
-420 -425 0
-420 -426 0
-420 -427 0
-420 -428 0
-420 -429 0
-420 -430 0
-420 -431 0
-420 -432 0
-421 -422 0
-421 -423 0
-421 -424 0
-421 -425 0
-421 -426 0
-421 -427 0
-421 -428 0
-421 -429 0
-421 -430 0
-421 -431 0
-421 -432 0
-422 -423 0
-422 -424 0
-422 -425 0
-422 -426 0
-422 -427 0
-422 -428 0
-422 -429 0
-422 -430 0
-422 -431 0
-422 -432 0
-423 -424 0
-423 -425 0
-423 -426 0
-423 -427 0
-423 -428 0
-423 -429 0
-423 -430 0
-423 -431 0
-423 -432 0
-424 -425 0
-424 -426 0
-424 -427 0
-424 -428 0
-424 -429 0
-424 -430 0
-424 -431 0
-424 -432 0
-425 -426 0
-425 -427 0
-425 -428 0
-425 -429 0
-425 -430 0
-425 -431 0
-425 -432 0
-426 -427 0
-426 -428 0
-426 -429 0
-426 -430 0
-426 -431 0
-426 -432 0
-427 -428 0
-427 -429 0
-427 -430 0
-427 -431 0
-427 -432 0
-428 -429 0
-428 -430 0
-428 -431 0
-428 -432 0
-429 -430 0
-429 -431 0
-429 -432 0
-430 -431 0
-430 -432 0
-431 -432 0
-397 -415 0
-398 -415 0
-398 -416 0
-399 -415 0
-399 -416 0
-399 -417 0
-400 -415 0
-400 -416 0
-400 -417 0
-400 -418 0
-401 -415 0
-401 -416 0
-401 -417 0
-401 -418 0
-401 -419 0
-402 -415 0
-402 -416 0
-402 -417 0
-402 -418 0
-402 -419 0
-402 -420 0
-403 -415 0
-403 -416 0
-403 -417 0
-403 -418 0
-403 -419 0
-403 -420 0
-403 -421 0
-404 -415 0
-404 -416 0
-404 -417 0
-404 -418 0
-404 -419 0
-404 -420 0
-404 -421 0
-404 -422 0
-405 -415 0
-405 -416 0
-405 -417 0
-405 -418 0
-405 -419 0
-405 -420 0
-405 -421 0
-405 -422 0
-405 -423 0
-406 -415 0
-406 -416 0
-406 -417 0
-406 -418 0
-406 -419 0
-406 -420 0
-406 -421 0
-406 -422 0
-406 -423 0
-406 -424 0
-407 -415 0
-407 -416 0
-407 -417 0
-407 -418 0
-407 -419 0
-407 -420 0
-407 -421 0
-407 -422 0
-407 -423 0
-407 -424 0
-407 -425 0
-408 -415 0
-408 -416 0
-408 -417 0
-408 -418 0
-408 -419 0
-408 -420 0
-408 -421 0
-408 -422 0
-408 -423 0
-408 -424 0
-408 -425 0
-408 -426 0
-409 -415 0
-409 -416 0
-409 -417 0
-409 -418 0
-409 -419 0
-409 -420 0
-409 -421 0
-409 -422 0
-409 -423 0
-409 -424 0
-409 -425 0
-409 -426 0
-409 -427 0
-410 -415 0
-410 -416 0
-410 -417 0
-410 -418 0
-410 -419 0
-410 -420 0
-410 -421 0
-410 -422 0
-410 -423 0
-410 -424 0
-410 -425 0
-410 -426 0
-410 -427 0
-410 -428 0
-411 -415 0
-411 -416 0
-411 -417 0
-411 -418 0
-411 -419 0
-411 -420 0
-411 -421 0
-411 -422 0
-411 -423 0
-411 -424 0
-411 -425 0
-411 -426 0
-411 -427 0
-411 -428 0
-411 -429 0
-412 -415 0
-412 -416 0
-412 -417 0
-412 -418 0
-412 -419 0
-412 -420 0
-412 -421 0
-412 -422 0
-412 -423 0
-412 -424 0
-412 -425 0
-412 -426 0
-412 -427 0
-412 -428 0
-412 -429 0
-412 -430 0
-413 -415 0
-413 -416 0
-413 -417 0
-413 -418 0
-413 -419 0
-413 -420 0
-413 -421 0
-413 -422 0
-413 -423 0
-413 -424 0
-413 -425 0
-413 -426 0
-413 -427 0
-413 -428 0
-413 -429 0
-413 -430 0
-413 -431 0
-414 -415 0
-414 -416 0
-414 -417 0
-414 -418 0
-414 -419 0
-414 -420 0
-414 -421 0
-414 -422 0
-414 -423 0
-414 -424 0
-414 -425 0
-414 -426 0
-414 -427 0
-414 -428 0
-414 -429 0
-414 -430 0
-414 -431 0
-414 -432 0
-397 -416 -1 -10 -433 0
-397 -416 -1 10 433 0
-397 -416 1 -10 433 0
-397 -416 1 10 -433 0
-397 -416 -2 -11 -434 0
-397 -416 -2 11 434 0
-397 -416 2 -11 434 0
-397 -416 2 11 -434 0
-397 -416 -3 -12 -435 0
-397 -416 -3 12 435 0
-397 -416 3 -12 435 0
-397 -416 3 12 -435 0
-397 -416 -4 -13 -436 0
-397 -416 -4 13 436 0
-397 -416 4 -13 436 0
-397 -416 4 13 -436 0
-397 -416 -5 -14 -437 0
-397 -416 -5 14 437 0
-397 -416 5 -14 437 0
-397 -416 5 14 -437 0
-397 -416 -6 -15 -438 0
-397 -416 -6 15 438 0
-397 -416 6 -15 438 0
-397 -416 6 15 -438 0
-397 -416 -7 -16 -439 0
-397 -416 -7 16 439 0
-397 -416 7 -16 439 0
-397 -416 7 16 -439 0
-397 -416 -8 -17 -440 0
-397 -416 -8 17 440 0
-397 -416 8 -17 440 0
-397 -416 8 17 -440 0
-397 -416 -9 -18 -441 0
-397 -416 -9 18 441 0
-397 -416 9 -18 441 0
-397 -416 9 18 -441 0
-397 -417 -1 -19 -433 0
-397 -417 -1 19 433 0
-397 -417 1 -19 433 0
-397 -417 1 19 -433 0
-397 -417 -2 -20 -434 0
-397 -417 -2 20 434 0
-397 -417 2 -20 434 0
-397 -417 2 20 -434 0
-397 -417 -3 -21 -435 0
-397 -417 -3 21 435 0
-397 -417 3 -21 435 0
-397 -417 3 21 -435 0
-397 -417 -4 -22 -436 0
-397 -417 -4 22 436 0
-397 -417 4 -22 436 0
-397 -417 4 22 -436 0
-397 -417 -5 -23 -437 0
-397 -417 -5 23 437 0
-397 -417 5 -23 437 0
-397 -417 5 23 -437 0
-397 -417 -6 -24 -438 0
-397 -417 -6 24 438 0
-397 -417 6 -24 438 0
-397 -417 6 24 -438 0
-397 -417 -7 -25 -439 0
-397 -417 -7 25 439 0
-397 -417 7 -25 439 0
-397 -417 7 25 -439 0
-397 -417 -8 -26 -440 0
-397 -417 -8 26 440 0
-397 -417 8 -26 440 0
-397 -417 8 26 -440 0
-397 -417 -9 -27 -441 0
-397 -417 -9 27 441 0
-397 -417 9 -27 441 0
-397 -417 9 27 -441 0
-397 -418 -1 -28 -433 0
-397 -418 -1 28 433 0
-397 -418 1 -28 433 0
-397 -418 1 28 -433 0
-397 -418 -2 -29 -434 0
-397 -418 -2 29 434 0
-397 -418 2 -29 434 0
-397 -418 2 29 -434 0
-397 -418 -3 -30 -435 0
-397 -418 -3 30 435 0
-397 -418 3 -30 435 0
-397 -418 3 30 -435 0
-397 -418 -4 -31 -436 0
-397 -418 -4 31 436 0
-397 -418 4 -31 436 0
-397 -418 4 31 -436 0
-397 -418 -5 -32 -437 0
-397 -418 -5 32 437 0
-397 -418 5 -32 437 0
-397 -418 5 32 -437 0
-397 -418 -6 -33 -438 0
-397 -418 -6 33 438 0
-397 -418 6 -33 438 0
-397 -418 6 33 -438 0
-397 -418 -7 -34 -439 0
-397 -418 -7 34 439 0
-397 -418 7 -34 439 0
-397 -418 7 34 -439 0
-397 -418 -8 -35 -440 0
-397 -418 -8 35 440 0
-397 -418 8 -35 440 0
-397 -418 8 35 -440 0
-397 -418 -9 -36 -441 0
-397 -418 -9 36 441 0
-397 -418 9 -36 441 0
-397 -418 9 36 -441 0
-397 -419 -1 -37 -433 0
-397 -419 -1 37 433 0
-397 -419 1 -37 433 0
-397 -419 1 37 -433 0
-397 -419 -2 -38 -434 0
-397 -419 -2 38 434 0
-397 -419 2 -38 434 0
-397 -419 2 38 -434 0
-397 -419 -3 -39 -435 0
-397 -419 -3 39 435 0
-397 -419 3 -39 435 0
-397 -419 3 39 -435 0
-397 -419 -4 -40 -436 0
-397 -419 -4 40 436 0
-397 -419 4 -40 436 0
-397 -419 4 40 -436 0
-397 -419 -5 -41 -437 0
-397 -419 -5 41 437 0
-397 -419 5 -41 437 0
-397 -419 5 41 -437 0
-397 -419 -6 -42 -438 0
-397 -419 -6 42 438 0
-397 -419 6 -42 438 0
-397 -419 6 42 -438 0
-397 -419 -7 -43 -439 0
-397 -419 -7 43 439 0
-397 -419 7 -43 439 0
-397 -419 7 43 -439 0
-397 -419 -8 -44 -440 0
-397 -419 -8 44 440 0
-397 -419 8 -44 440 0
-397 -419 8 44 -440 0
-397 -419 -9 -45 -441 0
-397 -419 -9 45 441 0
-397 -419 9 -45 441 0
-397 -419 9 45 -441 0
-397 -420 -1 -46 -433 0
-397 -420 -1 46 433 0
-397 -420 1 -46 433 0
-397 -420 1 46 -433 0
-397 -420 -2 -47 -434 0
-397 -420 -2 47 434 0
-397 -420 2 -47 434 0
-397 -420 2 47 -434 0
-397 -420 -3 -48 -435 0
-397 -420 -3 48 435 0
-397 -420 3 -48 435 0
-397 -420 3 48 -435 0
-397 -420 -4 -49 -436 0
-397 -420 -4 49 436 0
-397 -420 4 -49 436 0
-397 -420 4 49 -436 0
-397 -420 -5 -50 -437 0
-397 -420 -5 50 437 0
-397 -420 5 -50 437 0
-397 -420 5 50 -437 0
-397 -420 -6 -51 -438 0
-397 -420 -6 51 438 0
-397 -420 6 -51 438 0
-397 -420 6 51 -438 0
-397 -420 -7 -52 -439 0
-397 -420 -7 52 439 0
-397 -420 7 -52 439 0
-397 -420 7 52 -439 0
-397 -420 -8 -53 -440 0
-397 -420 -8 53 440 0
-397 -420 8 -53 440 0
-397 -420 8 53 -440 0
-397 -420 -9 -54 -441 0
-397 -420 -9 54 441 0
-397 -420 9 -54 441 0
-397 -420 9 54 -441 0
-397 -421 -1 -55 -433 0
-397 -421 -1 55 433 0
-397 -421 1 -55 433 0
-397 -421 1 55 -433 0
-397 -421 -2 -56 -434 0
-397 -421 -2 56 434 0
-397 -421 2 -56 434 0
-397 -421 2 56 -434 0
-397 -421 -3 -57 -435 0
-397 -421 -3 57 435 0
-397 -421 3 -57 435 0
-397 -421 3 57 -435 0
-397 -421 -4 -58 -436 0
-397 -421 -4 58 436 0
-397 -421 4 -58 436 0
-397 -421 4 58 -436 0
-397 -421 -5 -59 -437 0
-397 -421 -5 59 437 0
-397 -421 5 -59 437 0
-397 -421 5 59 -437 0
-397 -421 -6 -60 -438 0
-397 -421 -6 60 438 0
-397 -421 6 -60 438 0
-397 -421 6 60 -438 0
-397 -421 -7 -61 -439 0
-397 -421 -7 61 439 0
-397 -421 7 -61 439 0
-397 -421 7 61 -439 0
-397 -421 -8 -62 -440 0
-397 -421 -8 62 440 0
-397 -421 8 -62 440 0
-397 -421 8 62 -440 0
-397 -421 -9 -63 -441 0
-397 -421 -9 63 441 0
-397 -421 9 -63 441 0
-397 -421 9 63 -441 0
-397 -422 -1 -64 -433 0
-397 -422 -1 64 433 0
-397 -422 1 -64 433 0
-397 -422 1 64 -433 0
-397 -422 -2 -65 -434 0
-397 -422 -2 65 434 0
-397 -422 2 -65 434 0
-397 -422 2 65 -434 0
-397 -422 -3 -66 -435 0
-397 -422 -3 66 435 0
-397 -422 3 -66 435 0
-397 -422 3 66 -435 0
-397 -422 -4 -67 -436 0
-397 -422 -4 67 436 0
-397 -422 4 -67 436 0
-397 -422 4 67 -436 0
-397 -422 -5 -68 -437 0
-397 -422 -5 68 437 0
-397 -422 5 -68 437 0
-397 -422 5 68 -437 0
-397 -422 -6 -69 -438 0
-397 -422 -6 69 438 0
-397 -422 6 -69 438 0
-397 -422 6 69 -438 0
-397 -422 -7 -70 -439 0
-397 -422 -7 70 439 0
-397 -422 7 -70 439 0
-397 -422 7 70 -439 0
-397 -422 -8 -71 -440 0
-397 -422 -8 71 440 0
-397 -422 8 -71 440 0
-397 -422 8 71 -440 0
-397 -422 -9 -72 -441 0
-397 -422 -9 72 441 0
-397 -422 9 -72 441 0
-397 -422 9 72 -441 0
-397 -423 -1 -73 -433 0
-397 -423 -1 73 433 0
-397 -423 1 -73 433 0
-397 -423 1 73 -433 0
-397 -423 -2 -74 -434 0
-397 -423 -2 74 434 0
-397 -423 2 -74 434 0
-397 -423 2 74 -434 0
-397 -423 -3 -75 -435 0
-397 -423 -3 75 435 0
-397 -423 3 -75 435 0
-397 -423 3 75 -435 0
-397 -423 -4 -76 -436 0
-397 -423 -4 76 436 0
-397 -423 4 -76 436 0
-397 -423 4 76 -436 0
-397 -423 -5 -77 -437 0
-397 -423 -5 77 437 0
-397 -423 5 -77 437 0
-397 -423 5 77 -437 0
-397 -423 -6 -78 -438 0
-397 -423 -6 78 438 0
-397 -423 6 -78 438 0
-397 -423 6 78 -438 0
-397 -423 -7 -79 -439 0
-397 -423 -7 79 439 0
-397 -423 7 -79 439 0
-397 -423 7 79 -439 0
-397 -423 -8 -80 -440 0
-397 -423 -8 80 440 0
-397 -423 8 -80 440 0
-397 -423 8 80 -440 0
-397 -423 -9 -81 -441 0
-397 -423 -9 81 441 0
-397 -423 9 -81 441 0
-397 -423 9 81 -441 0
-397 -424 -1 -100 -433 0
-397 -424 -1 100 433 0
-397 -424 1 -100 433 0
-397 -424 1 100 -433 0
-397 -424 -2 -101 -434 0
-397 -424 -2 101 434 0
-397 -424 2 -101 434 0
-397 -424 2 101 -434 0
-397 -424 -3 -102 -435 0
-397 -424 -3 102 435 0
-397 -424 3 -102 435 0
-397 -424 3 102 -435 0
-397 -424 -4 -103 -436 0
-397 -424 -4 103 436 0
-397 -424 4 -103 436 0
-397 -424 4 103 -436 0
-397 -424 -5 -104 -437 0
-397 -424 -5 104 437 0
-397 -424 5 -104 437 0
-397 -424 5 104 -437 0
-397 -424 -6 -105 -438 0
-397 -424 -6 105 438 0
-397 -424 6 -105 438 0
-397 -424 6 105 -438 0
-397 -424 -7 -106 -439 0
-397 -424 -7 106 439 0
-397 -424 7 -106 439 0
-397 -424 7 106 -439 0
-397 -424 -8 -107 -440 0
-397 -424 -8 107 440 0
-397 -424 8 -107 440 0
-397 -424 8 107 -440 0
-397 -424 -9 -108 -441 0
-397 -424 -9 108 441 0
-397 -424 9 -108 441 0
-397 -424 9 108 -441 0
-397 -425 -1 -129 -433 0
-397 -425 -1 129 433 0
-397 -425 1 -129 433 0
-397 -425 1 129 -433 0
-397 -425 -2 -130 -434 0
-397 -425 -2 130 434 0
-397 -425 2 -130 434 0
-397 -425 2 130 -434 0
-397 -425 -3 -131 -435 0
-397 -425 -3 131 435 0
-397 -425 3 -131 435 0
-397 -425 3 131 -435 0
-397 -425 -4 -132 -436 0
-397 -425 -4 132 436 0
-397 -425 4 -132 436 0
-397 -425 4 132 -436 0
-397 -425 -5 -133 -437 0
-397 -425 -5 133 437 0
-397 -425 5 -133 437 0
-397 -425 5 133 -437 0
-397 -425 -6 -134 -438 0
-397 -425 -6 134 438 0
-397 -425 6 -134 438 0
-397 -425 6 134 -438 0
-397 -425 -7 -135 -439 0
-397 -425 -7 135 439 0
-397 -425 7 -135 439 0
-397 -425 7 135 -439 0
-397 -425 -8 -136 -440 0
-397 -425 -8 136 440 0
-397 -425 8 -136 440 0
-397 -425 8 136 -440 0
-397 -425 -9 -137 -441 0
-397 -425 -9 137 441 0
-397 -425 9 -137 441 0
-397 -425 9 137 -441 0
-397 -426 -1 -160 -433 0
-397 -426 -1 160 433 0
-397 -426 1 -160 433 0
-397 -426 1 160 -433 0
-397 -426 -2 -161 -434 0
-397 -426 -2 161 434 0
-397 -426 2 -161 434 0
-397 -426 2 161 -434 0
-397 -426 -3 -162 -435 0
-397 -426 -3 162 435 0
-397 -426 3 -162 435 0
-397 -426 3 162 -435 0
-397 -426 -4 -163 -436 0
-397 -426 -4 163 436 0
-397 -426 4 -163 436 0
-397 -426 4 163 -436 0
-397 -426 -5 -164 -437 0
-397 -426 -5 164 437 0
-397 -426 5 -164 437 0
-397 -426 5 164 -437 0
-397 -426 -6 -165 -438 0
-397 -426 -6 165 438 0
-397 -426 6 -165 438 0
-397 -426 6 165 -438 0
-397 -426 -7 -166 -439 0
-397 -426 -7 166 439 0
-397 -426 7 -166 439 0
-397 -426 7 166 -439 0
-397 -426 -8 -167 -440 0
-397 -426 -8 167 440 0
-397 -426 8 -167 440 0
-397 -426 8 167 -440 0
-397 -426 -9 -168 -441 0
-397 -426 -9 168 441 0
-397 -426 9 -168 441 0
-397 -426 9 168 -441 0
-397 -427 -1 -193 -433 0
-397 -427 -1 193 433 0
-397 -427 1 -193 433 0
-397 -427 1 193 -433 0
-397 -427 -2 -194 -434 0
-397 -427 -2 194 434 0
-397 -427 2 -194 434 0
-397 -427 2 194 -434 0
-397 -427 -3 -195 -435 0
-397 -427 -3 195 435 0
-397 -427 3 -195 435 0
-397 -427 3 195 -435 0
-397 -427 -4 -196 -436 0
-397 -427 -4 196 436 0
-397 -427 4 -196 436 0
-397 -427 4 196 -436 0
-397 -427 -5 -197 -437 0
-397 -427 -5 197 437 0
-397 -427 5 -197 437 0
-397 -427 5 197 -437 0
-397 -427 -6 -198 -438 0
-397 -427 -6 198 438 0
-397 -427 6 -198 438 0
-397 -427 6 198 -438 0
-397 -427 -7 -199 -439 0
-397 -427 -7 199 439 0
-397 -427 7 -199 439 0
-397 -427 7 199 -439 0
-397 -427 -8 -200 -440 0
-397 -427 -8 200 440 0
-397 -427 8 -200 440 0
-397 -427 8 200 -440 0
-397 -427 -9 -201 -441 0
-397 -427 -9 201 441 0
-397 -427 9 -201 441 0
-397 -427 9 201 -441 0
-397 -428 -1 -228 -433 0
-397 -428 -1 228 433 0
-397 -428 1 -228 433 0
-397 -428 1 228 -433 0
-397 -428 -2 -229 -434 0
-397 -428 -2 229 434 0
-397 -428 2 -229 434 0
-397 -428 2 229 -434 0
-397 -428 -3 -230 -435 0
-397 -428 -3 230 435 0
-397 -428 3 -230 435 0
-397 -428 3 230 -435 0
-397 -428 -4 -231 -436 0
-397 -428 -4 231 436 0
-397 -428 4 -231 436 0
-397 -428 4 231 -436 0
-397 -428 -5 -232 -437 0
-397 -428 -5 232 437 0
-397 -428 5 -232 437 0
-397 -428 5 232 -437 0
-397 -428 -6 -233 -438 0
-397 -428 -6 233 438 0
-397 -428 6 -233 438 0
-397 -428 6 233 -438 0
-397 -428 -7 -234 -439 0
-397 -428 -7 234 439 0
-397 -428 7 -234 439 0
-397 -428 7 234 -439 0
-397 -428 -8 -235 -440 0
-397 -428 -8 235 440 0
-397 -428 8 -235 440 0
-397 -428 8 235 -440 0
-397 -428 -9 -236 -441 0
-397 -428 -9 236 441 0
-397 -428 9 -236 441 0
-397 -428 9 236 -441 0
-397 -429 -1 -265 -433 0
-397 -429 -1 265 433 0
-397 -429 1 -265 433 0
-397 -429 1 265 -433 0
-397 -429 -2 -266 -434 0
-397 -429 -2 266 434 0
-397 -429 2 -266 434 0
-397 -429 2 266 -434 0
-397 -429 -3 -267 -435 0
-397 -429 -3 267 435 0
-397 -429 3 -267 435 0
-397 -429 3 267 -435 0
-397 -429 -4 -268 -436 0
-397 -429 -4 268 436 0
-397 -429 4 -268 436 0
-397 -429 4 268 -436 0
-397 -429 -5 -269 -437 0
-397 -429 -5 269 437 0
-397 -429 5 -269 437 0
-397 -429 5 269 -437 0
-397 -429 -6 -270 -438 0
-397 -429 -6 270 438 0
-397 -429 6 -270 438 0
-397 -429 6 270 -438 0
-397 -429 -7 -271 -439 0
-397 -429 -7 271 439 0
-397 -429 7 -271 439 0
-397 -429 7 271 -439 0
-397 -429 -8 -272 -440 0
-397 -429 -8 272 440 0
-397 -429 8 -272 440 0
-397 -429 8 272 -440 0
-397 -429 -9 -273 -441 0
-397 -429 -9 273 441 0
-397 -429 9 -273 441 0
-397 -429 9 273 -441 0
-397 -430 -1 -304 -433 0
-397 -430 -1 304 433 0
-397 -430 1 -304 433 0
-397 -430 1 304 -433 0
-397 -430 -2 -305 -434 0
-397 -430 -2 305 434 0
-397 -430 2 -305 434 0
-397 -430 2 305 -434 0
-397 -430 -3 -306 -435 0
-397 -430 -3 306 435 0
-397 -430 3 -306 435 0
-397 -430 3 306 -435 0
-397 -430 -4 -307 -436 0
-397 -430 -4 307 436 0
-397 -430 4 -307 436 0
-397 -430 4 307 -436 0
-397 -430 -5 -308 -437 0
-397 -430 -5 308 437 0
-397 -430 5 -308 437 0
-397 -430 5 308 -437 0
-397 -430 -6 -309 -438 0
-397 -430 -6 309 438 0
-397 -430 6 -309 438 0
-397 -430 6 309 -438 0
-397 -430 -7 -310 -439 0
-397 -430 -7 310 439 0
-397 -430 7 -310 439 0
-397 -430 7 310 -439 0
-397 -430 -8 -311 -440 0
-397 -430 -8 311 440 0
-397 -430 8 -311 440 0
-397 -430 8 311 -440 0
-397 -430 -9 -312 -441 0
-397 -430 -9 312 441 0
-397 -430 9 -312 441 0
-397 -430 9 312 -441 0
-397 -431 -1 -345 -433 0
-397 -431 -1 345 433 0
-397 -431 1 -345 433 0
-397 -431 1 345 -433 0
-397 -431 -2 -346 -434 0
-397 -431 -2 346 434 0
-397 -431 2 -346 434 0
-397 -431 2 346 -434 0
-397 -431 -3 -347 -435 0
-397 -431 -3 347 435 0
-397 -431 3 -347 435 0
-397 -431 3 347 -435 0
-397 -431 -4 -348 -436 0
-397 -431 -4 348 436 0
-397 -431 4 -348 436 0
-397 -431 4 348 -436 0
-397 -431 -5 -349 -437 0
-397 -431 -5 349 437 0
-397 -431 5 -349 437 0
-397 -431 5 349 -437 0
-397 -431 -6 -350 -438 0
-397 -431 -6 350 438 0
-397 -431 6 -350 438 0
-397 -431 6 350 -438 0
-397 -431 -7 -351 -439 0
-397 -431 -7 351 439 0
-397 -431 7 -351 439 0
-397 -431 7 351 -439 0
-397 -431 -8 -352 -440 0
-397 -431 -8 352 440 0
-397 -431 8 -352 440 0
-397 -431 8 352 -440 0
-397 -431 -9 -353 -441 0
-397 -431 -9 353 441 0
-397 -431 9 -353 441 0
-397 -431 9 353 -441 0
-397 -432 -1 -388 -433 0
-397 -432 -1 388 433 0
-397 -432 1 -388 433 0
-397 -432 1 388 -433 0
-397 -432 -2 -389 -434 0
-397 -432 -2 389 434 0
-397 -432 2 -389 434 0
-397 -432 2 389 -434 0
-397 -432 -3 -390 -435 0
-397 -432 -3 390 435 0
-397 -432 3 -390 435 0
-397 -432 3 390 -435 0
-397 -432 -4 -391 -436 0
-397 -432 -4 391 436 0
-397 -432 4 -391 436 0
-397 -432 4 391 -436 0
-397 -432 -5 -392 -437 0
-397 -432 -5 392 437 0
-397 -432 5 -392 437 0
-397 -432 5 392 -437 0
-397 -432 -6 -393 -438 0
-397 -432 -6 393 438 0
-397 -432 6 -393 438 0
-397 -432 6 393 -438 0
-397 -432 -7 -394 -439 0
-397 -432 -7 394 439 0
-397 -432 7 -394 439 0
-397 -432 7 394 -439 0
-397 -432 -8 -395 -440 0
-397 -432 -8 395 440 0
-397 -432 8 -395 440 0
-397 -432 8 395 -440 0
-397 -432 -9 -396 -441 0
-397 -432 -9 396 441 0
-397 -432 9 -396 441 0
-397 -432 9 396 -441 0
-398 -417 -10 -19 -433 0
-398 -417 -10 19 433 0
-398 -417 10 -19 433 0
-398 -417 10 19 -433 0
-398 -417 -11 -20 -434 0
-398 -417 -11 20 434 0
-398 -417 11 -20 434 0
-398 -417 11 20 -434 0
-398 -417 -12 -21 -435 0
-398 -417 -12 21 435 0
-398 -417 12 -21 435 0
-398 -417 12 21 -435 0
-398 -417 -13 -22 -436 0
-398 -417 -13 22 436 0
-398 -417 13 -22 436 0
-398 -417 13 22 -436 0
-398 -417 -14 -23 -437 0
-398 -417 -14 23 437 0
-398 -417 14 -23 437 0
-398 -417 14 23 -437 0
-398 -417 -15 -24 -438 0
-398 -417 -15 24 438 0
-398 -417 15 -24 438 0
-398 -417 15 24 -438 0
-398 -417 -16 -25 -439 0
-398 -417 -16 25 439 0
-398 -417 16 -25 439 0
-398 -417 16 25 -439 0
-398 -417 -17 -26 -440 0
-398 -417 -17 26 440 0
-398 -417 17 -26 440 0
-398 -417 17 26 -440 0
-398 -417 -18 -27 -441 0
-398 -417 -18 27 441 0
-398 -417 18 -27 441 0
-398 -417 18 27 -441 0
-398 -418 -10 -28 -433 0
-398 -418 -10 28 433 0
-398 -418 10 -28 433 0
-398 -418 10 28 -433 0
-398 -418 -11 -29 -434 0
-398 -418 -11 29 434 0
-398 -418 11 -29 434 0
-398 -418 11 29 -434 0
-398 -418 -12 -30 -435 0
-398 -418 -12 30 435 0
-398 -418 12 -30 435 0
-398 -418 12 30 -435 0
-398 -418 -13 -31 -436 0
-398 -418 -13 31 436 0
-398 -418 13 -31 436 0
-398 -418 13 31 -436 0
-398 -418 -14 -32 -437 0
-398 -418 -14 32 437 0
-398 -418 14 -32 437 0
-398 -418 14 32 -437 0
-398 -418 -15 -33 -438 0
-398 -418 -15 33 438 0
-398 -418 15 -33 438 0
-398 -418 15 33 -438 0
-398 -418 -16 -34 -439 0
-398 -418 -16 34 439 0
-398 -418 16 -34 439 0
-398 -418 16 34 -439 0
-398 -418 -17 -35 -440 0
-398 -418 -17 35 440 0
-398 -418 17 -35 440 0
-398 -418 17 35 -440 0
-398 -418 -18 -36 -441 0
-398 -418 -18 36 441 0
-398 -418 18 -36 441 0
-398 -418 18 36 -441 0
-398 -419 -10 -37 -433 0
-398 -419 -10 37 433 0
-398 -419 10 -37 433 0
-398 -419 10 37 -433 0
-398 -419 -11 -38 -434 0
-398 -419 -11 38 434 0
-398 -419 11 -38 434 0
-398 -419 11 38 -434 0
-398 -419 -12 -39 -435 0
-398 -419 -12 39 435 0
-398 -419 12 -39 435 0
-398 -419 12 39 -435 0
-398 -419 -13 -40 -436 0
-398 -419 -13 40 436 0
-398 -419 13 -40 436 0
-398 -419 13 40 -436 0
-398 -419 -14 -41 -437 0
-398 -419 -14 41 437 0
-398 -419 14 -41 437 0
-398 -419 14 41 -437 0
-398 -419 -15 -42 -438 0
-398 -419 -15 42 438 0
-398 -419 15 -42 438 0
-398 -419 15 42 -438 0
-398 -419 -16 -43 -439 0
-398 -419 -16 43 439 0
-398 -419 16 -43 439 0
-398 -419 16 43 -439 0
-398 -419 -17 -44 -440 0
-398 -419 -17 44 440 0
-398 -419 17 -44 440 0
-398 -419 17 44 -440 0
-398 -419 -18 -45 -441 0
-398 -419 -18 45 441 0
-398 -419 18 -45 441 0
-398 -419 18 45 -441 0
-398 -420 -10 -46 -433 0
-398 -420 -10 46 433 0
-398 -420 10 -46 433 0
-398 -420 10 46 -433 0
-398 -420 -11 -47 -434 0
-398 -420 -11 47 434 0
-398 -420 11 -47 434 0
-398 -420 11 47 -434 0
-398 -420 -12 -48 -435 0
-398 -420 -12 48 435 0
-398 -420 12 -48 435 0
-398 -420 12 48 -435 0
-398 -420 -13 -49 -436 0
-398 -420 -13 49 436 0
-398 -420 13 -49 436 0
-398 -420 13 49 -436 0
-398 -420 -14 -50 -437 0
-398 -420 -14 50 437 0
-398 -420 14 -50 437 0
-398 -420 14 50 -437 0
-398 -420 -15 -51 -438 0
-398 -420 -15 51 438 0
-398 -420 15 -51 438 0
-398 -420 15 51 -438 0
-398 -420 -16 -52 -439 0
-398 -420 -16 52 439 0
-398 -420 16 -52 439 0
-398 -420 16 52 -439 0
-398 -420 -17 -53 -440 0
-398 -420 -17 53 440 0
-398 -420 17 -53 440 0
-398 -420 17 53 -440 0
-398 -420 -18 -54 -441 0
-398 -420 -18 54 441 0
-398 -420 18 -54 441 0
-398 -420 18 54 -441 0
-398 -421 -10 -55 -433 0
-398 -421 -10 55 433 0
-398 -421 10 -55 433 0
-398 -421 10 55 -433 0
-398 -421 -11 -56 -434 0
-398 -421 -11 56 434 0
-398 -421 11 -56 434 0
-398 -421 11 56 -434 0
-398 -421 -12 -57 -435 0
-398 -421 -12 57 435 0
-398 -421 12 -57 435 0
-398 -421 12 57 -435 0
-398 -421 -13 -58 -436 0
-398 -421 -13 58 436 0
-398 -421 13 -58 436 0
-398 -421 13 58 -436 0
-398 -421 -14 -59 -437 0
-398 -421 -14 59 437 0
-398 -421 14 -59 437 0
-398 -421 14 59 -437 0
-398 -421 -15 -60 -438 0
-398 -421 -15 60 438 0
-398 -421 15 -60 438 0
-398 -421 15 60 -438 0
-398 -421 -16 -61 -439 0
-398 -421 -16 61 439 0
-398 -421 16 -61 439 0
-398 -421 16 61 -439 0
-398 -421 -17 -62 -440 0
-398 -421 -17 62 440 0
-398 -421 17 -62 440 0
-398 -421 17 62 -440 0
-398 -421 -18 -63 -441 0
-398 -421 -18 63 441 0
-398 -421 18 -63 441 0
-398 -421 18 63 -441 0
-398 -422 -10 -64 -433 0
-398 -422 -10 64 433 0
-398 -422 10 -64 433 0
-398 -422 10 64 -433 0
-398 -422 -11 -65 -434 0
-398 -422 -11 65 434 0
-398 -422 11 -65 434 0
-398 -422 11 65 -434 0
-398 -422 -12 -66 -435 0
-398 -422 -12 66 435 0
-398 -422 12 -66 435 0
-398 -422 12 66 -435 0
-398 -422 -13 -67 -436 0
-398 -422 -13 67 436 0
-398 -422 13 -67 436 0
-398 -422 13 67 -436 0
-398 -422 -14 -68 -437 0
-398 -422 -14 68 437 0
-398 -422 14 -68 437 0
-398 -422 14 68 -437 0
-398 -422 -15 -69 -438 0
-398 -422 -15 69 438 0
-398 -422 15 -69 438 0
-398 -422 15 69 -438 0
-398 -422 -16 -70 -439 0
-398 -422 -16 70 439 0
-398 -422 16 -70 439 0
-398 -422 16 70 -439 0
-398 -422 -17 -71 -440 0
-398 -422 -17 71 440 0
-398 -422 17 -71 440 0
-398 -422 17 71 -440 0
-398 -422 -18 -72 -441 0
-398 -422 -18 72 441 0
-398 -422 18 -72 441 0
-398 -422 18 72 -441 0
-398 -423 -10 -73 -433 0
-398 -423 -10 73 433 0
-398 -423 10 -73 433 0
-398 -423 10 73 -433 0
-398 -423 -11 -74 -434 0
-398 -423 -11 74 434 0
-398 -423 11 -74 434 0
-398 -423 11 74 -434 0
-398 -423 -12 -75 -435 0
-398 -423 -12 75 435 0
-398 -423 12 -75 435 0
-398 -423 12 75 -435 0
-398 -423 -13 -76 -436 0
-398 -423 -13 76 436 0
-398 -423 13 -76 436 0
-398 -423 13 76 -436 0
-398 -423 -14 -77 -437 0
-398 -423 -14 77 437 0
-398 -423 14 -77 437 0
-398 -423 14 77 -437 0
-398 -423 -15 -78 -438 0
-398 -423 -15 78 438 0
-398 -423 15 -78 438 0
-398 -423 15 78 -438 0
-398 -423 -16 -79 -439 0
-398 -423 -16 79 439 0
-398 -423 16 -79 439 0
-398 -423 16 79 -439 0
-398 -423 -17 -80 -440 0
-398 -423 -17 80 440 0
-398 -423 17 -80 440 0
-398 -423 17 80 -440 0
-398 -423 -18 -81 -441 0
-398 -423 -18 81 441 0
-398 -423 18 -81 441 0
-398 -423 18 81 -441 0
-398 -424 -10 -100 -433 0
-398 -424 -10 100 433 0
-398 -424 10 -100 433 0
-398 -424 10 100 -433 0
-398 -424 -11 -101 -434 0
-398 -424 -11 101 434 0
-398 -424 11 -101 434 0
-398 -424 11 101 -434 0
-398 -424 -12 -102 -435 0
-398 -424 -12 102 435 0
-398 -424 12 -102 435 0
-398 -424 12 102 -435 0
-398 -424 -13 -103 -436 0
-398 -424 -13 103 436 0
-398 -424 13 -103 436 0
-398 -424 13 103 -436 0
-398 -424 -14 -104 -437 0
-398 -424 -14 104 437 0
-398 -424 14 -104 437 0
-398 -424 14 104 -437 0
-398 -424 -15 -105 -438 0
-398 -424 -15 105 438 0
-398 -424 15 -105 438 0
-398 -424 15 105 -438 0
-398 -424 -16 -106 -439 0
-398 -424 -16 106 439 0
-398 -424 16 -106 439 0
-398 -424 16 106 -439 0
-398 -424 -17 -107 -440 0
-398 -424 -17 107 440 0
-398 -424 17 -107 440 0
-398 -424 17 107 -440 0
-398 -424 -18 -108 -441 0
-398 -424 -18 108 441 0
-398 -424 18 -108 441 0
-398 -424 18 108 -441 0
-398 -425 -10 -129 -433 0
-398 -425 -10 129 433 0
-398 -425 10 -129 433 0
-398 -425 10 129 -433 0
-398 -425 -11 -130 -434 0
-398 -425 -11 130 434 0
-398 -425 11 -130 434 0
-398 -425 11 130 -434 0
-398 -425 -12 -131 -435 0
-398 -425 -12 131 435 0
-398 -425 12 -131 435 0
-398 -425 12 131 -435 0
-398 -425 -13 -132 -436 0
-398 -425 -13 132 436 0
-398 -425 13 -132 436 0
-398 -425 13 132 -436 0
-398 -425 -14 -133 -437 0
-398 -425 -14 133 437 0
-398 -425 14 -133 437 0
-398 -425 14 133 -437 0
-398 -425 -15 -134 -438 0
-398 -425 -15 134 438 0
-398 -425 15 -134 438 0
-398 -425 15 134 -438 0
-398 -425 -16 -135 -439 0
-398 -425 -16 135 439 0
-398 -425 16 -135 439 0
-398 -425 16 135 -439 0
-398 -425 -17 -136 -440 0
-398 -425 -17 136 440 0
-398 -425 17 -136 440 0
-398 -425 17 136 -440 0
-398 -425 -18 -137 -441 0
-398 -425 -18 137 441 0
-398 -425 18 -137 441 0
-398 -425 18 137 -441 0
-398 -426 -10 -160 -433 0
-398 -426 -10 160 433 0
-398 -426 10 -160 433 0
-398 -426 10 160 -433 0
-398 -426 -11 -161 -434 0
-398 -426 -11 161 434 0
-398 -426 11 -161 434 0
-398 -426 11 161 -434 0
-398 -426 -12 -162 -435 0
-398 -426 -12 162 435 0
-398 -426 12 -162 435 0
-398 -426 12 162 -435 0
-398 -426 -13 -163 -436 0
-398 -426 -13 163 436 0
-398 -426 13 -163 436 0
-398 -426 13 163 -436 0
-398 -426 -14 -164 -437 0
-398 -426 -14 164 437 0
-398 -426 14 -164 437 0
-398 -426 14 164 -437 0
-398 -426 -15 -165 -438 0
-398 -426 -15 165 438 0
-398 -426 15 -165 438 0
-398 -426 15 165 -438 0
-398 -426 -16 -166 -439 0
-398 -426 -16 166 439 0
-398 -426 16 -166 439 0
-398 -426 16 166 -439 0
-398 -426 -17 -167 -440 0
-398 -426 -17 167 440 0
-398 -426 17 -167 440 0
-398 -426 17 167 -440 0
-398 -426 -18 -168 -441 0
-398 -426 -18 168 441 0
-398 -426 18 -168 441 0
-398 -426 18 168 -441 0
-398 -427 -10 -193 -433 0
-398 -427 -10 193 433 0
-398 -427 10 -193 433 0
-398 -427 10 193 -433 0
-398 -427 -11 -194 -434 0
-398 -427 -11 194 434 0
-398 -427 11 -194 434 0
-398 -427 11 194 -434 0
-398 -427 -12 -195 -435 0
-398 -427 -12 195 435 0
-398 -427 12 -195 435 0
-398 -427 12 195 -435 0
-398 -427 -13 -196 -436 0
-398 -427 -13 196 436 0
-398 -427 13 -196 436 0
-398 -427 13 196 -436 0
-398 -427 -14 -197 -437 0
-398 -427 -14 197 437 0
-398 -427 14 -197 437 0
-398 -427 14 197 -437 0
-398 -427 -15 -198 -438 0
-398 -427 -15 198 438 0
-398 -427 15 -198 438 0
-398 -427 15 198 -438 0
-398 -427 -16 -199 -439 0
-398 -427 -16 199 439 0
-398 -427 16 -199 439 0
-398 -427 16 199 -439 0
-398 -427 -17 -200 -440 0
-398 -427 -17 200 440 0
-398 -427 17 -200 440 0
-398 -427 17 200 -440 0
-398 -427 -18 -201 -441 0
-398 -427 -18 201 441 0
-398 -427 18 -201 441 0
-398 -427 18 201 -441 0
-398 -428 -10 -228 -433 0
-398 -428 -10 228 433 0
-398 -428 10 -228 433 0
-398 -428 10 228 -433 0
-398 -428 -11 -229 -434 0
-398 -428 -11 229 434 0
-398 -428 11 -229 434 0
-398 -428 11 229 -434 0
-398 -428 -12 -230 -435 0
-398 -428 -12 230 435 0
-398 -428 12 -230 435 0
-398 -428 12 230 -435 0
-398 -428 -13 -231 -436 0
-398 -428 -13 231 436 0
-398 -428 13 -231 436 0
-398 -428 13 231 -436 0
-398 -428 -14 -232 -437 0
-398 -428 -14 232 437 0
-398 -428 14 -232 437 0
-398 -428 14 232 -437 0
-398 -428 -15 -233 -438 0
-398 -428 -15 233 438 0
-398 -428 15 -233 438 0
-398 -428 15 233 -438 0
-398 -428 -16 -234 -439 0
-398 -428 -16 234 439 0
-398 -428 16 -234 439 0
-398 -428 16 234 -439 0
-398 -428 -17 -235 -440 0
-398 -428 -17 235 440 0
-398 -428 17 -235 440 0
-398 -428 17 235 -440 0
-398 -428 -18 -236 -441 0
-398 -428 -18 236 441 0
-398 -428 18 -236 441 0
-398 -428 18 236 -441 0
-398 -429 -10 -265 -433 0
-398 -429 -10 265 433 0
-398 -429 10 -265 433 0
-398 -429 10 265 -433 0
-398 -429 -11 -266 -434 0
-398 -429 -11 266 434 0
-398 -429 11 -266 434 0
-398 -429 11 266 -434 0
-398 -429 -12 -267 -435 0
-398 -429 -12 267 435 0
-398 -429 12 -267 435 0
-398 -429 12 267 -435 0
-398 -429 -13 -268 -436 0
-398 -429 -13 268 436 0
-398 -429 13 -268 436 0
-398 -429 13 268 -436 0
-398 -429 -14 -269 -437 0
-398 -429 -14 269 437 0
-398 -429 14 -269 437 0
-398 -429 14 269 -437 0
-398 -429 -15 -270 -438 0
-398 -429 -15 270 438 0
-398 -429 15 -270 438 0
-398 -429 15 270 -438 0
-398 -429 -16 -271 -439 0
-398 -429 -16 271 439 0
-398 -429 16 -271 439 0
-398 -429 16 271 -439 0
-398 -429 -17 -272 -440 0
-398 -429 -17 272 440 0
-398 -429 17 -272 440 0
-398 -429 17 272 -440 0
-398 -429 -18 -273 -441 0
-398 -429 -18 273 441 0
-398 -429 18 -273 441 0
-398 -429 18 273 -441 0
-398 -430 -10 -304 -433 0
-398 -430 -10 304 433 0
-398 -430 10 -304 433 0
-398 -430 10 304 -433 0
-398 -430 -11 -305 -434 0
-398 -430 -11 305 434 0
-398 -430 11 -305 434 0
-398 -430 11 305 -434 0
-398 -430 -12 -306 -435 0
-398 -430 -12 306 435 0
-398 -430 12 -306 435 0
-398 -430 12 306 -435 0
-398 -430 -13 -307 -436 0
-398 -430 -13 307 436 0
-398 -430 13 -307 436 0
-398 -430 13 307 -436 0
-398 -430 -14 -308 -437 0
-398 -430 -14 308 437 0
-398 -430 14 -308 437 0
-398 -430 14 308 -437 0
-398 -430 -15 -309 -438 0
-398 -430 -15 309 438 0
-398 -430 15 -309 438 0
-398 -430 15 309 -438 0
-398 -430 -16 -310 -439 0
-398 -430 -16 310 439 0
-398 -430 16 -310 439 0
-398 -430 16 310 -439 0
-398 -430 -17 -311 -440 0
-398 -430 -17 311 440 0
-398 -430 17 -311 440 0
-398 -430 17 311 -440 0
-398 -430 -18 -312 -441 0
-398 -430 -18 312 441 0
-398 -430 18 -312 441 0
-398 -430 18 312 -441 0
-398 -431 -10 -345 -433 0
-398 -431 -10 345 433 0
-398 -431 10 -345 433 0
-398 -431 10 345 -433 0
-398 -431 -11 -346 -434 0
-398 -431 -11 346 434 0
-398 -431 11 -346 434 0
-398 -431 11 346 -434 0
-398 -431 -12 -347 -435 0
-398 -431 -12 347 435 0
-398 -431 12 -347 435 0
-398 -431 12 347 -435 0
-398 -431 -13 -348 -436 0
-398 -431 -13 348 436 0
-398 -431 13 -348 436 0
-398 -431 13 348 -436 0
-398 -431 -14 -349 -437 0
-398 -431 -14 349 437 0
-398 -431 14 -349 437 0
-398 -431 14 349 -437 0
-398 -431 -15 -350 -438 0
-398 -431 -15 350 438 0
-398 -431 15 -350 438 0
-398 -431 15 350 -438 0
-398 -431 -16 -351 -439 0
-398 -431 -16 351 439 0
-398 -431 16 -351 439 0
-398 -431 16 351 -439 0
-398 -431 -17 -352 -440 0
-398 -431 -17 352 440 0
-398 -431 17 -352 440 0
-398 -431 17 352 -440 0
-398 -431 -18 -353 -441 0
-398 -431 -18 353 441 0
-398 -431 18 -353 441 0
-398 -431 18 353 -441 0
-398 -432 -10 -388 -433 0
-398 -432 -10 388 433 0
-398 -432 10 -388 433 0
-398 -432 10 388 -433 0
-398 -432 -11 -389 -434 0
-398 -432 -11 389 434 0
-398 -432 11 -389 434 0
-398 -432 11 389 -434 0
-398 -432 -12 -390 -435 0
-398 -432 -12 390 435 0
-398 -432 12 -390 435 0
-398 -432 12 390 -435 0
-398 -432 -13 -391 -436 0
-398 -432 -13 391 436 0
-398 -432 13 -391 436 0
-398 -432 13 391 -436 0
-398 -432 -14 -392 -437 0
-398 -432 -14 392 437 0
-398 -432 14 -392 437 0
-398 -432 14 392 -437 0
-398 -432 -15 -393 -438 0
-398 -432 -15 393 438 0
-398 -432 15 -393 438 0
-398 -432 15 393 -438 0
-398 -432 -16 -394 -439 0
-398 -432 -16 394 439 0
-398 -432 16 -394 439 0
-398 -432 16 394 -439 0
-398 -432 -17 -395 -440 0
-398 -432 -17 395 440 0
-398 -432 17 -395 440 0
-398 -432 17 395 -440 0
-398 -432 -18 -396 -441 0
-398 -432 -18 396 441 0
-398 -432 18 -396 441 0
-398 -432 18 396 -441 0
-399 -418 -19 -28 -433 0
-399 -418 -19 28 433 0
-399 -418 19 -28 433 0
-399 -418 19 28 -433 0
-399 -418 -20 -29 -434 0
-399 -418 -20 29 434 0
-399 -418 20 -29 434 0
-399 -418 20 29 -434 0
-399 -418 -21 -30 -435 0
-399 -418 -21 30 435 0
-399 -418 21 -30 435 0
-399 -418 21 30 -435 0
-399 -418 -22 -31 -436 0
-399 -418 -22 31 436 0
-399 -418 22 -31 436 0
-399 -418 22 31 -436 0
-399 -418 -23 -32 -437 0
-399 -418 -23 32 437 0
-399 -418 23 -32 437 0
-399 -418 23 32 -437 0
-399 -418 -24 -33 -438 0
-399 -418 -24 33 438 0
-399 -418 24 -33 438 0
-399 -418 24 33 -438 0
-399 -418 -25 -34 -439 0
-399 -418 -25 34 439 0
-399 -418 25 -34 439 0
-399 -418 25 34 -439 0
-399 -418 -26 -35 -440 0
-399 -418 -26 35 440 0
-399 -418 26 -35 440 0
-399 -418 26 35 -440 0
-399 -418 -27 -36 -441 0
-399 -418 -27 36 441 0
-399 -418 27 -36 441 0
-399 -418 27 36 -441 0
-399 -419 -19 -37 -433 0
-399 -419 -19 37 433 0
-399 -419 19 -37 433 0
-399 -419 19 37 -433 0
-399 -419 -20 -38 -434 0
-399 -419 -20 38 434 0
-399 -419 20 -38 434 0
-399 -419 20 38 -434 0
-399 -419 -21 -39 -435 0
-399 -419 -21 39 435 0
-399 -419 21 -39 435 0
-399 -419 21 39 -435 0
-399 -419 -22 -40 -436 0
-399 -419 -22 40 436 0
-399 -419 22 -40 436 0
-399 -419 22 40 -436 0
-399 -419 -23 -41 -437 0
-399 -419 -23 41 437 0
-399 -419 23 -41 437 0
-399 -419 23 41 -437 0
-399 -419 -24 -42 -438 0
-399 -419 -24 42 438 0
-399 -419 24 -42 438 0
-399 -419 24 42 -438 0
-399 -419 -25 -43 -439 0
-399 -419 -25 43 439 0
-399 -419 25 -43 439 0
-399 -419 25 43 -439 0
-399 -419 -26 -44 -440 0
-399 -419 -26 44 440 0
-399 -419 26 -44 440 0
-399 -419 26 44 -440 0
-399 -419 -27 -45 -441 0
-399 -419 -27 45 441 0
-399 -419 27 -45 441 0
-399 -419 27 45 -441 0
-399 -420 -19 -46 -433 0
-399 -420 -19 46 433 0
-399 -420 19 -46 433 0
-399 -420 19 46 -433 0
-399 -420 -20 -47 -434 0
-399 -420 -20 47 434 0
-399 -420 20 -47 434 0
-399 -420 20 47 -434 0
-399 -420 -21 -48 -435 0
-399 -420 -21 48 435 0
-399 -420 21 -48 435 0
-399 -420 21 48 -435 0
-399 -420 -22 -49 -436 0
-399 -420 -22 49 436 0
-399 -420 22 -49 436 0
-399 -420 22 49 -436 0
-399 -420 -23 -50 -437 0
-399 -420 -23 50 437 0
-399 -420 23 -50 437 0
-399 -420 23 50 -437 0
-399 -420 -24 -51 -438 0
-399 -420 -24 51 438 0
-399 -420 24 -51 438 0
-399 -420 24 51 -438 0
-399 -420 -25 -52 -439 0
-399 -420 -25 52 439 0
-399 -420 25 -52 439 0
-399 -420 25 52 -439 0
-399 -420 -26 -53 -440 0
-399 -420 -26 53 440 0
-399 -420 26 -53 440 0
-399 -420 26 53 -440 0
-399 -420 -27 -54 -441 0
-399 -420 -27 54 441 0
-399 -420 27 -54 441 0
-399 -420 27 54 -441 0
-399 -421 -19 -55 -433 0
-399 -421 -19 55 433 0
-399 -421 19 -55 433 0
-399 -421 19 55 -433 0
-399 -421 -20 -56 -434 0
-399 -421 -20 56 434 0
-399 -421 20 -56 434 0
-399 -421 20 56 -434 0
-399 -421 -21 -57 -435 0
-399 -421 -21 57 435 0
-399 -421 21 -57 435 0
-399 -421 21 57 -435 0
-399 -421 -22 -58 -436 0
-399 -421 -22 58 436 0
-399 -421 22 -58 436 0
-399 -421 22 58 -436 0
-399 -421 -23 -59 -437 0
-399 -421 -23 59 437 0
-399 -421 23 -59 437 0
-399 -421 23 59 -437 0
-399 -421 -24 -60 -438 0
-399 -421 -24 60 438 0
-399 -421 24 -60 438 0
-399 -421 24 60 -438 0
-399 -421 -25 -61 -439 0
-399 -421 -25 61 439 0
-399 -421 25 -61 439 0
-399 -421 25 61 -439 0
-399 -421 -26 -62 -440 0
-399 -421 -26 62 440 0
-399 -421 26 -62 440 0
-399 -421 26 62 -440 0
-399 -421 -27 -63 -441 0
-399 -421 -27 63 441 0
-399 -421 27 -63 441 0
-399 -421 27 63 -441 0
-399 -422 -19 -64 -433 0
-399 -422 -19 64 433 0
-399 -422 19 -64 433 0
-399 -422 19 64 -433 0
-399 -422 -20 -65 -434 0
-399 -422 -20 65 434 0
-399 -422 20 -65 434 0
-399 -422 20 65 -434 0
-399 -422 -21 -66 -435 0
-399 -422 -21 66 435 0
-399 -422 21 -66 435 0
-399 -422 21 66 -435 0
-399 -422 -22 -67 -436 0
-399 -422 -22 67 436 0
-399 -422 22 -67 436 0
-399 -422 22 67 -436 0
-399 -422 -23 -68 -437 0
-399 -422 -23 68 437 0
-399 -422 23 -68 437 0
-399 -422 23 68 -437 0
-399 -422 -24 -69 -438 0
-399 -422 -24 69 438 0
-399 -422 24 -69 438 0
-399 -422 24 69 -438 0
-399 -422 -25 -70 -439 0
-399 -422 -25 70 439 0
-399 -422 25 -70 439 0
-399 -422 25 70 -439 0
-399 -422 -26 -71 -440 0
-399 -422 -26 71 440 0
-399 -422 26 -71 440 0
-399 -422 26 71 -440 0
-399 -422 -27 -72 -441 0
-399 -422 -27 72 441 0
-399 -422 27 -72 441 0
-399 -422 27 72 -441 0
-399 -423 -19 -73 -433 0
-399 -423 -19 73 433 0
-399 -423 19 -73 433 0
-399 -423 19 73 -433 0
-399 -423 -20 -74 -434 0
-399 -423 -20 74 434 0
-399 -423 20 -74 434 0
-399 -423 20 74 -434 0
-399 -423 -21 -75 -435 0
-399 -423 -21 75 435 0
-399 -423 21 -75 435 0
-399 -423 21 75 -435 0
-399 -423 -22 -76 -436 0
-399 -423 -22 76 436 0
-399 -423 22 -76 436 0
-399 -423 22 76 -436 0
-399 -423 -23 -77 -437 0
-399 -423 -23 77 437 0
-399 -423 23 -77 437 0
-399 -423 23 77 -437 0
-399 -423 -24 -78 -438 0
-399 -423 -24 78 438 0
-399 -423 24 -78 438 0
-399 -423 24 78 -438 0
-399 -423 -25 -79 -439 0
-399 -423 -25 79 439 0
-399 -423 25 -79 439 0
-399 -423 25 79 -439 0
-399 -423 -26 -80 -440 0
-399 -423 -26 80 440 0
-399 -423 26 -80 440 0
-399 -423 26 80 -440 0
-399 -423 -27 -81 -441 0
-399 -423 -27 81 441 0
-399 -423 27 -81 441 0
-399 -423 27 81 -441 0
-399 -424 -19 -100 -433 0
-399 -424 -19 100 433 0
-399 -424 19 -100 433 0
-399 -424 19 100 -433 0
-399 -424 -20 -101 -434 0
-399 -424 -20 101 434 0
-399 -424 20 -101 434 0
-399 -424 20 101 -434 0
-399 -424 -21 -102 -435 0
-399 -424 -21 102 435 0
-399 -424 21 -102 435 0
-399 -424 21 102 -435 0
-399 -424 -22 -103 -436 0
-399 -424 -22 103 436 0
-399 -424 22 -103 436 0
-399 -424 22 103 -436 0
-399 -424 -23 -104 -437 0
-399 -424 -23 104 437 0
-399 -424 23 -104 437 0
-399 -424 23 104 -437 0
-399 -424 -24 -105 -438 0
-399 -424 -24 105 438 0
-399 -424 24 -105 438 0
-399 -424 24 105 -438 0
-399 -424 -25 -106 -439 0
-399 -424 -25 106 439 0
-399 -424 25 -106 439 0
-399 -424 25 106 -439 0
-399 -424 -26 -107 -440 0
-399 -424 -26 107 440 0
-399 -424 26 -107 440 0
-399 -424 26 107 -440 0
-399 -424 -27 -108 -441 0
-399 -424 -27 108 441 0
-399 -424 27 -108 441 0
-399 -424 27 108 -441 0
-399 -425 -19 -129 -433 0
-399 -425 -19 129 433 0
-399 -425 19 -129 433 0
-399 -425 19 129 -433 0
-399 -425 -20 -130 -434 0
-399 -425 -20 130 434 0
-399 -425 20 -130 434 0
-399 -425 20 130 -434 0
-399 -425 -21 -131 -435 0
-399 -425 -21 131 435 0
-399 -425 21 -131 435 0
-399 -425 21 131 -435 0
-399 -425 -22 -132 -436 0
-399 -425 -22 132 436 0
-399 -425 22 -132 436 0
-399 -425 22 132 -436 0
-399 -425 -23 -133 -437 0
-399 -425 -23 133 437 0
-399 -425 23 -133 437 0
-399 -425 23 133 -437 0
-399 -425 -24 -134 -438 0
-399 -425 -24 134 438 0
-399 -425 24 -134 438 0
-399 -425 24 134 -438 0
-399 -425 -25 -135 -439 0
-399 -425 -25 135 439 0
-399 -425 25 -135 439 0
-399 -425 25 135 -439 0
-399 -425 -26 -136 -440 0
-399 -425 -26 136 440 0
-399 -425 26 -136 440 0
-399 -425 26 136 -440 0
-399 -425 -27 -137 -441 0
-399 -425 -27 137 441 0
-399 -425 27 -137 441 0
-399 -425 27 137 -441 0
-399 -426 -19 -160 -433 0
-399 -426 -19 160 433 0
-399 -426 19 -160 433 0
-399 -426 19 160 -433 0
-399 -426 -20 -161 -434 0
-399 -426 -20 161 434 0
-399 -426 20 -161 434 0
-399 -426 20 161 -434 0
-399 -426 -21 -162 -435 0
-399 -426 -21 162 435 0
-399 -426 21 -162 435 0
-399 -426 21 162 -435 0
-399 -426 -22 -163 -436 0
-399 -426 -22 163 436 0
-399 -426 22 -163 436 0
-399 -426 22 163 -436 0
-399 -426 -23 -164 -437 0
-399 -426 -23 164 437 0
-399 -426 23 -164 437 0
-399 -426 23 164 -437 0
-399 -426 -24 -165 -438 0
-399 -426 -24 165 438 0
-399 -426 24 -165 438 0
-399 -426 24 165 -438 0
-399 -426 -25 -166 -439 0
-399 -426 -25 166 439 0
-399 -426 25 -166 439 0
-399 -426 25 166 -439 0
-399 -426 -26 -167 -440 0
-399 -426 -26 167 440 0
-399 -426 26 -167 440 0
-399 -426 26 167 -440 0
-399 -426 -27 -168 -441 0
-399 -426 -27 168 441 0
-399 -426 27 -168 441 0
-399 -426 27 168 -441 0
-399 -427 -19 -193 -433 0
-399 -427 -19 193 433 0
-399 -427 19 -193 433 0
-399 -427 19 193 -433 0
-399 -427 -20 -194 -434 0
-399 -427 -20 194 434 0
-399 -427 20 -194 434 0
-399 -427 20 194 -434 0
-399 -427 -21 -195 -435 0
-399 -427 -21 195 435 0
-399 -427 21 -195 435 0
-399 -427 21 195 -435 0
-399 -427 -22 -196 -436 0
-399 -427 -22 196 436 0
-399 -427 22 -196 436 0
-399 -427 22 196 -436 0
-399 -427 -23 -197 -437 0
-399 -427 -23 197 437 0
-399 -427 23 -197 437 0
-399 -427 23 197 -437 0
-399 -427 -24 -198 -438 0
-399 -427 -24 198 438 0
-399 -427 24 -198 438 0
-399 -427 24 198 -438 0
-399 -427 -25 -199 -439 0
-399 -427 -25 199 439 0
-399 -427 25 -199 439 0
-399 -427 25 199 -439 0
-399 -427 -26 -200 -440 0
-399 -427 -26 200 440 0
-399 -427 26 -200 440 0
-399 -427 26 200 -440 0
-399 -427 -27 -201 -441 0
-399 -427 -27 201 441 0
-399 -427 27 -201 441 0
-399 -427 27 201 -441 0
-399 -428 -19 -228 -433 0
-399 -428 -19 228 433 0
-399 -428 19 -228 433 0
-399 -428 19 228 -433 0
-399 -428 -20 -229 -434 0
-399 -428 -20 229 434 0
-399 -428 20 -229 434 0
-399 -428 20 229 -434 0
-399 -428 -21 -230 -435 0
-399 -428 -21 230 435 0
-399 -428 21 -230 435 0
-399 -428 21 230 -435 0
-399 -428 -22 -231 -436 0
-399 -428 -22 231 436 0
-399 -428 22 -231 436 0
-399 -428 22 231 -436 0
-399 -428 -23 -232 -437 0
-399 -428 -23 232 437 0
-399 -428 23 -232 437 0
-399 -428 23 232 -437 0
-399 -428 -24 -233 -438 0
-399 -428 -24 233 438 0
-399 -428 24 -233 438 0
-399 -428 24 233 -438 0
-399 -428 -25 -234 -439 0
-399 -428 -25 234 439 0
-399 -428 25 -234 439 0
-399 -428 25 234 -439 0
-399 -428 -26 -235 -440 0
-399 -428 -26 235 440 0
-399 -428 26 -235 440 0
-399 -428 26 235 -440 0
-399 -428 -27 -236 -441 0
-399 -428 -27 236 441 0
-399 -428 27 -236 441 0
-399 -428 27 236 -441 0
-399 -429 -19 -265 -433 0
-399 -429 -19 265 433 0
-399 -429 19 -265 433 0
-399 -429 19 265 -433 0
-399 -429 -20 -266 -434 0
-399 -429 -20 266 434 0
-399 -429 20 -266 434 0
-399 -429 20 266 -434 0
-399 -429 -21 -267 -435 0
-399 -429 -21 267 435 0
-399 -429 21 -267 435 0
-399 -429 21 267 -435 0
-399 -429 -22 -268 -436 0
-399 -429 -22 268 436 0
-399 -429 22 -268 436 0
-399 -429 22 268 -436 0
-399 -429 -23 -269 -437 0
-399 -429 -23 269 437 0
-399 -429 23 -269 437 0
-399 -429 23 269 -437 0
-399 -429 -24 -270 -438 0
-399 -429 -24 270 438 0
-399 -429 24 -270 438 0
-399 -429 24 270 -438 0
-399 -429 -25 -271 -439 0
-399 -429 -25 271 439 0
-399 -429 25 -271 439 0
-399 -429 25 271 -439 0
-399 -429 -26 -272 -440 0
-399 -429 -26 272 440 0
-399 -429 26 -272 440 0
-399 -429 26 272 -440 0
-399 -429 -27 -273 -441 0
-399 -429 -27 273 441 0
-399 -429 27 -273 441 0
-399 -429 27 273 -441 0
-399 -430 -19 -304 -433 0
-399 -430 -19 304 433 0
-399 -430 19 -304 433 0
-399 -430 19 304 -433 0
-399 -430 -20 -305 -434 0
-399 -430 -20 305 434 0
-399 -430 20 -305 434 0
-399 -430 20 305 -434 0
-399 -430 -21 -306 -435 0
-399 -430 -21 306 435 0
-399 -430 21 -306 435 0
-399 -430 21 306 -435 0
-399 -430 -22 -307 -436 0
-399 -430 -22 307 436 0
-399 -430 22 -307 436 0
-399 -430 22 307 -436 0
-399 -430 -23 -308 -437 0
-399 -430 -23 308 437 0
-399 -430 23 -308 437 0
-399 -430 23 308 -437 0
-399 -430 -24 -309 -438 0
-399 -430 -24 309 438 0
-399 -430 24 -309 438 0
-399 -430 24 309 -438 0
-399 -430 -25 -310 -439 0
-399 -430 -25 310 439 0
-399 -430 25 -310 439 0
-399 -430 25 310 -439 0
-399 -430 -26 -311 -440 0
-399 -430 -26 311 440 0
-399 -430 26 -311 440 0
-399 -430 26 311 -440 0
-399 -430 -27 -312 -441 0
-399 -430 -27 312 441 0
-399 -430 27 -312 441 0
-399 -430 27 312 -441 0
-399 -431 -19 -345 -433 0
-399 -431 -19 345 433 0
-399 -431 19 -345 433 0
-399 -431 19 345 -433 0
-399 -431 -20 -346 -434 0
-399 -431 -20 346 434 0
-399 -431 20 -346 434 0
-399 -431 20 346 -434 0
-399 -431 -21 -347 -435 0
-399 -431 -21 347 435 0
-399 -431 21 -347 435 0
-399 -431 21 347 -435 0
-399 -431 -22 -348 -436 0
-399 -431 -22 348 436 0
-399 -431 22 -348 436 0
-399 -431 22 348 -436 0
-399 -431 -23 -349 -437 0
-399 -431 -23 349 437 0
-399 -431 23 -349 437 0
-399 -431 23 349 -437 0
-399 -431 -24 -350 -438 0
-399 -431 -24 350 438 0
-399 -431 24 -350 438 0
-399 -431 24 350 -438 0
-399 -431 -25 -351 -439 0
-399 -431 -25 351 439 0
-399 -431 25 -351 439 0
-399 -431 25 351 -439 0
-399 -431 -26 -352 -440 0
-399 -431 -26 352 440 0
-399 -431 26 -352 440 0
-399 -431 26 352 -440 0
-399 -431 -27 -353 -441 0
-399 -431 -27 353 441 0
-399 -431 27 -353 441 0
-399 -431 27 353 -441 0
-399 -432 -19 -388 -433 0
-399 -432 -19 388 433 0
-399 -432 19 -388 433 0
-399 -432 19 388 -433 0
-399 -432 -20 -389 -434 0
-399 -432 -20 389 434 0
-399 -432 20 -389 434 0
-399 -432 20 389 -434 0
-399 -432 -21 -390 -435 0
-399 -432 -21 390 435 0
-399 -432 21 -390 435 0
-399 -432 21 390 -435 0
-399 -432 -22 -391 -436 0
-399 -432 -22 391 436 0
-399 -432 22 -391 436 0
-399 -432 22 391 -436 0
-399 -432 -23 -392 -437 0
-399 -432 -23 392 437 0
-399 -432 23 -392 437 0
-399 -432 23 392 -437 0
-399 -432 -24 -393 -438 0
-399 -432 -24 393 438 0
-399 -432 24 -393 438 0
-399 -432 24 393 -438 0
-399 -432 -25 -394 -439 0
-399 -432 -25 394 439 0
-399 -432 25 -394 439 0
-399 -432 25 394 -439 0
-399 -432 -26 -395 -440 0
-399 -432 -26 395 440 0
-399 -432 26 -395 440 0
-399 -432 26 395 -440 0
-399 -432 -27 -396 -441 0
-399 -432 -27 396 441 0
-399 -432 27 -396 441 0
-399 -432 27 396 -441 0
-400 -419 -28 -37 -433 0
-400 -419 -28 37 433 0
-400 -419 28 -37 433 0
-400 -419 28 37 -433 0
-400 -419 -29 -38 -434 0
-400 -419 -29 38 434 0
-400 -419 29 -38 434 0
-400 -419 29 38 -434 0
-400 -419 -30 -39 -435 0
-400 -419 -30 39 435 0
-400 -419 30 -39 435 0
-400 -419 30 39 -435 0
-400 -419 -31 -40 -436 0
-400 -419 -31 40 436 0
-400 -419 31 -40 436 0
-400 -419 31 40 -436 0
-400 -419 -32 -41 -437 0
-400 -419 -32 41 437 0
-400 -419 32 -41 437 0
-400 -419 32 41 -437 0
-400 -419 -33 -42 -438 0
-400 -419 -33 42 438 0
-400 -419 33 -42 438 0
-400 -419 33 42 -438 0
-400 -419 -34 -43 -439 0
-400 -419 -34 43 439 0
-400 -419 34 -43 439 0
-400 -419 34 43 -439 0
-400 -419 -35 -44 -440 0
-400 -419 -35 44 440 0
-400 -419 35 -44 440 0
-400 -419 35 44 -440 0
-400 -419 -36 -45 -441 0
-400 -419 -36 45 441 0
-400 -419 36 -45 441 0
-400 -419 36 45 -441 0
-400 -420 -28 -46 -433 0
-400 -420 -28 46 433 0
-400 -420 28 -46 433 0
-400 -420 28 46 -433 0
-400 -420 -29 -47 -434 0
-400 -420 -29 47 434 0
-400 -420 29 -47 434 0
-400 -420 29 47 -434 0
-400 -420 -30 -48 -435 0
-400 -420 -30 48 435 0
-400 -420 30 -48 435 0
-400 -420 30 48 -435 0
-400 -420 -31 -49 -436 0
-400 -420 -31 49 436 0
-400 -420 31 -49 436 0
-400 -420 31 49 -436 0
-400 -420 -32 -50 -437 0
-400 -420 -32 50 437 0
-400 -420 32 -50 437 0
-400 -420 32 50 -437 0
-400 -420 -33 -51 -438 0
-400 -420 -33 51 438 0
-400 -420 33 -51 438 0
-400 -420 33 51 -438 0
-400 -420 -34 -52 -439 0
-400 -420 -34 52 439 0
-400 -420 34 -52 439 0
-400 -420 34 52 -439 0
-400 -420 -35 -53 -440 0
-400 -420 -35 53 440 0
-400 -420 35 -53 440 0
-400 -420 35 53 -440 0
-400 -420 -36 -54 -441 0
-400 -420 -36 54 441 0
-400 -420 36 -54 441 0
-400 -420 36 54 -441 0
-400 -421 -28 -55 -433 0
-400 -421 -28 55 433 0
-400 -421 28 -55 433 0
-400 -421 28 55 -433 0
-400 -421 -29 -56 -434 0
-400 -421 -29 56 434 0
-400 -421 29 -56 434 0
-400 -421 29 56 -434 0
-400 -421 -30 -57 -435 0
-400 -421 -30 57 435 0
-400 -421 30 -57 435 0
-400 -421 30 57 -435 0
-400 -421 -31 -58 -436 0
-400 -421 -31 58 436 0
-400 -421 31 -58 436 0
-400 -421 31 58 -436 0
-400 -421 -32 -59 -437 0
-400 -421 -32 59 437 0
-400 -421 32 -59 437 0
-400 -421 32 59 -437 0
-400 -421 -33 -60 -438 0
-400 -421 -33 60 438 0
-400 -421 33 -60 438 0
-400 -421 33 60 -438 0
-400 -421 -34 -61 -439 0
-400 -421 -34 61 439 0
-400 -421 34 -61 439 0
-400 -421 34 61 -439 0
-400 -421 -35 -62 -440 0
-400 -421 -35 62 440 0
-400 -421 35 -62 440 0
-400 -421 35 62 -440 0
-400 -421 -36 -63 -441 0
-400 -421 -36 63 441 0
-400 -421 36 -63 441 0
-400 -421 36 63 -441 0
-400 -422 -28 -64 -433 0
-400 -422 -28 64 433 0
-400 -422 28 -64 433 0
-400 -422 28 64 -433 0
-400 -422 -29 -65 -434 0
-400 -422 -29 65 434 0
-400 -422 29 -65 434 0
-400 -422 29 65 -434 0
-400 -422 -30 -66 -435 0
-400 -422 -30 66 435 0
-400 -422 30 -66 435 0
-400 -422 30 66 -435 0
-400 -422 -31 -67 -436 0
-400 -422 -31 67 436 0
-400 -422 31 -67 436 0
-400 -422 31 67 -436 0
-400 -422 -32 -68 -437 0
-400 -422 -32 68 437 0
-400 -422 32 -68 437 0
-400 -422 32 68 -437 0
-400 -422 -33 -69 -438 0
-400 -422 -33 69 438 0
-400 -422 33 -69 438 0
-400 -422 33 69 -438 0
-400 -422 -34 -70 -439 0
-400 -422 -34 70 439 0
-400 -422 34 -70 439 0
-400 -422 34 70 -439 0
-400 -422 -35 -71 -440 0
-400 -422 -35 71 440 0
-400 -422 35 -71 440 0
-400 -422 35 71 -440 0
-400 -422 -36 -72 -441 0
-400 -422 -36 72 441 0
-400 -422 36 -72 441 0
-400 -422 36 72 -441 0
-400 -423 -28 -73 -433 0
-400 -423 -28 73 433 0
-400 -423 28 -73 433 0
-400 -423 28 73 -433 0
-400 -423 -29 -74 -434 0
-400 -423 -29 74 434 0
-400 -423 29 -74 434 0
-400 -423 29 74 -434 0
-400 -423 -30 -75 -435 0
-400 -423 -30 75 435 0
-400 -423 30 -75 435 0
-400 -423 30 75 -435 0
-400 -423 -31 -76 -436 0
-400 -423 -31 76 436 0
-400 -423 31 -76 436 0
-400 -423 31 76 -436 0
-400 -423 -32 -77 -437 0
-400 -423 -32 77 437 0
-400 -423 32 -77 437 0
-400 -423 32 77 -437 0
-400 -423 -33 -78 -438 0
-400 -423 -33 78 438 0
-400 -423 33 -78 438 0
-400 -423 33 78 -438 0
-400 -423 -34 -79 -439 0
-400 -423 -34 79 439 0
-400 -423 34 -79 439 0
-400 -423 34 79 -439 0
-400 -423 -35 -80 -440 0
-400 -423 -35 80 440 0
-400 -423 35 -80 440 0
-400 -423 35 80 -440 0
-400 -423 -36 -81 -441 0
-400 -423 -36 81 441 0
-400 -423 36 -81 441 0
-400 -423 36 81 -441 0
-400 -424 -28 -100 -433 0
-400 -424 -28 100 433 0
-400 -424 28 -100 433 0
-400 -424 28 100 -433 0
-400 -424 -29 -101 -434 0
-400 -424 -29 101 434 0
-400 -424 29 -101 434 0
-400 -424 29 101 -434 0
-400 -424 -30 -102 -435 0
-400 -424 -30 102 435 0
-400 -424 30 -102 435 0
-400 -424 30 102 -435 0
-400 -424 -31 -103 -436 0
-400 -424 -31 103 436 0
-400 -424 31 -103 436 0
-400 -424 31 103 -436 0
-400 -424 -32 -104 -437 0
-400 -424 -32 104 437 0
-400 -424 32 -104 437 0
-400 -424 32 104 -437 0
-400 -424 -33 -105 -438 0
-400 -424 -33 105 438 0
-400 -424 33 -105 438 0
-400 -424 33 105 -438 0
-400 -424 -34 -106 -439 0
-400 -424 -34 106 439 0
-400 -424 34 -106 439 0
-400 -424 34 106 -439 0
-400 -424 -35 -107 -440 0
-400 -424 -35 107 440 0
-400 -424 35 -107 440 0
-400 -424 35 107 -440 0
-400 -424 -36 -108 -441 0
-400 -424 -36 108 441 0
-400 -424 36 -108 441 0
-400 -424 36 108 -441 0
-400 -425 -28 -129 -433 0
-400 -425 -28 129 433 0
-400 -425 28 -129 433 0
-400 -425 28 129 -433 0
-400 -425 -29 -130 -434 0
-400 -425 -29 130 434 0
-400 -425 29 -130 434 0
-400 -425 29 130 -434 0
-400 -425 -30 -131 -435 0
-400 -425 -30 131 435 0
-400 -425 30 -131 435 0
-400 -425 30 131 -435 0
-400 -425 -31 -132 -436 0
-400 -425 -31 132 436 0
-400 -425 31 -132 436 0
-400 -425 31 132 -436 0
-400 -425 -32 -133 -437 0
-400 -425 -32 133 437 0
-400 -425 32 -133 437 0
-400 -425 32 133 -437 0
-400 -425 -33 -134 -438 0
-400 -425 -33 134 438 0
-400 -425 33 -134 438 0
-400 -425 33 134 -438 0
-400 -425 -34 -135 -439 0
-400 -425 -34 135 439 0
-400 -425 34 -135 439 0
-400 -425 34 135 -439 0
-400 -425 -35 -136 -440 0
-400 -425 -35 136 440 0
-400 -425 35 -136 440 0
-400 -425 35 136 -440 0
-400 -425 -36 -137 -441 0
-400 -425 -36 137 441 0
-400 -425 36 -137 441 0
-400 -425 36 137 -441 0
-400 -426 -28 -160 -433 0
-400 -426 -28 160 433 0
-400 -426 28 -160 433 0
-400 -426 28 160 -433 0
-400 -426 -29 -161 -434 0
-400 -426 -29 161 434 0
-400 -426 29 -161 434 0
-400 -426 29 161 -434 0
-400 -426 -30 -162 -435 0
-400 -426 -30 162 435 0
-400 -426 30 -162 435 0
-400 -426 30 162 -435 0
-400 -426 -31 -163 -436 0
-400 -426 -31 163 436 0
-400 -426 31 -163 436 0
-400 -426 31 163 -436 0
-400 -426 -32 -164 -437 0
-400 -426 -32 164 437 0
-400 -426 32 -164 437 0
-400 -426 32 164 -437 0
-400 -426 -33 -165 -438 0
-400 -426 -33 165 438 0
-400 -426 33 -165 438 0
-400 -426 33 165 -438 0
-400 -426 -34 -166 -439 0
-400 -426 -34 166 439 0
-400 -426 34 -166 439 0
-400 -426 34 166 -439 0
-400 -426 -35 -167 -440 0
-400 -426 -35 167 440 0
-400 -426 35 -167 440 0
-400 -426 35 167 -440 0
-400 -426 -36 -168 -441 0
-400 -426 -36 168 441 0
-400 -426 36 -168 441 0
-400 -426 36 168 -441 0
-400 -427 -28 -193 -433 0
-400 -427 -28 193 433 0
-400 -427 28 -193 433 0
-400 -427 28 193 -433 0
-400 -427 -29 -194 -434 0
-400 -427 -29 194 434 0
-400 -427 29 -194 434 0
-400 -427 29 194 -434 0
-400 -427 -30 -195 -435 0
-400 -427 -30 195 435 0
-400 -427 30 -195 435 0
-400 -427 30 195 -435 0
-400 -427 -31 -196 -436 0
-400 -427 -31 196 436 0
-400 -427 31 -196 436 0
-400 -427 31 196 -436 0
-400 -427 -32 -197 -437 0
-400 -427 -32 197 437 0
-400 -427 32 -197 437 0
-400 -427 32 197 -437 0
-400 -427 -33 -198 -438 0
-400 -427 -33 198 438 0
-400 -427 33 -198 438 0
-400 -427 33 198 -438 0
-400 -427 -34 -199 -439 0
-400 -427 -34 199 439 0
-400 -427 34 -199 439 0
-400 -427 34 199 -439 0
-400 -427 -35 -200 -440 0
-400 -427 -35 200 440 0
-400 -427 35 -200 440 0
-400 -427 35 200 -440 0
-400 -427 -36 -201 -441 0
-400 -427 -36 201 441 0
-400 -427 36 -201 441 0
-400 -427 36 201 -441 0
-400 -428 -28 -228 -433 0
-400 -428 -28 228 433 0
-400 -428 28 -228 433 0
-400 -428 28 228 -433 0
-400 -428 -29 -229 -434 0
-400 -428 -29 229 434 0
-400 -428 29 -229 434 0
-400 -428 29 229 -434 0
-400 -428 -30 -230 -435 0
-400 -428 -30 230 435 0
-400 -428 30 -230 435 0
-400 -428 30 230 -435 0
-400 -428 -31 -231 -436 0
-400 -428 -31 231 436 0
-400 -428 31 -231 436 0
-400 -428 31 231 -436 0
-400 -428 -32 -232 -437 0
-400 -428 -32 232 437 0
-400 -428 32 -232 437 0
-400 -428 32 232 -437 0
-400 -428 -33 -233 -438 0
-400 -428 -33 233 438 0
-400 -428 33 -233 438 0
-400 -428 33 233 -438 0
-400 -428 -34 -234 -439 0
-400 -428 -34 234 439 0
-400 -428 34 -234 439 0
-400 -428 34 234 -439 0
-400 -428 -35 -235 -440 0
-400 -428 -35 235 440 0
-400 -428 35 -235 440 0
-400 -428 35 235 -440 0
-400 -428 -36 -236 -441 0
-400 -428 -36 236 441 0
-400 -428 36 -236 441 0
-400 -428 36 236 -441 0
-400 -429 -28 -265 -433 0
-400 -429 -28 265 433 0
-400 -429 28 -265 433 0
-400 -429 28 265 -433 0
-400 -429 -29 -266 -434 0
-400 -429 -29 266 434 0
-400 -429 29 -266 434 0
-400 -429 29 266 -434 0
-400 -429 -30 -267 -435 0
-400 -429 -30 267 435 0
-400 -429 30 -267 435 0
-400 -429 30 267 -435 0
-400 -429 -31 -268 -436 0
-400 -429 -31 268 436 0
-400 -429 31 -268 436 0
-400 -429 31 268 -436 0
-400 -429 -32 -269 -437 0
-400 -429 -32 269 437 0
-400 -429 32 -269 437 0
-400 -429 32 269 -437 0
-400 -429 -33 -270 -438 0
-400 -429 -33 270 438 0
-400 -429 33 -270 438 0
-400 -429 33 270 -438 0
-400 -429 -34 -271 -439 0
-400 -429 -34 271 439 0
-400 -429 34 -271 439 0
-400 -429 34 271 -439 0
-400 -429 -35 -272 -440 0
-400 -429 -35 272 440 0
-400 -429 35 -272 440 0
-400 -429 35 272 -440 0
-400 -429 -36 -273 -441 0
-400 -429 -36 273 441 0
-400 -429 36 -273 441 0
-400 -429 36 273 -441 0
-400 -430 -28 -304 -433 0
-400 -430 -28 304 433 0
-400 -430 28 -304 433 0
-400 -430 28 304 -433 0
-400 -430 -29 -305 -434 0
-400 -430 -29 305 434 0
-400 -430 29 -305 434 0
-400 -430 29 305 -434 0
-400 -430 -30 -306 -435 0
-400 -430 -30 306 435 0
-400 -430 30 -306 435 0
-400 -430 30 306 -435 0
-400 -430 -31 -307 -436 0
-400 -430 -31 307 436 0
-400 -430 31 -307 436 0
-400 -430 31 307 -436 0
-400 -430 -32 -308 -437 0
-400 -430 -32 308 437 0
-400 -430 32 -308 437 0
-400 -430 32 308 -437 0
-400 -430 -33 -309 -438 0
-400 -430 -33 309 438 0
-400 -430 33 -309 438 0
-400 -430 33 309 -438 0
-400 -430 -34 -310 -439 0
-400 -430 -34 310 439 0
-400 -430 34 -310 439 0
-400 -430 34 310 -439 0
-400 -430 -35 -311 -440 0
-400 -430 -35 311 440 0
-400 -430 35 -311 440 0
-400 -430 35 311 -440 0
-400 -430 -36 -312 -441 0
-400 -430 -36 312 441 0
-400 -430 36 -312 441 0
-400 -430 36 312 -441 0
-400 -431 -28 -345 -433 0
-400 -431 -28 345 433 0
-400 -431 28 -345 433 0
-400 -431 28 345 -433 0
-400 -431 -29 -346 -434 0
-400 -431 -29 346 434 0
-400 -431 29 -346 434 0
-400 -431 29 346 -434 0
-400 -431 -30 -347 -435 0
-400 -431 -30 347 435 0
-400 -431 30 -347 435 0
-400 -431 30 347 -435 0
-400 -431 -31 -348 -436 0
-400 -431 -31 348 436 0
-400 -431 31 -348 436 0
-400 -431 31 348 -436 0
-400 -431 -32 -349 -437 0
-400 -431 -32 349 437 0
-400 -431 32 -349 437 0
-400 -431 32 349 -437 0
-400 -431 -33 -350 -438 0
-400 -431 -33 350 438 0
-400 -431 33 -350 438 0
-400 -431 33 350 -438 0
-400 -431 -34 -351 -439 0
-400 -431 -34 351 439 0
-400 -431 34 -351 439 0
-400 -431 34 351 -439 0
-400 -431 -35 -352 -440 0
-400 -431 -35 352 440 0
-400 -431 35 -352 440 0
-400 -431 35 352 -440 0
-400 -431 -36 -353 -441 0
-400 -431 -36 353 441 0
-400 -431 36 -353 441 0
-400 -431 36 353 -441 0
-400 -432 -28 -388 -433 0
-400 -432 -28 388 433 0
-400 -432 28 -388 433 0
-400 -432 28 388 -433 0
-400 -432 -29 -389 -434 0
-400 -432 -29 389 434 0
-400 -432 29 -389 434 0
-400 -432 29 389 -434 0
-400 -432 -30 -390 -435 0
-400 -432 -30 390 435 0
-400 -432 30 -390 435 0
-400 -432 30 390 -435 0
-400 -432 -31 -391 -436 0
-400 -432 -31 391 436 0
-400 -432 31 -391 436 0
-400 -432 31 391 -436 0
-400 -432 -32 -392 -437 0
-400 -432 -32 392 437 0
-400 -432 32 -392 437 0
-400 -432 32 392 -437 0
-400 -432 -33 -393 -438 0
-400 -432 -33 393 438 0
-400 -432 33 -393 438 0
-400 -432 33 393 -438 0
-400 -432 -34 -394 -439 0
-400 -432 -34 394 439 0
-400 -432 34 -394 439 0
-400 -432 34 394 -439 0
-400 -432 -35 -395 -440 0
-400 -432 -35 395 440 0
-400 -432 35 -395 440 0
-400 -432 35 395 -440 0
-400 -432 -36 -396 -441 0
-400 -432 -36 396 441 0
-400 -432 36 -396 441 0
-400 -432 36 396 -441 0
-401 -420 -37 -46 -433 0
-401 -420 -37 46 433 0
-401 -420 37 -46 433 0
-401 -420 37 46 -433 0
-401 -420 -38 -47 -434 0
-401 -420 -38 47 434 0
-401 -420 38 -47 434 0
-401 -420 38 47 -434 0
-401 -420 -39 -48 -435 0
-401 -420 -39 48 435 0
-401 -420 39 -48 435 0
-401 -420 39 48 -435 0
-401 -420 -40 -49 -436 0
-401 -420 -40 49 436 0
-401 -420 40 -49 436 0
-401 -420 40 49 -436 0
-401 -420 -41 -50 -437 0
-401 -420 -41 50 437 0
-401 -420 41 -50 437 0
-401 -420 41 50 -437 0
-401 -420 -42 -51 -438 0
-401 -420 -42 51 438 0
-401 -420 42 -51 438 0
-401 -420 42 51 -438 0
-401 -420 -43 -52 -439 0
-401 -420 -43 52 439 0
-401 -420 43 -52 439 0
-401 -420 43 52 -439 0
-401 -420 -44 -53 -440 0
-401 -420 -44 53 440 0
-401 -420 44 -53 440 0
-401 -420 44 53 -440 0
-401 -420 -45 -54 -441 0
-401 -420 -45 54 441 0
-401 -420 45 -54 441 0
-401 -420 45 54 -441 0
-401 -421 -37 -55 -433 0
-401 -421 -37 55 433 0
-401 -421 37 -55 433 0
-401 -421 37 55 -433 0
-401 -421 -38 -56 -434 0
-401 -421 -38 56 434 0
-401 -421 38 -56 434 0
-401 -421 38 56 -434 0
-401 -421 -39 -57 -435 0
-401 -421 -39 57 435 0
-401 -421 39 -57 435 0
-401 -421 39 57 -435 0
-401 -421 -40 -58 -436 0
-401 -421 -40 58 436 0
-401 -421 40 -58 436 0
-401 -421 40 58 -436 0
-401 -421 -41 -59 -437 0
-401 -421 -41 59 437 0
-401 -421 41 -59 437 0
-401 -421 41 59 -437 0
-401 -421 -42 -60 -438 0
-401 -421 -42 60 438 0
-401 -421 42 -60 438 0
-401 -421 42 60 -438 0
-401 -421 -43 -61 -439 0
-401 -421 -43 61 439 0
-401 -421 43 -61 439 0
-401 -421 43 61 -439 0
-401 -421 -44 -62 -440 0
-401 -421 -44 62 440 0
-401 -421 44 -62 440 0
-401 -421 44 62 -440 0
-401 -421 -45 -63 -441 0
-401 -421 -45 63 441 0
-401 -421 45 -63 441 0
-401 -421 45 63 -441 0
-401 -422 -37 -64 -433 0
-401 -422 -37 64 433 0
-401 -422 37 -64 433 0
-401 -422 37 64 -433 0
-401 -422 -38 -65 -434 0
-401 -422 -38 65 434 0
-401 -422 38 -65 434 0
-401 -422 38 65 -434 0
-401 -422 -39 -66 -435 0
-401 -422 -39 66 435 0
-401 -422 39 -66 435 0
-401 -422 39 66 -435 0
-401 -422 -40 -67 -436 0
-401 -422 -40 67 436 0
-401 -422 40 -67 436 0
-401 -422 40 67 -436 0
-401 -422 -41 -68 -437 0
-401 -422 -41 68 437 0
-401 -422 41 -68 437 0
-401 -422 41 68 -437 0
-401 -422 -42 -69 -438 0
-401 -422 -42 69 438 0
-401 -422 42 -69 438 0
-401 -422 42 69 -438 0
-401 -422 -43 -70 -439 0
-401 -422 -43 70 439 0
-401 -422 43 -70 439 0
-401 -422 43 70 -439 0
-401 -422 -44 -71 -440 0
-401 -422 -44 71 440 0
-401 -422 44 -71 440 0
-401 -422 44 71 -440 0
-401 -422 -45 -72 -441 0
-401 -422 -45 72 441 0
-401 -422 45 -72 441 0
-401 -422 45 72 -441 0
-401 -423 -37 -73 -433 0
-401 -423 -37 73 433 0
-401 -423 37 -73 433 0
-401 -423 37 73 -433 0
-401 -423 -38 -74 -434 0
-401 -423 -38 74 434 0
-401 -423 38 -74 434 0
-401 -423 38 74 -434 0
-401 -423 -39 -75 -435 0
-401 -423 -39 75 435 0
-401 -423 39 -75 435 0
-401 -423 39 75 -435 0
-401 -423 -40 -76 -436 0
-401 -423 -40 76 436 0
-401 -423 40 -76 436 0
-401 -423 40 76 -436 0
-401 -423 -41 -77 -437 0
-401 -423 -41 77 437 0
-401 -423 41 -77 437 0
-401 -423 41 77 -437 0
-401 -423 -42 -78 -438 0
-401 -423 -42 78 438 0
-401 -423 42 -78 438 0
-401 -423 42 78 -438 0
-401 -423 -43 -79 -439 0
-401 -423 -43 79 439 0
-401 -423 43 -79 439 0
-401 -423 43 79 -439 0
-401 -423 -44 -80 -440 0
-401 -423 -44 80 440 0
-401 -423 44 -80 440 0
-401 -423 44 80 -440 0
-401 -423 -45 -81 -441 0
-401 -423 -45 81 441 0
-401 -423 45 -81 441 0
-401 -423 45 81 -441 0
-401 -424 -37 -100 -433 0
-401 -424 -37 100 433 0
-401 -424 37 -100 433 0
-401 -424 37 100 -433 0
-401 -424 -38 -101 -434 0
-401 -424 -38 101 434 0
-401 -424 38 -101 434 0
-401 -424 38 101 -434 0
-401 -424 -39 -102 -435 0
-401 -424 -39 102 435 0
-401 -424 39 -102 435 0
-401 -424 39 102 -435 0
-401 -424 -40 -103 -436 0
-401 -424 -40 103 436 0
-401 -424 40 -103 436 0
-401 -424 40 103 -436 0
-401 -424 -41 -104 -437 0
-401 -424 -41 104 437 0
-401 -424 41 -104 437 0
-401 -424 41 104 -437 0
-401 -424 -42 -105 -438 0
-401 -424 -42 105 438 0
-401 -424 42 -105 438 0
-401 -424 42 105 -438 0
-401 -424 -43 -106 -439 0
-401 -424 -43 106 439 0
-401 -424 43 -106 439 0
-401 -424 43 106 -439 0
-401 -424 -44 -107 -440 0
-401 -424 -44 107 440 0
-401 -424 44 -107 440 0
-401 -424 44 107 -440 0
-401 -424 -45 -108 -441 0
-401 -424 -45 108 441 0
-401 -424 45 -108 441 0
-401 -424 45 108 -441 0
-401 -425 -37 -129 -433 0
-401 -425 -37 129 433 0
-401 -425 37 -129 433 0
-401 -425 37 129 -433 0
-401 -425 -38 -130 -434 0
-401 -425 -38 130 434 0
-401 -425 38 -130 434 0
-401 -425 38 130 -434 0
-401 -425 -39 -131 -435 0
-401 -425 -39 131 435 0
-401 -425 39 -131 435 0
-401 -425 39 131 -435 0
-401 -425 -40 -132 -436 0
-401 -425 -40 132 436 0
-401 -425 40 -132 436 0
-401 -425 40 132 -436 0
-401 -425 -41 -133 -437 0
-401 -425 -41 133 437 0
-401 -425 41 -133 437 0
-401 -425 41 133 -437 0
-401 -425 -42 -134 -438 0
-401 -425 -42 134 438 0
-401 -425 42 -134 438 0
-401 -425 42 134 -438 0
-401 -425 -43 -135 -439 0
-401 -425 -43 135 439 0
-401 -425 43 -135 439 0
-401 -425 43 135 -439 0
-401 -425 -44 -136 -440 0
-401 -425 -44 136 440 0
-401 -425 44 -136 440 0
-401 -425 44 136 -440 0
-401 -425 -45 -137 -441 0
-401 -425 -45 137 441 0
-401 -425 45 -137 441 0
-401 -425 45 137 -441 0
-401 -426 -37 -160 -433 0
-401 -426 -37 160 433 0
-401 -426 37 -160 433 0
-401 -426 37 160 -433 0
-401 -426 -38 -161 -434 0
-401 -426 -38 161 434 0
-401 -426 38 -161 434 0
-401 -426 38 161 -434 0
-401 -426 -39 -162 -435 0
-401 -426 -39 162 435 0
-401 -426 39 -162 435 0
-401 -426 39 162 -435 0
-401 -426 -40 -163 -436 0
-401 -426 -40 163 436 0
-401 -426 40 -163 436 0
-401 -426 40 163 -436 0
-401 -426 -41 -164 -437 0
-401 -426 -41 164 437 0
-401 -426 41 -164 437 0
-401 -426 41 164 -437 0
-401 -426 -42 -165 -438 0
-401 -426 -42 165 438 0
-401 -426 42 -165 438 0
-401 -426 42 165 -438 0
-401 -426 -43 -166 -439 0
-401 -426 -43 166 439 0
-401 -426 43 -166 439 0
-401 -426 43 166 -439 0
-401 -426 -44 -167 -440 0
-401 -426 -44 167 440 0
-401 -426 44 -167 440 0
-401 -426 44 167 -440 0
-401 -426 -45 -168 -441 0
-401 -426 -45 168 441 0
-401 -426 45 -168 441 0
-401 -426 45 168 -441 0
-401 -427 -37 -193 -433 0
-401 -427 -37 193 433 0
-401 -427 37 -193 433 0
-401 -427 37 193 -433 0
-401 -427 -38 -194 -434 0
-401 -427 -38 194 434 0
-401 -427 38 -194 434 0
-401 -427 38 194 -434 0
-401 -427 -39 -195 -435 0
-401 -427 -39 195 435 0
-401 -427 39 -195 435 0
-401 -427 39 195 -435 0
-401 -427 -40 -196 -436 0
-401 -427 -40 196 436 0
-401 -427 40 -196 436 0
-401 -427 40 196 -436 0
-401 -427 -41 -197 -437 0
-401 -427 -41 197 437 0
-401 -427 41 -197 437 0
-401 -427 41 197 -437 0
-401 -427 -42 -198 -438 0
-401 -427 -42 198 438 0
-401 -427 42 -198 438 0
-401 -427 42 198 -438 0
-401 -427 -43 -199 -439 0
-401 -427 -43 199 439 0
-401 -427 43 -199 439 0
-401 -427 43 199 -439 0
-401 -427 -44 -200 -440 0
-401 -427 -44 200 440 0
-401 -427 44 -200 440 0
-401 -427 44 200 -440 0
-401 -427 -45 -201 -441 0
-401 -427 -45 201 441 0
-401 -427 45 -201 441 0
-401 -427 45 201 -441 0
-401 -428 -37 -228 -433 0
-401 -428 -37 228 433 0
-401 -428 37 -228 433 0
-401 -428 37 228 -433 0
-401 -428 -38 -229 -434 0
-401 -428 -38 229 434 0
-401 -428 38 -229 434 0
-401 -428 38 229 -434 0
-401 -428 -39 -230 -435 0
-401 -428 -39 230 435 0
-401 -428 39 -230 435 0
-401 -428 39 230 -435 0
-401 -428 -40 -231 -436 0
-401 -428 -40 231 436 0
-401 -428 40 -231 436 0
-401 -428 40 231 -436 0
-401 -428 -41 -232 -437 0
-401 -428 -41 232 437 0
-401 -428 41 -232 437 0
-401 -428 41 232 -437 0
-401 -428 -42 -233 -438 0
-401 -428 -42 233 438 0
-401 -428 42 -233 438 0
-401 -428 42 233 -438 0
-401 -428 -43 -234 -439 0
-401 -428 -43 234 439 0
-401 -428 43 -234 439 0
-401 -428 43 234 -439 0
-401 -428 -44 -235 -440 0
-401 -428 -44 235 440 0
-401 -428 44 -235 440 0
-401 -428 44 235 -440 0
-401 -428 -45 -236 -441 0
-401 -428 -45 236 441 0
-401 -428 45 -236 441 0
-401 -428 45 236 -441 0
-401 -429 -37 -265 -433 0
-401 -429 -37 265 433 0
-401 -429 37 -265 433 0
-401 -429 37 265 -433 0
-401 -429 -38 -266 -434 0
-401 -429 -38 266 434 0
-401 -429 38 -266 434 0
-401 -429 38 266 -434 0
-401 -429 -39 -267 -435 0
-401 -429 -39 267 435 0
-401 -429 39 -267 435 0
-401 -429 39 267 -435 0
-401 -429 -40 -268 -436 0
-401 -429 -40 268 436 0
-401 -429 40 -268 436 0
-401 -429 40 268 -436 0
-401 -429 -41 -269 -437 0
-401 -429 -41 269 437 0
-401 -429 41 -269 437 0
-401 -429 41 269 -437 0
-401 -429 -42 -270 -438 0
-401 -429 -42 270 438 0
-401 -429 42 -270 438 0
-401 -429 42 270 -438 0
-401 -429 -43 -271 -439 0
-401 -429 -43 271 439 0
-401 -429 43 -271 439 0
-401 -429 43 271 -439 0
-401 -429 -44 -272 -440 0
-401 -429 -44 272 440 0
-401 -429 44 -272 440 0
-401 -429 44 272 -440 0
-401 -429 -45 -273 -441 0
-401 -429 -45 273 441 0
-401 -429 45 -273 441 0
-401 -429 45 273 -441 0
-401 -430 -37 -304 -433 0
-401 -430 -37 304 433 0
-401 -430 37 -304 433 0
-401 -430 37 304 -433 0
-401 -430 -38 -305 -434 0
-401 -430 -38 305 434 0
-401 -430 38 -305 434 0
-401 -430 38 305 -434 0
-401 -430 -39 -306 -435 0
-401 -430 -39 306 435 0
-401 -430 39 -306 435 0
-401 -430 39 306 -435 0
-401 -430 -40 -307 -436 0
-401 -430 -40 307 436 0
-401 -430 40 -307 436 0
-401 -430 40 307 -436 0
-401 -430 -41 -308 -437 0
-401 -430 -41 308 437 0
-401 -430 41 -308 437 0
-401 -430 41 308 -437 0
-401 -430 -42 -309 -438 0
-401 -430 -42 309 438 0
-401 -430 42 -309 438 0
-401 -430 42 309 -438 0
-401 -430 -43 -310 -439 0
-401 -430 -43 310 439 0
-401 -430 43 -310 439 0
-401 -430 43 310 -439 0
-401 -430 -44 -311 -440 0
-401 -430 -44 311 440 0
-401 -430 44 -311 440 0
-401 -430 44 311 -440 0
-401 -430 -45 -312 -441 0
-401 -430 -45 312 441 0
-401 -430 45 -312 441 0
-401 -430 45 312 -441 0
-401 -431 -37 -345 -433 0
-401 -431 -37 345 433 0
-401 -431 37 -345 433 0
-401 -431 37 345 -433 0
-401 -431 -38 -346 -434 0
-401 -431 -38 346 434 0
-401 -431 38 -346 434 0
-401 -431 38 346 -434 0
-401 -431 -39 -347 -435 0
-401 -431 -39 347 435 0
-401 -431 39 -347 435 0
-401 -431 39 347 -435 0
-401 -431 -40 -348 -436 0
-401 -431 -40 348 436 0
-401 -431 40 -348 436 0
-401 -431 40 348 -436 0
-401 -431 -41 -349 -437 0
-401 -431 -41 349 437 0
-401 -431 41 -349 437 0
-401 -431 41 349 -437 0
-401 -431 -42 -350 -438 0
-401 -431 -42 350 438 0
-401 -431 42 -350 438 0
-401 -431 42 350 -438 0
-401 -431 -43 -351 -439 0
-401 -431 -43 351 439 0
-401 -431 43 -351 439 0
-401 -431 43 351 -439 0
-401 -431 -44 -352 -440 0
-401 -431 -44 352 440 0
-401 -431 44 -352 440 0
-401 -431 44 352 -440 0
-401 -431 -45 -353 -441 0
-401 -431 -45 353 441 0
-401 -431 45 -353 441 0
-401 -431 45 353 -441 0
-401 -432 -37 -388 -433 0
-401 -432 -37 388 433 0
-401 -432 37 -388 433 0
-401 -432 37 388 -433 0
-401 -432 -38 -389 -434 0
-401 -432 -38 389 434 0
-401 -432 38 -389 434 0
-401 -432 38 389 -434 0
-401 -432 -39 -390 -435 0
-401 -432 -39 390 435 0
-401 -432 39 -390 435 0
-401 -432 39 390 -435 0
-401 -432 -40 -391 -436 0
-401 -432 -40 391 436 0
-401 -432 40 -391 436 0
-401 -432 40 391 -436 0
-401 -432 -41 -392 -437 0
-401 -432 -41 392 437 0
-401 -432 41 -392 437 0
-401 -432 41 392 -437 0
-401 -432 -42 -393 -438 0
-401 -432 -42 393 438 0
-401 -432 42 -393 438 0
-401 -432 42 393 -438 0
-401 -432 -43 -394 -439 0
-401 -432 -43 394 439 0
-401 -432 43 -394 439 0
-401 -432 43 394 -439 0
-401 -432 -44 -395 -440 0
-401 -432 -44 395 440 0
-401 -432 44 -395 440 0
-401 -432 44 395 -440 0
-401 -432 -45 -396 -441 0
-401 -432 -45 396 441 0
-401 -432 45 -396 441 0
-401 -432 45 396 -441 0
-402 -421 -46 -55 -433 0
-402 -421 -46 55 433 0
-402 -421 46 -55 433 0
-402 -421 46 55 -433 0
-402 -421 -47 -56 -434 0
-402 -421 -47 56 434 0
-402 -421 47 -56 434 0
-402 -421 47 56 -434 0
-402 -421 -48 -57 -435 0
-402 -421 -48 57 435 0
-402 -421 48 -57 435 0
-402 -421 48 57 -435 0
-402 -421 -49 -58 -436 0
-402 -421 -49 58 436 0
-402 -421 49 -58 436 0
-402 -421 49 58 -436 0
-402 -421 -50 -59 -437 0
-402 -421 -50 59 437 0
-402 -421 50 -59 437 0
-402 -421 50 59 -437 0
-402 -421 -51 -60 -438 0
-402 -421 -51 60 438 0
-402 -421 51 -60 438 0
-402 -421 51 60 -438 0
-402 -421 -52 -61 -439 0
-402 -421 -52 61 439 0
-402 -421 52 -61 439 0
-402 -421 52 61 -439 0
-402 -421 -53 -62 -440 0
-402 -421 -53 62 440 0
-402 -421 53 -62 440 0
-402 -421 53 62 -440 0
-402 -421 -54 -63 -441 0
-402 -421 -54 63 441 0
-402 -421 54 -63 441 0
-402 -421 54 63 -441 0
-402 -422 -46 -64 -433 0
-402 -422 -46 64 433 0
-402 -422 46 -64 433 0
-402 -422 46 64 -433 0
-402 -422 -47 -65 -434 0
-402 -422 -47 65 434 0
-402 -422 47 -65 434 0
-402 -422 47 65 -434 0
-402 -422 -48 -66 -435 0
-402 -422 -48 66 435 0
-402 -422 48 -66 435 0
-402 -422 48 66 -435 0
-402 -422 -49 -67 -436 0
-402 -422 -49 67 436 0
-402 -422 49 -67 436 0
-402 -422 49 67 -436 0
-402 -422 -50 -68 -437 0
-402 -422 -50 68 437 0
-402 -422 50 -68 437 0
-402 -422 50 68 -437 0
-402 -422 -51 -69 -438 0
-402 -422 -51 69 438 0
-402 -422 51 -69 438 0
-402 -422 51 69 -438 0
-402 -422 -52 -70 -439 0
-402 -422 -52 70 439 0
-402 -422 52 -70 439 0
-402 -422 52 70 -439 0
-402 -422 -53 -71 -440 0
-402 -422 -53 71 440 0
-402 -422 53 -71 440 0
-402 -422 53 71 -440 0
-402 -422 -54 -72 -441 0
-402 -422 -54 72 441 0
-402 -422 54 -72 441 0
-402 -422 54 72 -441 0
-402 -423 -46 -73 -433 0
-402 -423 -46 73 433 0
-402 -423 46 -73 433 0
-402 -423 46 73 -433 0
-402 -423 -47 -74 -434 0
-402 -423 -47 74 434 0
-402 -423 47 -74 434 0
-402 -423 47 74 -434 0
-402 -423 -48 -75 -435 0
-402 -423 -48 75 435 0
-402 -423 48 -75 435 0
-402 -423 48 75 -435 0
-402 -423 -49 -76 -436 0
-402 -423 -49 76 436 0
-402 -423 49 -76 436 0
-402 -423 49 76 -436 0
-402 -423 -50 -77 -437 0
-402 -423 -50 77 437 0
-402 -423 50 -77 437 0
-402 -423 50 77 -437 0
-402 -423 -51 -78 -438 0
-402 -423 -51 78 438 0
-402 -423 51 -78 438 0
-402 -423 51 78 -438 0
-402 -423 -52 -79 -439 0
-402 -423 -52 79 439 0
-402 -423 52 -79 439 0
-402 -423 52 79 -439 0
-402 -423 -53 -80 -440 0
-402 -423 -53 80 440 0
-402 -423 53 -80 440 0
-402 -423 53 80 -440 0
-402 -423 -54 -81 -441 0
-402 -423 -54 81 441 0
-402 -423 54 -81 441 0
-402 -423 54 81 -441 0
-402 -424 -46 -100 -433 0
-402 -424 -46 100 433 0
-402 -424 46 -100 433 0
-402 -424 46 100 -433 0
-402 -424 -47 -101 -434 0
-402 -424 -47 101 434 0
-402 -424 47 -101 434 0
-402 -424 47 101 -434 0
-402 -424 -48 -102 -435 0
-402 -424 -48 102 435 0
-402 -424 48 -102 435 0
-402 -424 48 102 -435 0
-402 -424 -49 -103 -436 0
-402 -424 -49 103 436 0
-402 -424 49 -103 436 0
-402 -424 49 103 -436 0
-402 -424 -50 -104 -437 0
-402 -424 -50 104 437 0
-402 -424 50 -104 437 0
-402 -424 50 104 -437 0
-402 -424 -51 -105 -438 0
-402 -424 -51 105 438 0
-402 -424 51 -105 438 0
-402 -424 51 105 -438 0
-402 -424 -52 -106 -439 0
-402 -424 -52 106 439 0
-402 -424 52 -106 439 0
-402 -424 52 106 -439 0
-402 -424 -53 -107 -440 0
-402 -424 -53 107 440 0
-402 -424 53 -107 440 0
-402 -424 53 107 -440 0
-402 -424 -54 -108 -441 0
-402 -424 -54 108 441 0
-402 -424 54 -108 441 0
-402 -424 54 108 -441 0
-402 -425 -46 -129 -433 0
-402 -425 -46 129 433 0
-402 -425 46 -129 433 0
-402 -425 46 129 -433 0
-402 -425 -47 -130 -434 0
-402 -425 -47 130 434 0
-402 -425 47 -130 434 0
-402 -425 47 130 -434 0
-402 -425 -48 -131 -435 0
-402 -425 -48 131 435 0
-402 -425 48 -131 435 0
-402 -425 48 131 -435 0
-402 -425 -49 -132 -436 0
-402 -425 -49 132 436 0
-402 -425 49 -132 436 0
-402 -425 49 132 -436 0
-402 -425 -50 -133 -437 0
-402 -425 -50 133 437 0
-402 -425 50 -133 437 0
-402 -425 50 133 -437 0
-402 -425 -51 -134 -438 0
-402 -425 -51 134 438 0
-402 -425 51 -134 438 0
-402 -425 51 134 -438 0
-402 -425 -52 -135 -439 0
-402 -425 -52 135 439 0
-402 -425 52 -135 439 0
-402 -425 52 135 -439 0
-402 -425 -53 -136 -440 0
-402 -425 -53 136 440 0
-402 -425 53 -136 440 0
-402 -425 53 136 -440 0
-402 -425 -54 -137 -441 0
-402 -425 -54 137 441 0
-402 -425 54 -137 441 0
-402 -425 54 137 -441 0
-402 -426 -46 -160 -433 0
-402 -426 -46 160 433 0
-402 -426 46 -160 433 0
-402 -426 46 160 -433 0
-402 -426 -47 -161 -434 0
-402 -426 -47 161 434 0
-402 -426 47 -161 434 0
-402 -426 47 161 -434 0
-402 -426 -48 -162 -435 0
-402 -426 -48 162 435 0
-402 -426 48 -162 435 0
-402 -426 48 162 -435 0
-402 -426 -49 -163 -436 0
-402 -426 -49 163 436 0
-402 -426 49 -163 436 0
-402 -426 49 163 -436 0
-402 -426 -50 -164 -437 0
-402 -426 -50 164 437 0
-402 -426 50 -164 437 0
-402 -426 50 164 -437 0
-402 -426 -51 -165 -438 0
-402 -426 -51 165 438 0
-402 -426 51 -165 438 0
-402 -426 51 165 -438 0
-402 -426 -52 -166 -439 0
-402 -426 -52 166 439 0
-402 -426 52 -166 439 0
-402 -426 52 166 -439 0
-402 -426 -53 -167 -440 0
-402 -426 -53 167 440 0
-402 -426 53 -167 440 0
-402 -426 53 167 -440 0
-402 -426 -54 -168 -441 0
-402 -426 -54 168 441 0
-402 -426 54 -168 441 0
-402 -426 54 168 -441 0
-402 -427 -46 -193 -433 0
-402 -427 -46 193 433 0
-402 -427 46 -193 433 0
-402 -427 46 193 -433 0
-402 -427 -47 -194 -434 0
-402 -427 -47 194 434 0
-402 -427 47 -194 434 0
-402 -427 47 194 -434 0
-402 -427 -48 -195 -435 0
-402 -427 -48 195 435 0
-402 -427 48 -195 435 0
-402 -427 48 195 -435 0
-402 -427 -49 -196 -436 0
-402 -427 -49 196 436 0
-402 -427 49 -196 436 0
-402 -427 49 196 -436 0
-402 -427 -50 -197 -437 0
-402 -427 -50 197 437 0
-402 -427 50 -197 437 0
-402 -427 50 197 -437 0
-402 -427 -51 -198 -438 0
-402 -427 -51 198 438 0
-402 -427 51 -198 438 0
-402 -427 51 198 -438 0
-402 -427 -52 -199 -439 0
-402 -427 -52 199 439 0
-402 -427 52 -199 439 0
-402 -427 52 199 -439 0
-402 -427 -53 -200 -440 0
-402 -427 -53 200 440 0
-402 -427 53 -200 440 0
-402 -427 53 200 -440 0
-402 -427 -54 -201 -441 0
-402 -427 -54 201 441 0
-402 -427 54 -201 441 0
-402 -427 54 201 -441 0
-402 -428 -46 -228 -433 0
-402 -428 -46 228 433 0
-402 -428 46 -228 433 0
-402 -428 46 228 -433 0
-402 -428 -47 -229 -434 0
-402 -428 -47 229 434 0
-402 -428 47 -229 434 0
-402 -428 47 229 -434 0
-402 -428 -48 -230 -435 0
-402 -428 -48 230 435 0
-402 -428 48 -230 435 0
-402 -428 48 230 -435 0
-402 -428 -49 -231 -436 0
-402 -428 -49 231 436 0
-402 -428 49 -231 436 0
-402 -428 49 231 -436 0
-402 -428 -50 -232 -437 0
-402 -428 -50 232 437 0
-402 -428 50 -232 437 0
-402 -428 50 232 -437 0
-402 -428 -51 -233 -438 0
-402 -428 -51 233 438 0
-402 -428 51 -233 438 0
-402 -428 51 233 -438 0
-402 -428 -52 -234 -439 0
-402 -428 -52 234 439 0
-402 -428 52 -234 439 0
-402 -428 52 234 -439 0
-402 -428 -53 -235 -440 0
-402 -428 -53 235 440 0
-402 -428 53 -235 440 0
-402 -428 53 235 -440 0
-402 -428 -54 -236 -441 0
-402 -428 -54 236 441 0
-402 -428 54 -236 441 0
-402 -428 54 236 -441 0
-402 -429 -46 -265 -433 0
-402 -429 -46 265 433 0
-402 -429 46 -265 433 0
-402 -429 46 265 -433 0
-402 -429 -47 -266 -434 0
-402 -429 -47 266 434 0
-402 -429 47 -266 434 0
-402 -429 47 266 -434 0
-402 -429 -48 -267 -435 0
-402 -429 -48 267 435 0
-402 -429 48 -267 435 0
-402 -429 48 267 -435 0
-402 -429 -49 -268 -436 0
-402 -429 -49 268 436 0
-402 -429 49 -268 436 0
-402 -429 49 268 -436 0
-402 -429 -50 -269 -437 0
-402 -429 -50 269 437 0
-402 -429 50 -269 437 0
-402 -429 50 269 -437 0
-402 -429 -51 -270 -438 0
-402 -429 -51 270 438 0
-402 -429 51 -270 438 0
-402 -429 51 270 -438 0
-402 -429 -52 -271 -439 0
-402 -429 -52 271 439 0
-402 -429 52 -271 439 0
-402 -429 52 271 -439 0
-402 -429 -53 -272 -440 0
-402 -429 -53 272 440 0
-402 -429 53 -272 440 0
-402 -429 53 272 -440 0
-402 -429 -54 -273 -441 0
-402 -429 -54 273 441 0
-402 -429 54 -273 441 0
-402 -429 54 273 -441 0
-402 -430 -46 -304 -433 0
-402 -430 -46 304 433 0
-402 -430 46 -304 433 0
-402 -430 46 304 -433 0
-402 -430 -47 -305 -434 0
-402 -430 -47 305 434 0
-402 -430 47 -305 434 0
-402 -430 47 305 -434 0
-402 -430 -48 -306 -435 0
-402 -430 -48 306 435 0
-402 -430 48 -306 435 0
-402 -430 48 306 -435 0
-402 -430 -49 -307 -436 0
-402 -430 -49 307 436 0
-402 -430 49 -307 436 0
-402 -430 49 307 -436 0
-402 -430 -50 -308 -437 0
-402 -430 -50 308 437 0
-402 -430 50 -308 437 0
-402 -430 50 308 -437 0
-402 -430 -51 -309 -438 0
-402 -430 -51 309 438 0
-402 -430 51 -309 438 0
-402 -430 51 309 -438 0
-402 -430 -52 -310 -439 0
-402 -430 -52 310 439 0
-402 -430 52 -310 439 0
-402 -430 52 310 -439 0
-402 -430 -53 -311 -440 0
-402 -430 -53 311 440 0
-402 -430 53 -311 440 0
-402 -430 53 311 -440 0
-402 -430 -54 -312 -441 0
-402 -430 -54 312 441 0
-402 -430 54 -312 441 0
-402 -430 54 312 -441 0
-402 -431 -46 -345 -433 0
-402 -431 -46 345 433 0
-402 -431 46 -345 433 0
-402 -431 46 345 -433 0
-402 -431 -47 -346 -434 0
-402 -431 -47 346 434 0
-402 -431 47 -346 434 0
-402 -431 47 346 -434 0
-402 -431 -48 -347 -435 0
-402 -431 -48 347 435 0
-402 -431 48 -347 435 0
-402 -431 48 347 -435 0
-402 -431 -49 -348 -436 0
-402 -431 -49 348 436 0
-402 -431 49 -348 436 0
-402 -431 49 348 -436 0
-402 -431 -50 -349 -437 0
-402 -431 -50 349 437 0
-402 -431 50 -349 437 0
-402 -431 50 349 -437 0
-402 -431 -51 -350 -438 0
-402 -431 -51 350 438 0
-402 -431 51 -350 438 0
-402 -431 51 350 -438 0
-402 -431 -52 -351 -439 0
-402 -431 -52 351 439 0
-402 -431 52 -351 439 0
-402 -431 52 351 -439 0
-402 -431 -53 -352 -440 0
-402 -431 -53 352 440 0
-402 -431 53 -352 440 0
-402 -431 53 352 -440 0
-402 -431 -54 -353 -441 0
-402 -431 -54 353 441 0
-402 -431 54 -353 441 0
-402 -431 54 353 -441 0
-402 -432 -46 -388 -433 0
-402 -432 -46 388 433 0
-402 -432 46 -388 433 0
-402 -432 46 388 -433 0
-402 -432 -47 -389 -434 0
-402 -432 -47 389 434 0
-402 -432 47 -389 434 0
-402 -432 47 389 -434 0
-402 -432 -48 -390 -435 0
-402 -432 -48 390 435 0
-402 -432 48 -390 435 0
-402 -432 48 390 -435 0
-402 -432 -49 -391 -436 0
-402 -432 -49 391 436 0
-402 -432 49 -391 436 0
-402 -432 49 391 -436 0
-402 -432 -50 -392 -437 0
-402 -432 -50 392 437 0
-402 -432 50 -392 437 0
-402 -432 50 392 -437 0
-402 -432 -51 -393 -438 0
-402 -432 -51 393 438 0
-402 -432 51 -393 438 0
-402 -432 51 393 -438 0
-402 -432 -52 -394 -439 0
-402 -432 -52 394 439 0
-402 -432 52 -394 439 0
-402 -432 52 394 -439 0
-402 -432 -53 -395 -440 0
-402 -432 -53 395 440 0
-402 -432 53 -395 440 0
-402 -432 53 395 -440 0
-402 -432 -54 -396 -441 0
-402 -432 -54 396 441 0
-402 -432 54 -396 441 0
-402 -432 54 396 -441 0
-403 -422 -55 -64 -433 0
-403 -422 -55 64 433 0
-403 -422 55 -64 433 0
-403 -422 55 64 -433 0
-403 -422 -56 -65 -434 0
-403 -422 -56 65 434 0
-403 -422 56 -65 434 0
-403 -422 56 65 -434 0
-403 -422 -57 -66 -435 0
-403 -422 -57 66 435 0
-403 -422 57 -66 435 0
-403 -422 57 66 -435 0
-403 -422 -58 -67 -436 0
-403 -422 -58 67 436 0
-403 -422 58 -67 436 0
-403 -422 58 67 -436 0
-403 -422 -59 -68 -437 0
-403 -422 -59 68 437 0
-403 -422 59 -68 437 0
-403 -422 59 68 -437 0
-403 -422 -60 -69 -438 0
-403 -422 -60 69 438 0
-403 -422 60 -69 438 0
-403 -422 60 69 -438 0
-403 -422 -61 -70 -439 0
-403 -422 -61 70 439 0
-403 -422 61 -70 439 0
-403 -422 61 70 -439 0
-403 -422 -62 -71 -440 0
-403 -422 -62 71 440 0
-403 -422 62 -71 440 0
-403 -422 62 71 -440 0
-403 -422 -63 -72 -441 0
-403 -422 -63 72 441 0
-403 -422 63 -72 441 0
-403 -422 63 72 -441 0
-403 -423 -55 -73 -433 0
-403 -423 -55 73 433 0
-403 -423 55 -73 433 0
-403 -423 55 73 -433 0
-403 -423 -56 -74 -434 0
-403 -423 -56 74 434 0
-403 -423 56 -74 434 0
-403 -423 56 74 -434 0
-403 -423 -57 -75 -435 0
-403 -423 -57 75 435 0
-403 -423 57 -75 435 0
-403 -423 57 75 -435 0
-403 -423 -58 -76 -436 0
-403 -423 -58 76 436 0
-403 -423 58 -76 436 0
-403 -423 58 76 -436 0
-403 -423 -59 -77 -437 0
-403 -423 -59 77 437 0
-403 -423 59 -77 437 0
-403 -423 59 77 -437 0
-403 -423 -60 -78 -438 0
-403 -423 -60 78 438 0
-403 -423 60 -78 438 0
-403 -423 60 78 -438 0
-403 -423 -61 -79 -439 0
-403 -423 -61 79 439 0
-403 -423 61 -79 439 0
-403 -423 61 79 -439 0
-403 -423 -62 -80 -440 0
-403 -423 -62 80 440 0
-403 -423 62 -80 440 0
-403 -423 62 80 -440 0
-403 -423 -63 -81 -441 0
-403 -423 -63 81 441 0
-403 -423 63 -81 441 0
-403 -423 63 81 -441 0
-403 -424 -55 -100 -433 0
-403 -424 -55 100 433 0
-403 -424 55 -100 433 0
-403 -424 55 100 -433 0
-403 -424 -56 -101 -434 0
-403 -424 -56 101 434 0
-403 -424 56 -101 434 0
-403 -424 56 101 -434 0
-403 -424 -57 -102 -435 0
-403 -424 -57 102 435 0
-403 -424 57 -102 435 0
-403 -424 57 102 -435 0
-403 -424 -58 -103 -436 0
-403 -424 -58 103 436 0
-403 -424 58 -103 436 0
-403 -424 58 103 -436 0
-403 -424 -59 -104 -437 0
-403 -424 -59 104 437 0
-403 -424 59 -104 437 0
-403 -424 59 104 -437 0
-403 -424 -60 -105 -438 0
-403 -424 -60 105 438 0
-403 -424 60 -105 438 0
-403 -424 60 105 -438 0
-403 -424 -61 -106 -439 0
-403 -424 -61 106 439 0
-403 -424 61 -106 439 0
-403 -424 61 106 -439 0
-403 -424 -62 -107 -440 0
-403 -424 -62 107 440 0
-403 -424 62 -107 440 0
-403 -424 62 107 -440 0
-403 -424 -63 -108 -441 0
-403 -424 -63 108 441 0
-403 -424 63 -108 441 0
-403 -424 63 108 -441 0
-403 -425 -55 -129 -433 0
-403 -425 -55 129 433 0
-403 -425 55 -129 433 0
-403 -425 55 129 -433 0
-403 -425 -56 -130 -434 0
-403 -425 -56 130 434 0
-403 -425 56 -130 434 0
-403 -425 56 130 -434 0
-403 -425 -57 -131 -435 0
-403 -425 -57 131 435 0
-403 -425 57 -131 435 0
-403 -425 57 131 -435 0
-403 -425 -58 -132 -436 0
-403 -425 -58 132 436 0
-403 -425 58 -132 436 0
-403 -425 58 132 -436 0
-403 -425 -59 -133 -437 0
-403 -425 -59 133 437 0
-403 -425 59 -133 437 0
-403 -425 59 133 -437 0
-403 -425 -60 -134 -438 0
-403 -425 -60 134 438 0
-403 -425 60 -134 438 0
-403 -425 60 134 -438 0
-403 -425 -61 -135 -439 0
-403 -425 -61 135 439 0
-403 -425 61 -135 439 0
-403 -425 61 135 -439 0
-403 -425 -62 -136 -440 0
-403 -425 -62 136 440 0
-403 -425 62 -136 440 0
-403 -425 62 136 -440 0
-403 -425 -63 -137 -441 0
-403 -425 -63 137 441 0
-403 -425 63 -137 441 0
-403 -425 63 137 -441 0
-403 -426 -55 -160 -433 0
-403 -426 -55 160 433 0
-403 -426 55 -160 433 0
-403 -426 55 160 -433 0
-403 -426 -56 -161 -434 0
-403 -426 -56 161 434 0
-403 -426 56 -161 434 0
-403 -426 56 161 -434 0
-403 -426 -57 -162 -435 0
-403 -426 -57 162 435 0
-403 -426 57 -162 435 0
-403 -426 57 162 -435 0
-403 -426 -58 -163 -436 0
-403 -426 -58 163 436 0
-403 -426 58 -163 436 0
-403 -426 58 163 -436 0
-403 -426 -59 -164 -437 0
-403 -426 -59 164 437 0
-403 -426 59 -164 437 0
-403 -426 59 164 -437 0
-403 -426 -60 -165 -438 0
-403 -426 -60 165 438 0
-403 -426 60 -165 438 0
-403 -426 60 165 -438 0
-403 -426 -61 -166 -439 0
-403 -426 -61 166 439 0
-403 -426 61 -166 439 0
-403 -426 61 166 -439 0
-403 -426 -62 -167 -440 0
-403 -426 -62 167 440 0
-403 -426 62 -167 440 0
-403 -426 62 167 -440 0
-403 -426 -63 -168 -441 0
-403 -426 -63 168 441 0
-403 -426 63 -168 441 0
-403 -426 63 168 -441 0
-403 -427 -55 -193 -433 0
-403 -427 -55 193 433 0
-403 -427 55 -193 433 0
-403 -427 55 193 -433 0
-403 -427 -56 -194 -434 0
-403 -427 -56 194 434 0
-403 -427 56 -194 434 0
-403 -427 56 194 -434 0
-403 -427 -57 -195 -435 0
-403 -427 -57 195 435 0
-403 -427 57 -195 435 0
-403 -427 57 195 -435 0
-403 -427 -58 -196 -436 0
-403 -427 -58 196 436 0
-403 -427 58 -196 436 0
-403 -427 58 196 -436 0
-403 -427 -59 -197 -437 0
-403 -427 -59 197 437 0
-403 -427 59 -197 437 0
-403 -427 59 197 -437 0
-403 -427 -60 -198 -438 0
-403 -427 -60 198 438 0
-403 -427 60 -198 438 0
-403 -427 60 198 -438 0
-403 -427 -61 -199 -439 0
-403 -427 -61 199 439 0
-403 -427 61 -199 439 0
-403 -427 61 199 -439 0
-403 -427 -62 -200 -440 0
-403 -427 -62 200 440 0
-403 -427 62 -200 440 0
-403 -427 62 200 -440 0
-403 -427 -63 -201 -441 0
-403 -427 -63 201 441 0
-403 -427 63 -201 441 0
-403 -427 63 201 -441 0
-403 -428 -55 -228 -433 0
-403 -428 -55 228 433 0
-403 -428 55 -228 433 0
-403 -428 55 228 -433 0
-403 -428 -56 -229 -434 0
-403 -428 -56 229 434 0
-403 -428 56 -229 434 0
-403 -428 56 229 -434 0
-403 -428 -57 -230 -435 0
-403 -428 -57 230 435 0
-403 -428 57 -230 435 0
-403 -428 57 230 -435 0
-403 -428 -58 -231 -436 0
-403 -428 -58 231 436 0
-403 -428 58 -231 436 0
-403 -428 58 231 -436 0
-403 -428 -59 -232 -437 0
-403 -428 -59 232 437 0
-403 -428 59 -232 437 0
-403 -428 59 232 -437 0
-403 -428 -60 -233 -438 0
-403 -428 -60 233 438 0
-403 -428 60 -233 438 0
-403 -428 60 233 -438 0
-403 -428 -61 -234 -439 0
-403 -428 -61 234 439 0
-403 -428 61 -234 439 0
-403 -428 61 234 -439 0
-403 -428 -62 -235 -440 0
-403 -428 -62 235 440 0
-403 -428 62 -235 440 0
-403 -428 62 235 -440 0
-403 -428 -63 -236 -441 0
-403 -428 -63 236 441 0
-403 -428 63 -236 441 0
-403 -428 63 236 -441 0
-403 -429 -55 -265 -433 0
-403 -429 -55 265 433 0
-403 -429 55 -265 433 0
-403 -429 55 265 -433 0
-403 -429 -56 -266 -434 0
-403 -429 -56 266 434 0
-403 -429 56 -266 434 0
-403 -429 56 266 -434 0
-403 -429 -57 -267 -435 0
-403 -429 -57 267 435 0
-403 -429 57 -267 435 0
-403 -429 57 267 -435 0
-403 -429 -58 -268 -436 0
-403 -429 -58 268 436 0
-403 -429 58 -268 436 0
-403 -429 58 268 -436 0
-403 -429 -59 -269 -437 0
-403 -429 -59 269 437 0
-403 -429 59 -269 437 0
-403 -429 59 269 -437 0
-403 -429 -60 -270 -438 0
-403 -429 -60 270 438 0
-403 -429 60 -270 438 0
-403 -429 60 270 -438 0
-403 -429 -61 -271 -439 0
-403 -429 -61 271 439 0
-403 -429 61 -271 439 0
-403 -429 61 271 -439 0
-403 -429 -62 -272 -440 0
-403 -429 -62 272 440 0
-403 -429 62 -272 440 0
-403 -429 62 272 -440 0
-403 -429 -63 -273 -441 0
-403 -429 -63 273 441 0
-403 -429 63 -273 441 0
-403 -429 63 273 -441 0
-403 -430 -55 -304 -433 0
-403 -430 -55 304 433 0
-403 -430 55 -304 433 0
-403 -430 55 304 -433 0
-403 -430 -56 -305 -434 0
-403 -430 -56 305 434 0
-403 -430 56 -305 434 0
-403 -430 56 305 -434 0
-403 -430 -57 -306 -435 0
-403 -430 -57 306 435 0
-403 -430 57 -306 435 0
-403 -430 57 306 -435 0
-403 -430 -58 -307 -436 0
-403 -430 -58 307 436 0
-403 -430 58 -307 436 0
-403 -430 58 307 -436 0
-403 -430 -59 -308 -437 0
-403 -430 -59 308 437 0
-403 -430 59 -308 437 0
-403 -430 59 308 -437 0
-403 -430 -60 -309 -438 0
-403 -430 -60 309 438 0
-403 -430 60 -309 438 0
-403 -430 60 309 -438 0
-403 -430 -61 -310 -439 0
-403 -430 -61 310 439 0
-403 -430 61 -310 439 0
-403 -430 61 310 -439 0
-403 -430 -62 -311 -440 0
-403 -430 -62 311 440 0
-403 -430 62 -311 440 0
-403 -430 62 311 -440 0
-403 -430 -63 -312 -441 0
-403 -430 -63 312 441 0
-403 -430 63 -312 441 0
-403 -430 63 312 -441 0
-403 -431 -55 -345 -433 0
-403 -431 -55 345 433 0
-403 -431 55 -345 433 0
-403 -431 55 345 -433 0
-403 -431 -56 -346 -434 0
-403 -431 -56 346 434 0
-403 -431 56 -346 434 0
-403 -431 56 346 -434 0
-403 -431 -57 -347 -435 0
-403 -431 -57 347 435 0
-403 -431 57 -347 435 0
-403 -431 57 347 -435 0
-403 -431 -58 -348 -436 0
-403 -431 -58 348 436 0
-403 -431 58 -348 436 0
-403 -431 58 348 -436 0
-403 -431 -59 -349 -437 0
-403 -431 -59 349 437 0
-403 -431 59 -349 437 0
-403 -431 59 349 -437 0
-403 -431 -60 -350 -438 0
-403 -431 -60 350 438 0
-403 -431 60 -350 438 0
-403 -431 60 350 -438 0
-403 -431 -61 -351 -439 0
-403 -431 -61 351 439 0
-403 -431 61 -351 439 0
-403 -431 61 351 -439 0
-403 -431 -62 -352 -440 0
-403 -431 -62 352 440 0
-403 -431 62 -352 440 0
-403 -431 62 352 -440 0
-403 -431 -63 -353 -441 0
-403 -431 -63 353 441 0
-403 -431 63 -353 441 0
-403 -431 63 353 -441 0
-403 -432 -55 -388 -433 0
-403 -432 -55 388 433 0
-403 -432 55 -388 433 0
-403 -432 55 388 -433 0
-403 -432 -56 -389 -434 0
-403 -432 -56 389 434 0
-403 -432 56 -389 434 0
-403 -432 56 389 -434 0
-403 -432 -57 -390 -435 0
-403 -432 -57 390 435 0
-403 -432 57 -390 435 0
-403 -432 57 390 -435 0
-403 -432 -58 -391 -436 0
-403 -432 -58 391 436 0
-403 -432 58 -391 436 0
-403 -432 58 391 -436 0
-403 -432 -59 -392 -437 0
-403 -432 -59 392 437 0
-403 -432 59 -392 437 0
-403 -432 59 392 -437 0
-403 -432 -60 -393 -438 0
-403 -432 -60 393 438 0
-403 -432 60 -393 438 0
-403 -432 60 393 -438 0
-403 -432 -61 -394 -439 0
-403 -432 -61 394 439 0
-403 -432 61 -394 439 0
-403 -432 61 394 -439 0
-403 -432 -62 -395 -440 0
-403 -432 -62 395 440 0
-403 -432 62 -395 440 0
-403 -432 62 395 -440 0
-403 -432 -63 -396 -441 0
-403 -432 -63 396 441 0
-403 -432 63 -396 441 0
-403 -432 63 396 -441 0
-404 -423 -64 -73 -433 0
-404 -423 -64 73 433 0
-404 -423 64 -73 433 0
-404 -423 64 73 -433 0
-404 -423 -65 -74 -434 0
-404 -423 -65 74 434 0
-404 -423 65 -74 434 0
-404 -423 65 74 -434 0
-404 -423 -66 -75 -435 0
-404 -423 -66 75 435 0
-404 -423 66 -75 435 0
-404 -423 66 75 -435 0
-404 -423 -67 -76 -436 0
-404 -423 -67 76 436 0
-404 -423 67 -76 436 0
-404 -423 67 76 -436 0
-404 -423 -68 -77 -437 0
-404 -423 -68 77 437 0
-404 -423 68 -77 437 0
-404 -423 68 77 -437 0
-404 -423 -69 -78 -438 0
-404 -423 -69 78 438 0
-404 -423 69 -78 438 0
-404 -423 69 78 -438 0
-404 -423 -70 -79 -439 0
-404 -423 -70 79 439 0
-404 -423 70 -79 439 0
-404 -423 70 79 -439 0
-404 -423 -71 -80 -440 0
-404 -423 -71 80 440 0
-404 -423 71 -80 440 0
-404 -423 71 80 -440 0
-404 -423 -72 -81 -441 0
-404 -423 -72 81 441 0
-404 -423 72 -81 441 0
-404 -423 72 81 -441 0
-404 -424 -64 -100 -433 0
-404 -424 -64 100 433 0
-404 -424 64 -100 433 0
-404 -424 64 100 -433 0
-404 -424 -65 -101 -434 0
-404 -424 -65 101 434 0
-404 -424 65 -101 434 0
-404 -424 65 101 -434 0
-404 -424 -66 -102 -435 0
-404 -424 -66 102 435 0
-404 -424 66 -102 435 0
-404 -424 66 102 -435 0
-404 -424 -67 -103 -436 0
-404 -424 -67 103 436 0
-404 -424 67 -103 436 0
-404 -424 67 103 -436 0
-404 -424 -68 -104 -437 0
-404 -424 -68 104 437 0
-404 -424 68 -104 437 0
-404 -424 68 104 -437 0
-404 -424 -69 -105 -438 0
-404 -424 -69 105 438 0
-404 -424 69 -105 438 0
-404 -424 69 105 -438 0
-404 -424 -70 -106 -439 0
-404 -424 -70 106 439 0
-404 -424 70 -106 439 0
-404 -424 70 106 -439 0
-404 -424 -71 -107 -440 0
-404 -424 -71 107 440 0
-404 -424 71 -107 440 0
-404 -424 71 107 -440 0
-404 -424 -72 -108 -441 0
-404 -424 -72 108 441 0
-404 -424 72 -108 441 0
-404 -424 72 108 -441 0
-404 -425 -64 -129 -433 0
-404 -425 -64 129 433 0
-404 -425 64 -129 433 0
-404 -425 64 129 -433 0
-404 -425 -65 -130 -434 0
-404 -425 -65 130 434 0
-404 -425 65 -130 434 0
-404 -425 65 130 -434 0
-404 -425 -66 -131 -435 0
-404 -425 -66 131 435 0
-404 -425 66 -131 435 0
-404 -425 66 131 -435 0
-404 -425 -67 -132 -436 0
-404 -425 -67 132 436 0
-404 -425 67 -132 436 0
-404 -425 67 132 -436 0
-404 -425 -68 -133 -437 0
-404 -425 -68 133 437 0
-404 -425 68 -133 437 0
-404 -425 68 133 -437 0
-404 -425 -69 -134 -438 0
-404 -425 -69 134 438 0
-404 -425 69 -134 438 0
-404 -425 69 134 -438 0
-404 -425 -70 -135 -439 0
-404 -425 -70 135 439 0
-404 -425 70 -135 439 0
-404 -425 70 135 -439 0
-404 -425 -71 -136 -440 0
-404 -425 -71 136 440 0
-404 -425 71 -136 440 0
-404 -425 71 136 -440 0
-404 -425 -72 -137 -441 0
-404 -425 -72 137 441 0
-404 -425 72 -137 441 0
-404 -425 72 137 -441 0
-404 -426 -64 -160 -433 0
-404 -426 -64 160 433 0
-404 -426 64 -160 433 0
-404 -426 64 160 -433 0
-404 -426 -65 -161 -434 0
-404 -426 -65 161 434 0
-404 -426 65 -161 434 0
-404 -426 65 161 -434 0
-404 -426 -66 -162 -435 0
-404 -426 -66 162 435 0
-404 -426 66 -162 435 0
-404 -426 66 162 -435 0
-404 -426 -67 -163 -436 0
-404 -426 -67 163 436 0
-404 -426 67 -163 436 0
-404 -426 67 163 -436 0
-404 -426 -68 -164 -437 0
-404 -426 -68 164 437 0
-404 -426 68 -164 437 0
-404 -426 68 164 -437 0
-404 -426 -69 -165 -438 0
-404 -426 -69 165 438 0
-404 -426 69 -165 438 0
-404 -426 69 165 -438 0
-404 -426 -70 -166 -439 0
-404 -426 -70 166 439 0
-404 -426 70 -166 439 0
-404 -426 70 166 -439 0
-404 -426 -71 -167 -440 0
-404 -426 -71 167 440 0
-404 -426 71 -167 440 0
-404 -426 71 167 -440 0
-404 -426 -72 -168 -441 0
-404 -426 -72 168 441 0
-404 -426 72 -168 441 0
-404 -426 72 168 -441 0
-404 -427 -64 -193 -433 0
-404 -427 -64 193 433 0
-404 -427 64 -193 433 0
-404 -427 64 193 -433 0
-404 -427 -65 -194 -434 0
-404 -427 -65 194 434 0
-404 -427 65 -194 434 0
-404 -427 65 194 -434 0
-404 -427 -66 -195 -435 0
-404 -427 -66 195 435 0
-404 -427 66 -195 435 0
-404 -427 66 195 -435 0
-404 -427 -67 -196 -436 0
-404 -427 -67 196 436 0
-404 -427 67 -196 436 0
-404 -427 67 196 -436 0
-404 -427 -68 -197 -437 0
-404 -427 -68 197 437 0
-404 -427 68 -197 437 0
-404 -427 68 197 -437 0
-404 -427 -69 -198 -438 0
-404 -427 -69 198 438 0
-404 -427 69 -198 438 0
-404 -427 69 198 -438 0
-404 -427 -70 -199 -439 0
-404 -427 -70 199 439 0
-404 -427 70 -199 439 0
-404 -427 70 199 -439 0
-404 -427 -71 -200 -440 0
-404 -427 -71 200 440 0
-404 -427 71 -200 440 0
-404 -427 71 200 -440 0
-404 -427 -72 -201 -441 0
-404 -427 -72 201 441 0
-404 -427 72 -201 441 0
-404 -427 72 201 -441 0
-404 -428 -64 -228 -433 0
-404 -428 -64 228 433 0
-404 -428 64 -228 433 0
-404 -428 64 228 -433 0
-404 -428 -65 -229 -434 0
-404 -428 -65 229 434 0
-404 -428 65 -229 434 0
-404 -428 65 229 -434 0
-404 -428 -66 -230 -435 0
-404 -428 -66 230 435 0
-404 -428 66 -230 435 0
-404 -428 66 230 -435 0
-404 -428 -67 -231 -436 0
-404 -428 -67 231 436 0
-404 -428 67 -231 436 0
-404 -428 67 231 -436 0
-404 -428 -68 -232 -437 0
-404 -428 -68 232 437 0
-404 -428 68 -232 437 0
-404 -428 68 232 -437 0
-404 -428 -69 -233 -438 0
-404 -428 -69 233 438 0
-404 -428 69 -233 438 0
-404 -428 69 233 -438 0
-404 -428 -70 -234 -439 0
-404 -428 -70 234 439 0
-404 -428 70 -234 439 0
-404 -428 70 234 -439 0
-404 -428 -71 -235 -440 0
-404 -428 -71 235 440 0
-404 -428 71 -235 440 0
-404 -428 71 235 -440 0
-404 -428 -72 -236 -441 0
-404 -428 -72 236 441 0
-404 -428 72 -236 441 0
-404 -428 72 236 -441 0
-404 -429 -64 -265 -433 0
-404 -429 -64 265 433 0
-404 -429 64 -265 433 0
-404 -429 64 265 -433 0
-404 -429 -65 -266 -434 0
-404 -429 -65 266 434 0
-404 -429 65 -266 434 0
-404 -429 65 266 -434 0
-404 -429 -66 -267 -435 0
-404 -429 -66 267 435 0
-404 -429 66 -267 435 0
-404 -429 66 267 -435 0
-404 -429 -67 -268 -436 0
-404 -429 -67 268 436 0
-404 -429 67 -268 436 0
-404 -429 67 268 -436 0
-404 -429 -68 -269 -437 0
-404 -429 -68 269 437 0
-404 -429 68 -269 437 0
-404 -429 68 269 -437 0
-404 -429 -69 -270 -438 0
-404 -429 -69 270 438 0
-404 -429 69 -270 438 0
-404 -429 69 270 -438 0
-404 -429 -70 -271 -439 0
-404 -429 -70 271 439 0
-404 -429 70 -271 439 0
-404 -429 70 271 -439 0
-404 -429 -71 -272 -440 0
-404 -429 -71 272 440 0
-404 -429 71 -272 440 0
-404 -429 71 272 -440 0
-404 -429 -72 -273 -441 0
-404 -429 -72 273 441 0
-404 -429 72 -273 441 0
-404 -429 72 273 -441 0
-404 -430 -64 -304 -433 0
-404 -430 -64 304 433 0
-404 -430 64 -304 433 0
-404 -430 64 304 -433 0
-404 -430 -65 -305 -434 0
-404 -430 -65 305 434 0
-404 -430 65 -305 434 0
-404 -430 65 305 -434 0
-404 -430 -66 -306 -435 0
-404 -430 -66 306 435 0
-404 -430 66 -306 435 0
-404 -430 66 306 -435 0
-404 -430 -67 -307 -436 0
-404 -430 -67 307 436 0
-404 -430 67 -307 436 0
-404 -430 67 307 -436 0
-404 -430 -68 -308 -437 0
-404 -430 -68 308 437 0
-404 -430 68 -308 437 0
-404 -430 68 308 -437 0
-404 -430 -69 -309 -438 0
-404 -430 -69 309 438 0
-404 -430 69 -309 438 0
-404 -430 69 309 -438 0
-404 -430 -70 -310 -439 0
-404 -430 -70 310 439 0
-404 -430 70 -310 439 0
-404 -430 70 310 -439 0
-404 -430 -71 -311 -440 0
-404 -430 -71 311 440 0
-404 -430 71 -311 440 0
-404 -430 71 311 -440 0
-404 -430 -72 -312 -441 0
-404 -430 -72 312 441 0
-404 -430 72 -312 441 0
-404 -430 72 312 -441 0
-404 -431 -64 -345 -433 0
-404 -431 -64 345 433 0
-404 -431 64 -345 433 0
-404 -431 64 345 -433 0
-404 -431 -65 -346 -434 0
-404 -431 -65 346 434 0
-404 -431 65 -346 434 0
-404 -431 65 346 -434 0
-404 -431 -66 -347 -435 0
-404 -431 -66 347 435 0
-404 -431 66 -347 435 0
-404 -431 66 347 -435 0
-404 -431 -67 -348 -436 0
-404 -431 -67 348 436 0
-404 -431 67 -348 436 0
-404 -431 67 348 -436 0
-404 -431 -68 -349 -437 0
-404 -431 -68 349 437 0
-404 -431 68 -349 437 0
-404 -431 68 349 -437 0
-404 -431 -69 -350 -438 0
-404 -431 -69 350 438 0
-404 -431 69 -350 438 0
-404 -431 69 350 -438 0
-404 -431 -70 -351 -439 0
-404 -431 -70 351 439 0
-404 -431 70 -351 439 0
-404 -431 70 351 -439 0
-404 -431 -71 -352 -440 0
-404 -431 -71 352 440 0
-404 -431 71 -352 440 0
-404 -431 71 352 -440 0
-404 -431 -72 -353 -441 0
-404 -431 -72 353 441 0
-404 -431 72 -353 441 0
-404 -431 72 353 -441 0
-404 -432 -64 -388 -433 0
-404 -432 -64 388 433 0
-404 -432 64 -388 433 0
-404 -432 64 388 -433 0
-404 -432 -65 -389 -434 0
-404 -432 -65 389 434 0
-404 -432 65 -389 434 0
-404 -432 65 389 -434 0
-404 -432 -66 -390 -435 0
-404 -432 -66 390 435 0
-404 -432 66 -390 435 0
-404 -432 66 390 -435 0
-404 -432 -67 -391 -436 0
-404 -432 -67 391 436 0
-404 -432 67 -391 436 0
-404 -432 67 391 -436 0
-404 -432 -68 -392 -437 0
-404 -432 -68 392 437 0
-404 -432 68 -392 437 0
-404 -432 68 392 -437 0
-404 -432 -69 -393 -438 0
-404 -432 -69 393 438 0
-404 -432 69 -393 438 0
-404 -432 69 393 -438 0
-404 -432 -70 -394 -439 0
-404 -432 -70 394 439 0
-404 -432 70 -394 439 0
-404 -432 70 394 -439 0
-404 -432 -71 -395 -440 0
-404 -432 -71 395 440 0
-404 -432 71 -395 440 0
-404 -432 71 395 -440 0
-404 -432 -72 -396 -441 0
-404 -432 -72 396 441 0
-404 -432 72 -396 441 0
-404 -432 72 396 -441 0
-405 -424 -73 -100 -433 0
-405 -424 -73 100 433 0
-405 -424 73 -100 433 0
-405 -424 73 100 -433 0
-405 -424 -74 -101 -434 0
-405 -424 -74 101 434 0
-405 -424 74 -101 434 0
-405 -424 74 101 -434 0
-405 -424 -75 -102 -435 0
-405 -424 -75 102 435 0
-405 -424 75 -102 435 0
-405 -424 75 102 -435 0
-405 -424 -76 -103 -436 0
-405 -424 -76 103 436 0
-405 -424 76 -103 436 0
-405 -424 76 103 -436 0
-405 -424 -77 -104 -437 0
-405 -424 -77 104 437 0
-405 -424 77 -104 437 0
-405 -424 77 104 -437 0
-405 -424 -78 -105 -438 0
-405 -424 -78 105 438 0
-405 -424 78 -105 438 0
-405 -424 78 105 -438 0
-405 -424 -79 -106 -439 0
-405 -424 -79 106 439 0
-405 -424 79 -106 439 0
-405 -424 79 106 -439 0
-405 -424 -80 -107 -440 0
-405 -424 -80 107 440 0
-405 -424 80 -107 440 0
-405 -424 80 107 -440 0
-405 -424 -81 -108 -441 0
-405 -424 -81 108 441 0
-405 -424 81 -108 441 0
-405 -424 81 108 -441 0
-405 -425 -73 -129 -433 0
-405 -425 -73 129 433 0
-405 -425 73 -129 433 0
-405 -425 73 129 -433 0
-405 -425 -74 -130 -434 0
-405 -425 -74 130 434 0
-405 -425 74 -130 434 0
-405 -425 74 130 -434 0
-405 -425 -75 -131 -435 0
-405 -425 -75 131 435 0
-405 -425 75 -131 435 0
-405 -425 75 131 -435 0
-405 -425 -76 -132 -436 0
-405 -425 -76 132 436 0
-405 -425 76 -132 436 0
-405 -425 76 132 -436 0
-405 -425 -77 -133 -437 0
-405 -425 -77 133 437 0
-405 -425 77 -133 437 0
-405 -425 77 133 -437 0
-405 -425 -78 -134 -438 0
-405 -425 -78 134 438 0
-405 -425 78 -134 438 0
-405 -425 78 134 -438 0
-405 -425 -79 -135 -439 0
-405 -425 -79 135 439 0
-405 -425 79 -135 439 0
-405 -425 79 135 -439 0
-405 -425 -80 -136 -440 0
-405 -425 -80 136 440 0
-405 -425 80 -136 440 0
-405 -425 80 136 -440 0
-405 -425 -81 -137 -441 0
-405 -425 -81 137 441 0
-405 -425 81 -137 441 0
-405 -425 81 137 -441 0
-405 -426 -73 -160 -433 0
-405 -426 -73 160 433 0
-405 -426 73 -160 433 0
-405 -426 73 160 -433 0
-405 -426 -74 -161 -434 0
-405 -426 -74 161 434 0
-405 -426 74 -161 434 0
-405 -426 74 161 -434 0
-405 -426 -75 -162 -435 0
-405 -426 -75 162 435 0
-405 -426 75 -162 435 0
-405 -426 75 162 -435 0
-405 -426 -76 -163 -436 0
-405 -426 -76 163 436 0
-405 -426 76 -163 436 0
-405 -426 76 163 -436 0
-405 -426 -77 -164 -437 0
-405 -426 -77 164 437 0
-405 -426 77 -164 437 0
-405 -426 77 164 -437 0
-405 -426 -78 -165 -438 0
-405 -426 -78 165 438 0
-405 -426 78 -165 438 0
-405 -426 78 165 -438 0
-405 -426 -79 -166 -439 0
-405 -426 -79 166 439 0
-405 -426 79 -166 439 0
-405 -426 79 166 -439 0
-405 -426 -80 -167 -440 0
-405 -426 -80 167 440 0
-405 -426 80 -167 440 0
-405 -426 80 167 -440 0
-405 -426 -81 -168 -441 0
-405 -426 -81 168 441 0
-405 -426 81 -168 441 0
-405 -426 81 168 -441 0
-405 -427 -73 -193 -433 0
-405 -427 -73 193 433 0
-405 -427 73 -193 433 0
-405 -427 73 193 -433 0
-405 -427 -74 -194 -434 0
-405 -427 -74 194 434 0
-405 -427 74 -194 434 0
-405 -427 74 194 -434 0
-405 -427 -75 -195 -435 0
-405 -427 -75 195 435 0
-405 -427 75 -195 435 0
-405 -427 75 195 -435 0
-405 -427 -76 -196 -436 0
-405 -427 -76 196 436 0
-405 -427 76 -196 436 0
-405 -427 76 196 -436 0
-405 -427 -77 -197 -437 0
-405 -427 -77 197 437 0
-405 -427 77 -197 437 0
-405 -427 77 197 -437 0
-405 -427 -78 -198 -438 0
-405 -427 -78 198 438 0
-405 -427 78 -198 438 0
-405 -427 78 198 -438 0
-405 -427 -79 -199 -439 0
-405 -427 -79 199 439 0
-405 -427 79 -199 439 0
-405 -427 79 199 -439 0
-405 -427 -80 -200 -440 0
-405 -427 -80 200 440 0
-405 -427 80 -200 440 0
-405 -427 80 200 -440 0
-405 -427 -81 -201 -441 0
-405 -427 -81 201 441 0
-405 -427 81 -201 441 0
-405 -427 81 201 -441 0
-405 -428 -73 -228 -433 0
-405 -428 -73 228 433 0
-405 -428 73 -228 433 0
-405 -428 73 228 -433 0
-405 -428 -74 -229 -434 0
-405 -428 -74 229 434 0
-405 -428 74 -229 434 0
-405 -428 74 229 -434 0
-405 -428 -75 -230 -435 0
-405 -428 -75 230 435 0
-405 -428 75 -230 435 0
-405 -428 75 230 -435 0
-405 -428 -76 -231 -436 0
-405 -428 -76 231 436 0
-405 -428 76 -231 436 0
-405 -428 76 231 -436 0
-405 -428 -77 -232 -437 0
-405 -428 -77 232 437 0
-405 -428 77 -232 437 0
-405 -428 77 232 -437 0
-405 -428 -78 -233 -438 0
-405 -428 -78 233 438 0
-405 -428 78 -233 438 0
-405 -428 78 233 -438 0
-405 -428 -79 -234 -439 0
-405 -428 -79 234 439 0
-405 -428 79 -234 439 0
-405 -428 79 234 -439 0
-405 -428 -80 -235 -440 0
-405 -428 -80 235 440 0
-405 -428 80 -235 440 0
-405 -428 80 235 -440 0
-405 -428 -81 -236 -441 0
-405 -428 -81 236 441 0
-405 -428 81 -236 441 0
-405 -428 81 236 -441 0
-405 -429 -73 -265 -433 0
-405 -429 -73 265 433 0
-405 -429 73 -265 433 0
-405 -429 73 265 -433 0
-405 -429 -74 -266 -434 0
-405 -429 -74 266 434 0
-405 -429 74 -266 434 0
-405 -429 74 266 -434 0
-405 -429 -75 -267 -435 0
-405 -429 -75 267 435 0
-405 -429 75 -267 435 0
-405 -429 75 267 -435 0
-405 -429 -76 -268 -436 0
-405 -429 -76 268 436 0
-405 -429 76 -268 436 0
-405 -429 76 268 -436 0
-405 -429 -77 -269 -437 0
-405 -429 -77 269 437 0
-405 -429 77 -269 437 0
-405 -429 77 269 -437 0
-405 -429 -78 -270 -438 0
-405 -429 -78 270 438 0
-405 -429 78 -270 438 0
-405 -429 78 270 -438 0
-405 -429 -79 -271 -439 0
-405 -429 -79 271 439 0
-405 -429 79 -271 439 0
-405 -429 79 271 -439 0
-405 -429 -80 -272 -440 0
-405 -429 -80 272 440 0
-405 -429 80 -272 440 0
-405 -429 80 272 -440 0
-405 -429 -81 -273 -441 0
-405 -429 -81 273 441 0
-405 -429 81 -273 441 0
-405 -429 81 273 -441 0
-405 -430 -73 -304 -433 0
-405 -430 -73 304 433 0
-405 -430 73 -304 433 0
-405 -430 73 304 -433 0
-405 -430 -74 -305 -434 0
-405 -430 -74 305 434 0
-405 -430 74 -305 434 0
-405 -430 74 305 -434 0
-405 -430 -75 -306 -435 0
-405 -430 -75 306 435 0
-405 -430 75 -306 435 0
-405 -430 75 306 -435 0
-405 -430 -76 -307 -436 0
-405 -430 -76 307 436 0
-405 -430 76 -307 436 0
-405 -430 76 307 -436 0
-405 -430 -77 -308 -437 0
-405 -430 -77 308 437 0
-405 -430 77 -308 437 0
-405 -430 77 308 -437 0
-405 -430 -78 -309 -438 0
-405 -430 -78 309 438 0
-405 -430 78 -309 438 0
-405 -430 78 309 -438 0
-405 -430 -79 -310 -439 0
-405 -430 -79 310 439 0
-405 -430 79 -310 439 0
-405 -430 79 310 -439 0
-405 -430 -80 -311 -440 0
-405 -430 -80 311 440 0
-405 -430 80 -311 440 0
-405 -430 80 311 -440 0
-405 -430 -81 -312 -441 0
-405 -430 -81 312 441 0
-405 -430 81 -312 441 0
-405 -430 81 312 -441 0
-405 -431 -73 -345 -433 0
-405 -431 -73 345 433 0
-405 -431 73 -345 433 0
-405 -431 73 345 -433 0
-405 -431 -74 -346 -434 0
-405 -431 -74 346 434 0
-405 -431 74 -346 434 0
-405 -431 74 346 -434 0
-405 -431 -75 -347 -435 0
-405 -431 -75 347 435 0
-405 -431 75 -347 435 0
-405 -431 75 347 -435 0
-405 -431 -76 -348 -436 0
-405 -431 -76 348 436 0
-405 -431 76 -348 436 0
-405 -431 76 348 -436 0
-405 -431 -77 -349 -437 0
-405 -431 -77 349 437 0
-405 -431 77 -349 437 0
-405 -431 77 349 -437 0
-405 -431 -78 -350 -438 0
-405 -431 -78 350 438 0
-405 -431 78 -350 438 0
-405 -431 78 350 -438 0
-405 -431 -79 -351 -439 0
-405 -431 -79 351 439 0
-405 -431 79 -351 439 0
-405 -431 79 351 -439 0
-405 -431 -80 -352 -440 0
-405 -431 -80 352 440 0
-405 -431 80 -352 440 0
-405 -431 80 352 -440 0
-405 -431 -81 -353 -441 0
-405 -431 -81 353 441 0
-405 -431 81 -353 441 0
-405 -431 81 353 -441 0
-405 -432 -73 -388 -433 0
-405 -432 -73 388 433 0
-405 -432 73 -388 433 0
-405 -432 73 388 -433 0
-405 -432 -74 -389 -434 0
-405 -432 -74 389 434 0
-405 -432 74 -389 434 0
-405 -432 74 389 -434 0
-405 -432 -75 -390 -435 0
-405 -432 -75 390 435 0
-405 -432 75 -390 435 0
-405 -432 75 390 -435 0
-405 -432 -76 -391 -436 0
-405 -432 -76 391 436 0
-405 -432 76 -391 436 0
-405 -432 76 391 -436 0
-405 -432 -77 -392 -437 0
-405 -432 -77 392 437 0
-405 -432 77 -392 437 0
-405 -432 77 392 -437 0
-405 -432 -78 -393 -438 0
-405 -432 -78 393 438 0
-405 -432 78 -393 438 0
-405 -432 78 393 -438 0
-405 -432 -79 -394 -439 0
-405 -432 -79 394 439 0
-405 -432 79 -394 439 0
-405 -432 79 394 -439 0
-405 -432 -80 -395 -440 0
-405 -432 -80 395 440 0
-405 -432 80 -395 440 0
-405 -432 80 395 -440 0
-405 -432 -81 -396 -441 0
-405 -432 -81 396 441 0
-405 -432 81 -396 441 0
-405 -432 81 396 -441 0
-406 -425 -100 -129 -433 0
-406 -425 -100 129 433 0
-406 -425 100 -129 433 0
-406 -425 100 129 -433 0
-406 -425 -101 -130 -434 0
-406 -425 -101 130 434 0
-406 -425 101 -130 434 0
-406 -425 101 130 -434 0
-406 -425 -102 -131 -435 0
-406 -425 -102 131 435 0
-406 -425 102 -131 435 0
-406 -425 102 131 -435 0
-406 -425 -103 -132 -436 0
-406 -425 -103 132 436 0
-406 -425 103 -132 436 0
-406 -425 103 132 -436 0
-406 -425 -104 -133 -437 0
-406 -425 -104 133 437 0
-406 -425 104 -133 437 0
-406 -425 104 133 -437 0
-406 -425 -105 -134 -438 0
-406 -425 -105 134 438 0
-406 -425 105 -134 438 0
-406 -425 105 134 -438 0
-406 -425 -106 -135 -439 0
-406 -425 -106 135 439 0
-406 -425 106 -135 439 0
-406 -425 106 135 -439 0
-406 -425 -107 -136 -440 0
-406 -425 -107 136 440 0
-406 -425 107 -136 440 0
-406 -425 107 136 -440 0
-406 -425 -108 -137 -441 0
-406 -425 -108 137 441 0
-406 -425 108 -137 441 0
-406 -425 108 137 -441 0
-406 -426 -100 -160 -433 0
-406 -426 -100 160 433 0
-406 -426 100 -160 433 0
-406 -426 100 160 -433 0
-406 -426 -101 -161 -434 0
-406 -426 -101 161 434 0
-406 -426 101 -161 434 0
-406 -426 101 161 -434 0
-406 -426 -102 -162 -435 0
-406 -426 -102 162 435 0
-406 -426 102 -162 435 0
-406 -426 102 162 -435 0
-406 -426 -103 -163 -436 0
-406 -426 -103 163 436 0
-406 -426 103 -163 436 0
-406 -426 103 163 -436 0
-406 -426 -104 -164 -437 0
-406 -426 -104 164 437 0
-406 -426 104 -164 437 0
-406 -426 104 164 -437 0
-406 -426 -105 -165 -438 0
-406 -426 -105 165 438 0
-406 -426 105 -165 438 0
-406 -426 105 165 -438 0
-406 -426 -106 -166 -439 0
-406 -426 -106 166 439 0
-406 -426 106 -166 439 0
-406 -426 106 166 -439 0
-406 -426 -107 -167 -440 0
-406 -426 -107 167 440 0
-406 -426 107 -167 440 0
-406 -426 107 167 -440 0
-406 -426 -108 -168 -441 0
-406 -426 -108 168 441 0
-406 -426 108 -168 441 0
-406 -426 108 168 -441 0
-406 -427 -100 -193 -433 0
-406 -427 -100 193 433 0
-406 -427 100 -193 433 0
-406 -427 100 193 -433 0
-406 -427 -101 -194 -434 0
-406 -427 -101 194 434 0
-406 -427 101 -194 434 0
-406 -427 101 194 -434 0
-406 -427 -102 -195 -435 0
-406 -427 -102 195 435 0
-406 -427 102 -195 435 0
-406 -427 102 195 -435 0
-406 -427 -103 -196 -436 0
-406 -427 -103 196 436 0
-406 -427 103 -196 436 0
-406 -427 103 196 -436 0
-406 -427 -104 -197 -437 0
-406 -427 -104 197 437 0
-406 -427 104 -197 437 0
-406 -427 104 197 -437 0
-406 -427 -105 -198 -438 0
-406 -427 -105 198 438 0
-406 -427 105 -198 438 0
-406 -427 105 198 -438 0
-406 -427 -106 -199 -439 0
-406 -427 -106 199 439 0
-406 -427 106 -199 439 0
-406 -427 106 199 -439 0
-406 -427 -107 -200 -440 0
-406 -427 -107 200 440 0
-406 -427 107 -200 440 0
-406 -427 107 200 -440 0
-406 -427 -108 -201 -441 0
-406 -427 -108 201 441 0
-406 -427 108 -201 441 0
-406 -427 108 201 -441 0
-406 -428 -100 -228 -433 0
-406 -428 -100 228 433 0
-406 -428 100 -228 433 0
-406 -428 100 228 -433 0
-406 -428 -101 -229 -434 0
-406 -428 -101 229 434 0
-406 -428 101 -229 434 0
-406 -428 101 229 -434 0
-406 -428 -102 -230 -435 0
-406 -428 -102 230 435 0
-406 -428 102 -230 435 0
-406 -428 102 230 -435 0
-406 -428 -103 -231 -436 0
-406 -428 -103 231 436 0
-406 -428 103 -231 436 0
-406 -428 103 231 -436 0
-406 -428 -104 -232 -437 0
-406 -428 -104 232 437 0
-406 -428 104 -232 437 0
-406 -428 104 232 -437 0
-406 -428 -105 -233 -438 0
-406 -428 -105 233 438 0
-406 -428 105 -233 438 0
-406 -428 105 233 -438 0
-406 -428 -106 -234 -439 0
-406 -428 -106 234 439 0
-406 -428 106 -234 439 0
-406 -428 106 234 -439 0
-406 -428 -107 -235 -440 0
-406 -428 -107 235 440 0
-406 -428 107 -235 440 0
-406 -428 107 235 -440 0
-406 -428 -108 -236 -441 0
-406 -428 -108 236 441 0
-406 -428 108 -236 441 0
-406 -428 108 236 -441 0
-406 -429 -100 -265 -433 0
-406 -429 -100 265 433 0
-406 -429 100 -265 433 0
-406 -429 100 265 -433 0
-406 -429 -101 -266 -434 0
-406 -429 -101 266 434 0
-406 -429 101 -266 434 0
-406 -429 101 266 -434 0
-406 -429 -102 -267 -435 0
-406 -429 -102 267 435 0
-406 -429 102 -267 435 0
-406 -429 102 267 -435 0
-406 -429 -103 -268 -436 0
-406 -429 -103 268 436 0
-406 -429 103 -268 436 0
-406 -429 103 268 -436 0
-406 -429 -104 -269 -437 0
-406 -429 -104 269 437 0
-406 -429 104 -269 437 0
-406 -429 104 269 -437 0
-406 -429 -105 -270 -438 0
-406 -429 -105 270 438 0
-406 -429 105 -270 438 0
-406 -429 105 270 -438 0
-406 -429 -106 -271 -439 0
-406 -429 -106 271 439 0
-406 -429 106 -271 439 0
-406 -429 106 271 -439 0
-406 -429 -107 -272 -440 0
-406 -429 -107 272 440 0
-406 -429 107 -272 440 0
-406 -429 107 272 -440 0
-406 -429 -108 -273 -441 0
-406 -429 -108 273 441 0
-406 -429 108 -273 441 0
-406 -429 108 273 -441 0
-406 -430 -100 -304 -433 0
-406 -430 -100 304 433 0
-406 -430 100 -304 433 0
-406 -430 100 304 -433 0
-406 -430 -101 -305 -434 0
-406 -430 -101 305 434 0
-406 -430 101 -305 434 0
-406 -430 101 305 -434 0
-406 -430 -102 -306 -435 0
-406 -430 -102 306 435 0
-406 -430 102 -306 435 0
-406 -430 102 306 -435 0
-406 -430 -103 -307 -436 0
-406 -430 -103 307 436 0
-406 -430 103 -307 436 0
-406 -430 103 307 -436 0
-406 -430 -104 -308 -437 0
-406 -430 -104 308 437 0
-406 -430 104 -308 437 0
-406 -430 104 308 -437 0
-406 -430 -105 -309 -438 0
-406 -430 -105 309 438 0
-406 -430 105 -309 438 0
-406 -430 105 309 -438 0
-406 -430 -106 -310 -439 0
-406 -430 -106 310 439 0
-406 -430 106 -310 439 0
-406 -430 106 310 -439 0
-406 -430 -107 -311 -440 0
-406 -430 -107 311 440 0
-406 -430 107 -311 440 0
-406 -430 107 311 -440 0
-406 -430 -108 -312 -441 0
-406 -430 -108 312 441 0
-406 -430 108 -312 441 0
-406 -430 108 312 -441 0
-406 -431 -100 -345 -433 0
-406 -431 -100 345 433 0
-406 -431 100 -345 433 0
-406 -431 100 345 -433 0
-406 -431 -101 -346 -434 0
-406 -431 -101 346 434 0
-406 -431 101 -346 434 0
-406 -431 101 346 -434 0
-406 -431 -102 -347 -435 0
-406 -431 -102 347 435 0
-406 -431 102 -347 435 0
-406 -431 102 347 -435 0
-406 -431 -103 -348 -436 0
-406 -431 -103 348 436 0
-406 -431 103 -348 436 0
-406 -431 103 348 -436 0
-406 -431 -104 -349 -437 0
-406 -431 -104 349 437 0
-406 -431 104 -349 437 0
-406 -431 104 349 -437 0
-406 -431 -105 -350 -438 0
-406 -431 -105 350 438 0
-406 -431 105 -350 438 0
-406 -431 105 350 -438 0
-406 -431 -106 -351 -439 0
-406 -431 -106 351 439 0
-406 -431 106 -351 439 0
-406 -431 106 351 -439 0
-406 -431 -107 -352 -440 0
-406 -431 -107 352 440 0
-406 -431 107 -352 440 0
-406 -431 107 352 -440 0
-406 -431 -108 -353 -441 0
-406 -431 -108 353 441 0
-406 -431 108 -353 441 0
-406 -431 108 353 -441 0
-406 -432 -100 -388 -433 0
-406 -432 -100 388 433 0
-406 -432 100 -388 433 0
-406 -432 100 388 -433 0
-406 -432 -101 -389 -434 0
-406 -432 -101 389 434 0
-406 -432 101 -389 434 0
-406 -432 101 389 -434 0
-406 -432 -102 -390 -435 0
-406 -432 -102 390 435 0
-406 -432 102 -390 435 0
-406 -432 102 390 -435 0
-406 -432 -103 -391 -436 0
-406 -432 -103 391 436 0
-406 -432 103 -391 436 0
-406 -432 103 391 -436 0
-406 -432 -104 -392 -437 0
-406 -432 -104 392 437 0
-406 -432 104 -392 437 0
-406 -432 104 392 -437 0
-406 -432 -105 -393 -438 0
-406 -432 -105 393 438 0
-406 -432 105 -393 438 0
-406 -432 105 393 -438 0
-406 -432 -106 -394 -439 0
-406 -432 -106 394 439 0
-406 -432 106 -394 439 0
-406 -432 106 394 -439 0
-406 -432 -107 -395 -440 0
-406 -432 -107 395 440 0
-406 -432 107 -395 440 0
-406 -432 107 395 -440 0
-406 -432 -108 -396 -441 0
-406 -432 -108 396 441 0
-406 -432 108 -396 441 0
-406 -432 108 396 -441 0
-407 -426 -129 -160 -433 0
-407 -426 -129 160 433 0
-407 -426 129 -160 433 0
-407 -426 129 160 -433 0
-407 -426 -130 -161 -434 0
-407 -426 -130 161 434 0
-407 -426 130 -161 434 0
-407 -426 130 161 -434 0
-407 -426 -131 -162 -435 0
-407 -426 -131 162 435 0
-407 -426 131 -162 435 0
-407 -426 131 162 -435 0
-407 -426 -132 -163 -436 0
-407 -426 -132 163 436 0
-407 -426 132 -163 436 0
-407 -426 132 163 -436 0
-407 -426 -133 -164 -437 0
-407 -426 -133 164 437 0
-407 -426 133 -164 437 0
-407 -426 133 164 -437 0
-407 -426 -134 -165 -438 0
-407 -426 -134 165 438 0
-407 -426 134 -165 438 0
-407 -426 134 165 -438 0
-407 -426 -135 -166 -439 0
-407 -426 -135 166 439 0
-407 -426 135 -166 439 0
-407 -426 135 166 -439 0
-407 -426 -136 -167 -440 0
-407 -426 -136 167 440 0
-407 -426 136 -167 440 0
-407 -426 136 167 -440 0
-407 -426 -137 -168 -441 0
-407 -426 -137 168 441 0
-407 -426 137 -168 441 0
-407 -426 137 168 -441 0
-407 -427 -129 -193 -433 0
-407 -427 -129 193 433 0
-407 -427 129 -193 433 0
-407 -427 129 193 -433 0
-407 -427 -130 -194 -434 0
-407 -427 -130 194 434 0
-407 -427 130 -194 434 0
-407 -427 130 194 -434 0
-407 -427 -131 -195 -435 0
-407 -427 -131 195 435 0
-407 -427 131 -195 435 0
-407 -427 131 195 -435 0
-407 -427 -132 -196 -436 0
-407 -427 -132 196 436 0
-407 -427 132 -196 436 0
-407 -427 132 196 -436 0
-407 -427 -133 -197 -437 0
-407 -427 -133 197 437 0
-407 -427 133 -197 437 0
-407 -427 133 197 -437 0
-407 -427 -134 -198 -438 0
-407 -427 -134 198 438 0
-407 -427 134 -198 438 0
-407 -427 134 198 -438 0
-407 -427 -135 -199 -439 0
-407 -427 -135 199 439 0
-407 -427 135 -199 439 0
-407 -427 135 199 -439 0
-407 -427 -136 -200 -440 0
-407 -427 -136 200 440 0
-407 -427 136 -200 440 0
-407 -427 136 200 -440 0
-407 -427 -137 -201 -441 0
-407 -427 -137 201 441 0
-407 -427 137 -201 441 0
-407 -427 137 201 -441 0
-407 -428 -129 -228 -433 0
-407 -428 -129 228 433 0
-407 -428 129 -228 433 0
-407 -428 129 228 -433 0
-407 -428 -130 -229 -434 0
-407 -428 -130 229 434 0
-407 -428 130 -229 434 0
-407 -428 130 229 -434 0
-407 -428 -131 -230 -435 0
-407 -428 -131 230 435 0
-407 -428 131 -230 435 0
-407 -428 131 230 -435 0
-407 -428 -132 -231 -436 0
-407 -428 -132 231 436 0
-407 -428 132 -231 436 0
-407 -428 132 231 -436 0
-407 -428 -133 -232 -437 0
-407 -428 -133 232 437 0
-407 -428 133 -232 437 0
-407 -428 133 232 -437 0
-407 -428 -134 -233 -438 0
-407 -428 -134 233 438 0
-407 -428 134 -233 438 0
-407 -428 134 233 -438 0
-407 -428 -135 -234 -439 0
-407 -428 -135 234 439 0
-407 -428 135 -234 439 0
-407 -428 135 234 -439 0
-407 -428 -136 -235 -440 0
-407 -428 -136 235 440 0
-407 -428 136 -235 440 0
-407 -428 136 235 -440 0
-407 -428 -137 -236 -441 0
-407 -428 -137 236 441 0
-407 -428 137 -236 441 0
-407 -428 137 236 -441 0
-407 -429 -129 -265 -433 0
-407 -429 -129 265 433 0
-407 -429 129 -265 433 0
-407 -429 129 265 -433 0
-407 -429 -130 -266 -434 0
-407 -429 -130 266 434 0
-407 -429 130 -266 434 0
-407 -429 130 266 -434 0
-407 -429 -131 -267 -435 0
-407 -429 -131 267 435 0
-407 -429 131 -267 435 0
-407 -429 131 267 -435 0
-407 -429 -132 -268 -436 0
-407 -429 -132 268 436 0
-407 -429 132 -268 436 0
-407 -429 132 268 -436 0
-407 -429 -133 -269 -437 0
-407 -429 -133 269 437 0
-407 -429 133 -269 437 0
-407 -429 133 269 -437 0
-407 -429 -134 -270 -438 0
-407 -429 -134 270 438 0
-407 -429 134 -270 438 0
-407 -429 134 270 -438 0
-407 -429 -135 -271 -439 0
-407 -429 -135 271 439 0
-407 -429 135 -271 439 0
-407 -429 135 271 -439 0
-407 -429 -136 -272 -440 0
-407 -429 -136 272 440 0
-407 -429 136 -272 440 0
-407 -429 136 272 -440 0
-407 -429 -137 -273 -441 0
-407 -429 -137 273 441 0
-407 -429 137 -273 441 0
-407 -429 137 273 -441 0
-407 -430 -129 -304 -433 0
-407 -430 -129 304 433 0
-407 -430 129 -304 433 0
-407 -430 129 304 -433 0
-407 -430 -130 -305 -434 0
-407 -430 -130 305 434 0
-407 -430 130 -305 434 0
-407 -430 130 305 -434 0
-407 -430 -131 -306 -435 0
-407 -430 -131 306 435 0
-407 -430 131 -306 435 0
-407 -430 131 306 -435 0
-407 -430 -132 -307 -436 0
-407 -430 -132 307 436 0
-407 -430 132 -307 436 0
-407 -430 132 307 -436 0
-407 -430 -133 -308 -437 0
-407 -430 -133 308 437 0
-407 -430 133 -308 437 0
-407 -430 133 308 -437 0
-407 -430 -134 -309 -438 0
-407 -430 -134 309 438 0
-407 -430 134 -309 438 0
-407 -430 134 309 -438 0
-407 -430 -135 -310 -439 0
-407 -430 -135 310 439 0
-407 -430 135 -310 439 0
-407 -430 135 310 -439 0
-407 -430 -136 -311 -440 0
-407 -430 -136 311 440 0
-407 -430 136 -311 440 0
-407 -430 136 311 -440 0
-407 -430 -137 -312 -441 0
-407 -430 -137 312 441 0
-407 -430 137 -312 441 0
-407 -430 137 312 -441 0
-407 -431 -129 -345 -433 0
-407 -431 -129 345 433 0
-407 -431 129 -345 433 0
-407 -431 129 345 -433 0
-407 -431 -130 -346 -434 0
-407 -431 -130 346 434 0
-407 -431 130 -346 434 0
-407 -431 130 346 -434 0
-407 -431 -131 -347 -435 0
-407 -431 -131 347 435 0
-407 -431 131 -347 435 0
-407 -431 131 347 -435 0
-407 -431 -132 -348 -436 0
-407 -431 -132 348 436 0
-407 -431 132 -348 436 0
-407 -431 132 348 -436 0
-407 -431 -133 -349 -437 0
-407 -431 -133 349 437 0
-407 -431 133 -349 437 0
-407 -431 133 349 -437 0
-407 -431 -134 -350 -438 0
-407 -431 -134 350 438 0
-407 -431 134 -350 438 0
-407 -431 134 350 -438 0
-407 -431 -135 -351 -439 0
-407 -431 -135 351 439 0
-407 -431 135 -351 439 0
-407 -431 135 351 -439 0
-407 -431 -136 -352 -440 0
-407 -431 -136 352 440 0
-407 -431 136 -352 440 0
-407 -431 136 352 -440 0
-407 -431 -137 -353 -441 0
-407 -431 -137 353 441 0
-407 -431 137 -353 441 0
-407 -431 137 353 -441 0
-407 -432 -129 -388 -433 0
-407 -432 -129 388 433 0
-407 -432 129 -388 433 0
-407 -432 129 388 -433 0
-407 -432 -130 -389 -434 0
-407 -432 -130 389 434 0
-407 -432 130 -389 434 0
-407 -432 130 389 -434 0
-407 -432 -131 -390 -435 0
-407 -432 -131 390 435 0
-407 -432 131 -390 435 0
-407 -432 131 390 -435 0
-407 -432 -132 -391 -436 0
-407 -432 -132 391 436 0
-407 -432 132 -391 436 0
-407 -432 132 391 -436 0
-407 -432 -133 -392 -437 0
-407 -432 -133 392 437 0
-407 -432 133 -392 437 0
-407 -432 133 392 -437 0
-407 -432 -134 -393 -438 0
-407 -432 -134 393 438 0
-407 -432 134 -393 438 0
-407 -432 134 393 -438 0
-407 -432 -135 -394 -439 0
-407 -432 -135 394 439 0
-407 -432 135 -394 439 0
-407 -432 135 394 -439 0
-407 -432 -136 -395 -440 0
-407 -432 -136 395 440 0
-407 -432 136 -395 440 0
-407 -432 136 395 -440 0
-407 -432 -137 -396 -441 0
-407 -432 -137 396 441 0
-407 -432 137 -396 441 0
-407 -432 137 396 -441 0
-408 -427 -160 -193 -433 0
-408 -427 -160 193 433 0
-408 -427 160 -193 433 0
-408 -427 160 193 -433 0
-408 -427 -161 -194 -434 0
-408 -427 -161 194 434 0
-408 -427 161 -194 434 0
-408 -427 161 194 -434 0
-408 -427 -162 -195 -435 0
-408 -427 -162 195 435 0
-408 -427 162 -195 435 0
-408 -427 162 195 -435 0
-408 -427 -163 -196 -436 0
-408 -427 -163 196 436 0
-408 -427 163 -196 436 0
-408 -427 163 196 -436 0
-408 -427 -164 -197 -437 0
-408 -427 -164 197 437 0
-408 -427 164 -197 437 0
-408 -427 164 197 -437 0
-408 -427 -165 -198 -438 0
-408 -427 -165 198 438 0
-408 -427 165 -198 438 0
-408 -427 165 198 -438 0
-408 -427 -166 -199 -439 0
-408 -427 -166 199 439 0
-408 -427 166 -199 439 0
-408 -427 166 199 -439 0
-408 -427 -167 -200 -440 0
-408 -427 -167 200 440 0
-408 -427 167 -200 440 0
-408 -427 167 200 -440 0
-408 -427 -168 -201 -441 0
-408 -427 -168 201 441 0
-408 -427 168 -201 441 0
-408 -427 168 201 -441 0
-408 -428 -160 -228 -433 0
-408 -428 -160 228 433 0
-408 -428 160 -228 433 0
-408 -428 160 228 -433 0
-408 -428 -161 -229 -434 0
-408 -428 -161 229 434 0
-408 -428 161 -229 434 0
-408 -428 161 229 -434 0
-408 -428 -162 -230 -435 0
-408 -428 -162 230 435 0
-408 -428 162 -230 435 0
-408 -428 162 230 -435 0
-408 -428 -163 -231 -436 0
-408 -428 -163 231 436 0
-408 -428 163 -231 436 0
-408 -428 163 231 -436 0
-408 -428 -164 -232 -437 0
-408 -428 -164 232 437 0
-408 -428 164 -232 437 0
-408 -428 164 232 -437 0
-408 -428 -165 -233 -438 0
-408 -428 -165 233 438 0
-408 -428 165 -233 438 0
-408 -428 165 233 -438 0
-408 -428 -166 -234 -439 0
-408 -428 -166 234 439 0
-408 -428 166 -234 439 0
-408 -428 166 234 -439 0
-408 -428 -167 -235 -440 0
-408 -428 -167 235 440 0
-408 -428 167 -235 440 0
-408 -428 167 235 -440 0
-408 -428 -168 -236 -441 0
-408 -428 -168 236 441 0
-408 -428 168 -236 441 0
-408 -428 168 236 -441 0
-408 -429 -160 -265 -433 0
-408 -429 -160 265 433 0
-408 -429 160 -265 433 0
-408 -429 160 265 -433 0
-408 -429 -161 -266 -434 0
-408 -429 -161 266 434 0
-408 -429 161 -266 434 0
-408 -429 161 266 -434 0
-408 -429 -162 -267 -435 0
-408 -429 -162 267 435 0
-408 -429 162 -267 435 0
-408 -429 162 267 -435 0
-408 -429 -163 -268 -436 0
-408 -429 -163 268 436 0
-408 -429 163 -268 436 0
-408 -429 163 268 -436 0
-408 -429 -164 -269 -437 0
-408 -429 -164 269 437 0
-408 -429 164 -269 437 0
-408 -429 164 269 -437 0
-408 -429 -165 -270 -438 0
-408 -429 -165 270 438 0
-408 -429 165 -270 438 0
-408 -429 165 270 -438 0
-408 -429 -166 -271 -439 0
-408 -429 -166 271 439 0
-408 -429 166 -271 439 0
-408 -429 166 271 -439 0
-408 -429 -167 -272 -440 0
-408 -429 -167 272 440 0
-408 -429 167 -272 440 0
-408 -429 167 272 -440 0
-408 -429 -168 -273 -441 0
-408 -429 -168 273 441 0
-408 -429 168 -273 441 0
-408 -429 168 273 -441 0
-408 -430 -160 -304 -433 0
-408 -430 -160 304 433 0
-408 -430 160 -304 433 0
-408 -430 160 304 -433 0
-408 -430 -161 -305 -434 0
-408 -430 -161 305 434 0
-408 -430 161 -305 434 0
-408 -430 161 305 -434 0
-408 -430 -162 -306 -435 0
-408 -430 -162 306 435 0
-408 -430 162 -306 435 0
-408 -430 162 306 -435 0
-408 -430 -163 -307 -436 0
-408 -430 -163 307 436 0
-408 -430 163 -307 436 0
-408 -430 163 307 -436 0
-408 -430 -164 -308 -437 0
-408 -430 -164 308 437 0
-408 -430 164 -308 437 0
-408 -430 164 308 -437 0
-408 -430 -165 -309 -438 0
-408 -430 -165 309 438 0
-408 -430 165 -309 438 0
-408 -430 165 309 -438 0
-408 -430 -166 -310 -439 0
-408 -430 -166 310 439 0
-408 -430 166 -310 439 0
-408 -430 166 310 -439 0
-408 -430 -167 -311 -440 0
-408 -430 -167 311 440 0
-408 -430 167 -311 440 0
-408 -430 167 311 -440 0
-408 -430 -168 -312 -441 0
-408 -430 -168 312 441 0
-408 -430 168 -312 441 0
-408 -430 168 312 -441 0
-408 -431 -160 -345 -433 0
-408 -431 -160 345 433 0
-408 -431 160 -345 433 0
-408 -431 160 345 -433 0
-408 -431 -161 -346 -434 0
-408 -431 -161 346 434 0
-408 -431 161 -346 434 0
-408 -431 161 346 -434 0
-408 -431 -162 -347 -435 0
-408 -431 -162 347 435 0
-408 -431 162 -347 435 0
-408 -431 162 347 -435 0
-408 -431 -163 -348 -436 0
-408 -431 -163 348 436 0
-408 -431 163 -348 436 0
-408 -431 163 348 -436 0
-408 -431 -164 -349 -437 0
-408 -431 -164 349 437 0
-408 -431 164 -349 437 0
-408 -431 164 349 -437 0
-408 -431 -165 -350 -438 0
-408 -431 -165 350 438 0
-408 -431 165 -350 438 0
-408 -431 165 350 -438 0
-408 -431 -166 -351 -439 0
-408 -431 -166 351 439 0
-408 -431 166 -351 439 0
-408 -431 166 351 -439 0
-408 -431 -167 -352 -440 0
-408 -431 -167 352 440 0
-408 -431 167 -352 440 0
-408 -431 167 352 -440 0
-408 -431 -168 -353 -441 0
-408 -431 -168 353 441 0
-408 -431 168 -353 441 0
-408 -431 168 353 -441 0
-408 -432 -160 -388 -433 0
-408 -432 -160 388 433 0
-408 -432 160 -388 433 0
-408 -432 160 388 -433 0
-408 -432 -161 -389 -434 0
-408 -432 -161 389 434 0
-408 -432 161 -389 434 0
-408 -432 161 389 -434 0
-408 -432 -162 -390 -435 0
-408 -432 -162 390 435 0
-408 -432 162 -390 435 0
-408 -432 162 390 -435 0
-408 -432 -163 -391 -436 0
-408 -432 -163 391 436 0
-408 -432 163 -391 436 0
-408 -432 163 391 -436 0
-408 -432 -164 -392 -437 0
-408 -432 -164 392 437 0
-408 -432 164 -392 437 0
-408 -432 164 392 -437 0
-408 -432 -165 -393 -438 0
-408 -432 -165 393 438 0
-408 -432 165 -393 438 0
-408 -432 165 393 -438 0
-408 -432 -166 -394 -439 0
-408 -432 -166 394 439 0
-408 -432 166 -394 439 0
-408 -432 166 394 -439 0
-408 -432 -167 -395 -440 0
-408 -432 -167 395 440 0
-408 -432 167 -395 440 0
-408 -432 167 395 -440 0
-408 -432 -168 -396 -441 0
-408 -432 -168 396 441 0
-408 -432 168 -396 441 0
-408 -432 168 396 -441 0
-409 -428 -193 -228 -433 0
-409 -428 -193 228 433 0
-409 -428 193 -228 433 0
-409 -428 193 228 -433 0
-409 -428 -194 -229 -434 0
-409 -428 -194 229 434 0
-409 -428 194 -229 434 0
-409 -428 194 229 -434 0
-409 -428 -195 -230 -435 0
-409 -428 -195 230 435 0
-409 -428 195 -230 435 0
-409 -428 195 230 -435 0
-409 -428 -196 -231 -436 0
-409 -428 -196 231 436 0
-409 -428 196 -231 436 0
-409 -428 196 231 -436 0
-409 -428 -197 -232 -437 0
-409 -428 -197 232 437 0
-409 -428 197 -232 437 0
-409 -428 197 232 -437 0
-409 -428 -198 -233 -438 0
-409 -428 -198 233 438 0
-409 -428 198 -233 438 0
-409 -428 198 233 -438 0
-409 -428 -199 -234 -439 0
-409 -428 -199 234 439 0
-409 -428 199 -234 439 0
-409 -428 199 234 -439 0
-409 -428 -200 -235 -440 0
-409 -428 -200 235 440 0
-409 -428 200 -235 440 0
-409 -428 200 235 -440 0
-409 -428 -201 -236 -441 0
-409 -428 -201 236 441 0
-409 -428 201 -236 441 0
-409 -428 201 236 -441 0
-409 -429 -193 -265 -433 0
-409 -429 -193 265 433 0
-409 -429 193 -265 433 0
-409 -429 193 265 -433 0
-409 -429 -194 -266 -434 0
-409 -429 -194 266 434 0
-409 -429 194 -266 434 0
-409 -429 194 266 -434 0
-409 -429 -195 -267 -435 0
-409 -429 -195 267 435 0
-409 -429 195 -267 435 0
-409 -429 195 267 -435 0
-409 -429 -196 -268 -436 0
-409 -429 -196 268 436 0
-409 -429 196 -268 436 0
-409 -429 196 268 -436 0
-409 -429 -197 -269 -437 0
-409 -429 -197 269 437 0
-409 -429 197 -269 437 0
-409 -429 197 269 -437 0
-409 -429 -198 -270 -438 0
-409 -429 -198 270 438 0
-409 -429 198 -270 438 0
-409 -429 198 270 -438 0
-409 -429 -199 -271 -439 0
-409 -429 -199 271 439 0
-409 -429 199 -271 439 0
-409 -429 199 271 -439 0
-409 -429 -200 -272 -440 0
-409 -429 -200 272 440 0
-409 -429 200 -272 440 0
-409 -429 200 272 -440 0
-409 -429 -201 -273 -441 0
-409 -429 -201 273 441 0
-409 -429 201 -273 441 0
-409 -429 201 273 -441 0
-409 -430 -193 -304 -433 0
-409 -430 -193 304 433 0
-409 -430 193 -304 433 0
-409 -430 193 304 -433 0
-409 -430 -194 -305 -434 0
-409 -430 -194 305 434 0
-409 -430 194 -305 434 0
-409 -430 194 305 -434 0
-409 -430 -195 -306 -435 0
-409 -430 -195 306 435 0
-409 -430 195 -306 435 0
-409 -430 195 306 -435 0
-409 -430 -196 -307 -436 0
-409 -430 -196 307 436 0
-409 -430 196 -307 436 0
-409 -430 196 307 -436 0
-409 -430 -197 -308 -437 0
-409 -430 -197 308 437 0
-409 -430 197 -308 437 0
-409 -430 197 308 -437 0
-409 -430 -198 -309 -438 0
-409 -430 -198 309 438 0
-409 -430 198 -309 438 0
-409 -430 198 309 -438 0
-409 -430 -199 -310 -439 0
-409 -430 -199 310 439 0
-409 -430 199 -310 439 0
-409 -430 199 310 -439 0
-409 -430 -200 -311 -440 0
-409 -430 -200 311 440 0
-409 -430 200 -311 440 0
-409 -430 200 311 -440 0
-409 -430 -201 -312 -441 0
-409 -430 -201 312 441 0
-409 -430 201 -312 441 0
-409 -430 201 312 -441 0
-409 -431 -193 -345 -433 0
-409 -431 -193 345 433 0
-409 -431 193 -345 433 0
-409 -431 193 345 -433 0
-409 -431 -194 -346 -434 0
-409 -431 -194 346 434 0
-409 -431 194 -346 434 0
-409 -431 194 346 -434 0
-409 -431 -195 -347 -435 0
-409 -431 -195 347 435 0
-409 -431 195 -347 435 0
-409 -431 195 347 -435 0
-409 -431 -196 -348 -436 0
-409 -431 -196 348 436 0
-409 -431 196 -348 436 0
-409 -431 196 348 -436 0
-409 -431 -197 -349 -437 0
-409 -431 -197 349 437 0
-409 -431 197 -349 437 0
-409 -431 197 349 -437 0
-409 -431 -198 -350 -438 0
-409 -431 -198 350 438 0
-409 -431 198 -350 438 0
-409 -431 198 350 -438 0
-409 -431 -199 -351 -439 0
-409 -431 -199 351 439 0
-409 -431 199 -351 439 0
-409 -431 199 351 -439 0
-409 -431 -200 -352 -440 0
-409 -431 -200 352 440 0
-409 -431 200 -352 440 0
-409 -431 200 352 -440 0
-409 -431 -201 -353 -441 0
-409 -431 -201 353 441 0
-409 -431 201 -353 441 0
-409 -431 201 353 -441 0
-409 -432 -193 -388 -433 0
-409 -432 -193 388 433 0
-409 -432 193 -388 433 0
-409 -432 193 388 -433 0
-409 -432 -194 -389 -434 0
-409 -432 -194 389 434 0
-409 -432 194 -389 434 0
-409 -432 194 389 -434 0
-409 -432 -195 -390 -435 0
-409 -432 -195 390 435 0
-409 -432 195 -390 435 0
-409 -432 195 390 -435 0
-409 -432 -196 -391 -436 0
-409 -432 -196 391 436 0
-409 -432 196 -391 436 0
-409 -432 196 391 -436 0
-409 -432 -197 -392 -437 0
-409 -432 -197 392 437 0
-409 -432 197 -392 437 0
-409 -432 197 392 -437 0
-409 -432 -198 -393 -438 0
-409 -432 -198 393 438 0
-409 -432 198 -393 438 0
-409 -432 198 393 -438 0
-409 -432 -199 -394 -439 0
-409 -432 -199 394 439 0
-409 -432 199 -394 439 0
-409 -432 199 394 -439 0
-409 -432 -200 -395 -440 0
-409 -432 -200 395 440 0
-409 -432 200 -395 440 0
-409 -432 200 395 -440 0
-409 -432 -201 -396 -441 0
-409 -432 -201 396 441 0
-409 -432 201 -396 441 0
-409 -432 201 396 -441 0
-410 -429 -228 -265 -433 0
-410 -429 -228 265 433 0
-410 -429 228 -265 433 0
-410 -429 228 265 -433 0
-410 -429 -229 -266 -434 0
-410 -429 -229 266 434 0
-410 -429 229 -266 434 0
-410 -429 229 266 -434 0
-410 -429 -230 -267 -435 0
-410 -429 -230 267 435 0
-410 -429 230 -267 435 0
-410 -429 230 267 -435 0
-410 -429 -231 -268 -436 0
-410 -429 -231 268 436 0
-410 -429 231 -268 436 0
-410 -429 231 268 -436 0
-410 -429 -232 -269 -437 0
-410 -429 -232 269 437 0
-410 -429 232 -269 437 0
-410 -429 232 269 -437 0
-410 -429 -233 -270 -438 0
-410 -429 -233 270 438 0
-410 -429 233 -270 438 0
-410 -429 233 270 -438 0
-410 -429 -234 -271 -439 0
-410 -429 -234 271 439 0
-410 -429 234 -271 439 0
-410 -429 234 271 -439 0
-410 -429 -235 -272 -440 0
-410 -429 -235 272 440 0
-410 -429 235 -272 440 0
-410 -429 235 272 -440 0
-410 -429 -236 -273 -441 0
-410 -429 -236 273 441 0
-410 -429 236 -273 441 0
-410 -429 236 273 -441 0
-410 -430 -228 -304 -433 0
-410 -430 -228 304 433 0
-410 -430 228 -304 433 0
-410 -430 228 304 -433 0
-410 -430 -229 -305 -434 0
-410 -430 -229 305 434 0
-410 -430 229 -305 434 0
-410 -430 229 305 -434 0
-410 -430 -230 -306 -435 0
-410 -430 -230 306 435 0
-410 -430 230 -306 435 0
-410 -430 230 306 -435 0
-410 -430 -231 -307 -436 0
-410 -430 -231 307 436 0
-410 -430 231 -307 436 0
-410 -430 231 307 -436 0
-410 -430 -232 -308 -437 0
-410 -430 -232 308 437 0
-410 -430 232 -308 437 0
-410 -430 232 308 -437 0
-410 -430 -233 -309 -438 0
-410 -430 -233 309 438 0
-410 -430 233 -309 438 0
-410 -430 233 309 -438 0
-410 -430 -234 -310 -439 0
-410 -430 -234 310 439 0
-410 -430 234 -310 439 0
-410 -430 234 310 -439 0
-410 -430 -235 -311 -440 0
-410 -430 -235 311 440 0
-410 -430 235 -311 440 0
-410 -430 235 311 -440 0
-410 -430 -236 -312 -441 0
-410 -430 -236 312 441 0
-410 -430 236 -312 441 0
-410 -430 236 312 -441 0
-410 -431 -228 -345 -433 0
-410 -431 -228 345 433 0
-410 -431 228 -345 433 0
-410 -431 228 345 -433 0
-410 -431 -229 -346 -434 0
-410 -431 -229 346 434 0
-410 -431 229 -346 434 0
-410 -431 229 346 -434 0
-410 -431 -230 -347 -435 0
-410 -431 -230 347 435 0
-410 -431 230 -347 435 0
-410 -431 230 347 -435 0
-410 -431 -231 -348 -436 0
-410 -431 -231 348 436 0
-410 -431 231 -348 436 0
-410 -431 231 348 -436 0
-410 -431 -232 -349 -437 0
-410 -431 -232 349 437 0
-410 -431 232 -349 437 0
-410 -431 232 349 -437 0
-410 -431 -233 -350 -438 0
-410 -431 -233 350 438 0
-410 -431 233 -350 438 0
-410 -431 233 350 -438 0
-410 -431 -234 -351 -439 0
-410 -431 -234 351 439 0
-410 -431 234 -351 439 0
-410 -431 234 351 -439 0
-410 -431 -235 -352 -440 0
-410 -431 -235 352 440 0
-410 -431 235 -352 440 0
-410 -431 235 352 -440 0
-410 -431 -236 -353 -441 0
-410 -431 -236 353 441 0
-410 -431 236 -353 441 0
-410 -431 236 353 -441 0
-410 -432 -228 -388 -433 0
-410 -432 -228 388 433 0
-410 -432 228 -388 433 0
-410 -432 228 388 -433 0
-410 -432 -229 -389 -434 0
-410 -432 -229 389 434 0
-410 -432 229 -389 434 0
-410 -432 229 389 -434 0
-410 -432 -230 -390 -435 0
-410 -432 -230 390 435 0
-410 -432 230 -390 435 0
-410 -432 230 390 -435 0
-410 -432 -231 -391 -436 0
-410 -432 -231 391 436 0
-410 -432 231 -391 436 0
-410 -432 231 391 -436 0
-410 -432 -232 -392 -437 0
-410 -432 -232 392 437 0
-410 -432 232 -392 437 0
-410 -432 232 392 -437 0
-410 -432 -233 -393 -438 0
-410 -432 -233 393 438 0
-410 -432 233 -393 438 0
-410 -432 233 393 -438 0
-410 -432 -234 -394 -439 0
-410 -432 -234 394 439 0
-410 -432 234 -394 439 0
-410 -432 234 394 -439 0
-410 -432 -235 -395 -440 0
-410 -432 -235 395 440 0
-410 -432 235 -395 440 0
-410 -432 235 395 -440 0
-410 -432 -236 -396 -441 0
-410 -432 -236 396 441 0
-410 -432 236 -396 441 0
-410 -432 236 396 -441 0
-411 -430 -265 -304 -433 0
-411 -430 -265 304 433 0
-411 -430 265 -304 433 0
-411 -430 265 304 -433 0
-411 -430 -266 -305 -434 0
-411 -430 -266 305 434 0
-411 -430 266 -305 434 0
-411 -430 266 305 -434 0
-411 -430 -267 -306 -435 0
-411 -430 -267 306 435 0
-411 -430 267 -306 435 0
-411 -430 267 306 -435 0
-411 -430 -268 -307 -436 0
-411 -430 -268 307 436 0
-411 -430 268 -307 436 0
-411 -430 268 307 -436 0
-411 -430 -269 -308 -437 0
-411 -430 -269 308 437 0
-411 -430 269 -308 437 0
-411 -430 269 308 -437 0
-411 -430 -270 -309 -438 0
-411 -430 -270 309 438 0
-411 -430 270 -309 438 0
-411 -430 270 309 -438 0
-411 -430 -271 -310 -439 0
-411 -430 -271 310 439 0
-411 -430 271 -310 439 0
-411 -430 271 310 -439 0
-411 -430 -272 -311 -440 0
-411 -430 -272 311 440 0
-411 -430 272 -311 440 0
-411 -430 272 311 -440 0
-411 -430 -273 -312 -441 0
-411 -430 -273 312 441 0
-411 -430 273 -312 441 0
-411 -430 273 312 -441 0
-411 -431 -265 -345 -433 0
-411 -431 -265 345 433 0
-411 -431 265 -345 433 0
-411 -431 265 345 -433 0
-411 -431 -266 -346 -434 0
-411 -431 -266 346 434 0
-411 -431 266 -346 434 0
-411 -431 266 346 -434 0
-411 -431 -267 -347 -435 0
-411 -431 -267 347 435 0
-411 -431 267 -347 435 0
-411 -431 267 347 -435 0
-411 -431 -268 -348 -436 0
-411 -431 -268 348 436 0
-411 -431 268 -348 436 0
-411 -431 268 348 -436 0
-411 -431 -269 -349 -437 0
-411 -431 -269 349 437 0
-411 -431 269 -349 437 0
-411 -431 269 349 -437 0
-411 -431 -270 -350 -438 0
-411 -431 -270 350 438 0
-411 -431 270 -350 438 0
-411 -431 270 350 -438 0
-411 -431 -271 -351 -439 0
-411 -431 -271 351 439 0
-411 -431 271 -351 439 0
-411 -431 271 351 -439 0
-411 -431 -272 -352 -440 0
-411 -431 -272 352 440 0
-411 -431 272 -352 440 0
-411 -431 272 352 -440 0
-411 -431 -273 -353 -441 0
-411 -431 -273 353 441 0
-411 -431 273 -353 441 0
-411 -431 273 353 -441 0
-411 -432 -265 -388 -433 0
-411 -432 -265 388 433 0
-411 -432 265 -388 433 0
-411 -432 265 388 -433 0
-411 -432 -266 -389 -434 0
-411 -432 -266 389 434 0
-411 -432 266 -389 434 0
-411 -432 266 389 -434 0
-411 -432 -267 -390 -435 0
-411 -432 -267 390 435 0
-411 -432 267 -390 435 0
-411 -432 267 390 -435 0
-411 -432 -268 -391 -436 0
-411 -432 -268 391 436 0
-411 -432 268 -391 436 0
-411 -432 268 391 -436 0
-411 -432 -269 -392 -437 0
-411 -432 -269 392 437 0
-411 -432 269 -392 437 0
-411 -432 269 392 -437 0
-411 -432 -270 -393 -438 0
-411 -432 -270 393 438 0
-411 -432 270 -393 438 0
-411 -432 270 393 -438 0
-411 -432 -271 -394 -439 0
-411 -432 -271 394 439 0
-411 -432 271 -394 439 0
-411 -432 271 394 -439 0
-411 -432 -272 -395 -440 0
-411 -432 -272 395 440 0
-411 -432 272 -395 440 0
-411 -432 272 395 -440 0
-411 -432 -273 -396 -441 0
-411 -432 -273 396 441 0
-411 -432 273 -396 441 0
-411 -432 273 396 -441 0
-412 -431 -304 -345 -433 0
-412 -431 -304 345 433 0
-412 -431 304 -345 433 0
-412 -431 304 345 -433 0
-412 -431 -305 -346 -434 0
-412 -431 -305 346 434 0
-412 -431 305 -346 434 0
-412 -431 305 346 -434 0
-412 -431 -306 -347 -435 0
-412 -431 -306 347 435 0
-412 -431 306 -347 435 0
-412 -431 306 347 -435 0
-412 -431 -307 -348 -436 0
-412 -431 -307 348 436 0
-412 -431 307 -348 436 0
-412 -431 307 348 -436 0
-412 -431 -308 -349 -437 0
-412 -431 -308 349 437 0
-412 -431 308 -349 437 0
-412 -431 308 349 -437 0
-412 -431 -309 -350 -438 0
-412 -431 -309 350 438 0
-412 -431 309 -350 438 0
-412 -431 309 350 -438 0
-412 -431 -310 -351 -439 0
-412 -431 -310 351 439 0
-412 -431 310 -351 439 0
-412 -431 310 351 -439 0
-412 -431 -311 -352 -440 0
-412 -431 -311 352 440 0
-412 -431 311 -352 440 0
-412 -431 311 352 -440 0
-412 -431 -312 -353 -441 0
-412 -431 -312 353 441 0
-412 -431 312 -353 441 0
-412 -431 312 353 -441 0
-412 -432 -304 -388 -433 0
-412 -432 -304 388 433 0
-412 -432 304 -388 433 0
-412 -432 304 388 -433 0
-412 -432 -305 -389 -434 0
-412 -432 -305 389 434 0
-412 -432 305 -389 434 0
-412 -432 305 389 -434 0
-412 -432 -306 -390 -435 0
-412 -432 -306 390 435 0
-412 -432 306 -390 435 0
-412 -432 306 390 -435 0
-412 -432 -307 -391 -436 0
-412 -432 -307 391 436 0
-412 -432 307 -391 436 0
-412 -432 307 391 -436 0
-412 -432 -308 -392 -437 0
-412 -432 -308 392 437 0
-412 -432 308 -392 437 0
-412 -432 308 392 -437 0
-412 -432 -309 -393 -438 0
-412 -432 -309 393 438 0
-412 -432 309 -393 438 0
-412 -432 309 393 -438 0
-412 -432 -310 -394 -439 0
-412 -432 -310 394 439 0
-412 -432 310 -394 439 0
-412 -432 310 394 -439 0
-412 -432 -311 -395 -440 0
-412 -432 -311 395 440 0
-412 -432 311 -395 440 0
-412 -432 311 395 -440 0
-412 -432 -312 -396 -441 0
-412 -432 -312 396 441 0
-412 -432 312 -396 441 0
-412 -432 312 396 -441 0
-413 -432 -345 -388 -433 0
-413 -432 -345 388 433 0
-413 -432 345 -388 433 0
-413 -432 345 388 -433 0
-413 -432 -346 -389 -434 0
-413 -432 -346 389 434 0
-413 -432 346 -389 434 0
-413 -432 346 389 -434 0
-413 -432 -347 -390 -435 0
-413 -432 -347 390 435 0
-413 -432 347 -390 435 0
-413 -432 347 390 -435 0
-413 -432 -348 -391 -436 0
-413 -432 -348 391 436 0
-413 -432 348 -391 436 0
-413 -432 348 391 -436 0
-413 -432 -349 -392 -437 0
-413 -432 -349 392 437 0
-413 -432 349 -392 437 0
-413 -432 349 392 -437 0
-413 -432 -350 -393 -438 0
-413 -432 -350 393 438 0
-413 -432 350 -393 438 0
-413 -432 350 393 -438 0
-413 -432 -351 -394 -439 0
-413 -432 -351 394 439 0
-413 -432 351 -394 439 0
-413 -432 351 394 -439 0
-413 -432 -352 -395 -440 0
-413 -432 -352 395 440 0
-413 -432 352 -395 440 0
-413 -432 352 395 -440 0
-413 -432 -353 -396 -441 0
-413 -432 -353 396 441 0
-413 -432 353 -396 441 0
-413 -432 353 396 -441 0
433 434 435 436 437 438 439 440 441 0
-442 100 1 0
-442 -100 -1 0
442 -100 1 0
442 100 -1 0
-443 101 2 0
-443 -101 -2 0
443 -101 2 0
443 101 -2 0
-444 102 3 0
-444 -102 -3 0
444 -102 3 0
444 102 -3 0
-445 103 4 0
-445 -103 -4 0
445 -103 4 0
445 103 -4 0
-446 104 5 0
-446 -104 -5 0
446 -104 5 0
446 104 -5 0
-447 105 6 0
-447 -105 -6 0
447 -105 6 0
447 105 -6 0
-448 106 7 0
-448 -106 -7 0
448 -106 7 0
448 106 -7 0
-449 107 8 0
-449 -107 -8 0
449 -107 8 0
449 107 -8 0
-450 108 9 0
-450 -108 -9 0
450 -108 9 0
450 108 -9 0
442 443 444 445 446 447 448 449 450 0
-451 100 10 0
-451 -100 -10 0
451 -100 10 0
451 100 -10 0
-452 101 11 0
-452 -101 -11 0
452 -101 11 0
452 101 -11 0
-453 102 12 0
-453 -102 -12 0
453 -102 12 0
453 102 -12 0
-454 103 13 0
-454 -103 -13 0
454 -103 13 0
454 103 -13 0
-455 104 14 0
-455 -104 -14 0
455 -104 14 0
455 104 -14 0
-456 105 15 0
-456 -105 -15 0
456 -105 15 0
456 105 -15 0
-457 106 16 0
-457 -106 -16 0
457 -106 16 0
457 106 -16 0
-458 107 17 0
-458 -107 -17 0
458 -107 17 0
458 107 -17 0
-459 108 18 0
-459 -108 -18 0
459 -108 18 0
459 108 -18 0
451 452 453 454 455 456 457 458 459 0
-460 100 19 0
-460 -100 -19 0
460 -100 19 0
460 100 -19 0
-461 101 20 0
-461 -101 -20 0
461 -101 20 0
461 101 -20 0
-462 102 21 0
-462 -102 -21 0
462 -102 21 0
462 102 -21 0
-463 103 22 0
-463 -103 -22 0
463 -103 22 0
463 103 -22 0
-464 104 23 0
-464 -104 -23 0
464 -104 23 0
464 104 -23 0
-465 105 24 0
-465 -105 -24 0
465 -105 24 0
465 105 -24 0
-466 106 25 0
-466 -106 -25 0
466 -106 25 0
466 106 -25 0
-467 107 26 0
-467 -107 -26 0
467 -107 26 0
467 107 -26 0
-468 108 27 0
-468 -108 -27 0
468 -108 27 0
468 108 -27 0
460 461 462 463 464 465 466 467 468 0
-469 100 28 0
-469 -100 -28 0
469 -100 28 0
469 100 -28 0
-470 101 29 0
-470 -101 -29 0
470 -101 29 0
470 101 -29 0
-471 102 30 0
-471 -102 -30 0
471 -102 30 0
471 102 -30 0
-472 103 31 0
-472 -103 -31 0
472 -103 31 0
472 103 -31 0
-473 104 32 0
-473 -104 -32 0
473 -104 32 0
473 104 -32 0
-474 105 33 0
-474 -105 -33 0
474 -105 33 0
474 105 -33 0
-475 106 34 0
-475 -106 -34 0
475 -106 34 0
475 106 -34 0
-476 107 35 0
-476 -107 -35 0
476 -107 35 0
476 107 -35 0
-477 108 36 0
-477 -108 -36 0
477 -108 36 0
477 108 -36 0
469 470 471 472 473 474 475 476 477 0
-478 100 37 0
-478 -100 -37 0
478 -100 37 0
478 100 -37 0
-479 101 38 0
-479 -101 -38 0
479 -101 38 0
479 101 -38 0
-480 102 39 0
-480 -102 -39 0
480 -102 39 0
480 102 -39 0
-481 103 40 0
-481 -103 -40 0
481 -103 40 0
481 103 -40 0
-482 104 41 0
-482 -104 -41 0
482 -104 41 0
482 104 -41 0
-483 105 42 0
-483 -105 -42 0
483 -105 42 0
483 105 -42 0
-484 106 43 0
-484 -106 -43 0
484 -106 43 0
484 106 -43 0
-485 107 44 0
-485 -107 -44 0
485 -107 44 0
485 107 -44 0
-486 108 45 0
-486 -108 -45 0
486 -108 45 0
486 108 -45 0
478 479 480 481 482 483 484 485 486 0
-487 100 46 0
-487 -100 -46 0
487 -100 46 0
487 100 -46 0
-488 101 47 0
-488 -101 -47 0
488 -101 47 0
488 101 -47 0
-489 102 48 0
-489 -102 -48 0
489 -102 48 0
489 102 -48 0
-490 103 49 0
-490 -103 -49 0
490 -103 49 0
490 103 -49 0
-491 104 50 0
-491 -104 -50 0
491 -104 50 0
491 104 -50 0
-492 105 51 0
-492 -105 -51 0
492 -105 51 0
492 105 -51 0
-493 106 52 0
-493 -106 -52 0
493 -106 52 0
493 106 -52 0
-494 107 53 0
-494 -107 -53 0
494 -107 53 0
494 107 -53 0
-495 108 54 0
-495 -108 -54 0
495 -108 54 0
495 108 -54 0
487 488 489 490 491 492 493 494 495 0
-496 100 55 0
-496 -100 -55 0
496 -100 55 0
496 100 -55 0
-497 101 56 0
-497 -101 -56 0
497 -101 56 0
497 101 -56 0
-498 102 57 0
-498 -102 -57 0
498 -102 57 0
498 102 -57 0
-499 103 58 0
-499 -103 -58 0
499 -103 58 0
499 103 -58 0
-500 104 59 0
-500 -104 -59 0
500 -104 59 0
500 104 -59 0
-501 105 60 0
-501 -105 -60 0
501 -105 60 0
501 105 -60 0
-502 106 61 0
-502 -106 -61 0
502 -106 61 0
502 106 -61 0
-503 107 62 0
-503 -107 -62 0
503 -107 62 0
503 107 -62 0
-504 108 63 0
-504 -108 -63 0
504 -108 63 0
504 108 -63 0
496 497 498 499 500 501 502 503 504 0
-505 100 64 0
-505 -100 -64 0
505 -100 64 0
505 100 -64 0
-506 101 65 0
-506 -101 -65 0
506 -101 65 0
506 101 -65 0
-507 102 66 0
-507 -102 -66 0
507 -102 66 0
507 102 -66 0
-508 103 67 0
-508 -103 -67 0
508 -103 67 0
508 103 -67 0
-509 104 68 0
-509 -104 -68 0
509 -104 68 0
509 104 -68 0
-510 105 69 0
-510 -105 -69 0
510 -105 69 0
510 105 -69 0
-511 106 70 0
-511 -106 -70 0
511 -106 70 0
511 106 -70 0
-512 107 71 0
-512 -107 -71 0
512 -107 71 0
512 107 -71 0
-513 108 72 0
-513 -108 -72 0
513 -108 72 0
513 108 -72 0
505 506 507 508 509 510 511 512 513 0
-514 100 73 0
-514 -100 -73 0
514 -100 73 0
514 100 -73 0
-515 101 74 0
-515 -101 -74 0
515 -101 74 0
515 101 -74 0
-516 102 75 0
-516 -102 -75 0
516 -102 75 0
516 102 -75 0
-517 103 76 0
-517 -103 -76 0
517 -103 76 0
517 103 -76 0
-518 104 77 0
-518 -104 -77 0
518 -104 77 0
518 104 -77 0
-519 105 78 0
-519 -105 -78 0
519 -105 78 0
519 105 -78 0
-520 106 79 0
-520 -106 -79 0
520 -106 79 0
520 106 -79 0
-521 107 80 0
-521 -107 -80 0
521 -107 80 0
521 107 -80 0
-522 108 81 0
-522 -108 -81 0
522 -108 81 0
522 108 -81 0
514 515 516 517 518 519 520 521 522 0
-523 129 1 0
-523 -129 -1 0
523 -129 1 0
523 129 -1 0
-524 130 2 0
-524 -130 -2 0
524 -130 2 0
524 130 -2 0
-525 131 3 0
-525 -131 -3 0
525 -131 3 0
525 131 -3 0
-526 132 4 0
-526 -132 -4 0
526 -132 4 0
526 132 -4 0
-527 133 5 0
-527 -133 -5 0
527 -133 5 0
527 133 -5 0
-528 134 6 0
-528 -134 -6 0
528 -134 6 0
528 134 -6 0
-529 135 7 0
-529 -135 -7 0
529 -135 7 0
529 135 -7 0
-530 136 8 0
-530 -136 -8 0
530 -136 8 0
530 136 -8 0
-531 137 9 0
-531 -137 -9 0
531 -137 9 0
531 137 -9 0
523 524 525 526 527 528 529 530 531 0
-532 129 10 0
-532 -129 -10 0
532 -129 10 0
532 129 -10 0
-533 130 11 0
-533 -130 -11 0
533 -130 11 0
533 130 -11 0
-534 131 12 0
-534 -131 -12 0
534 -131 12 0
534 131 -12 0
-535 132 13 0
-535 -132 -13 0
535 -132 13 0
535 132 -13 0
-536 133 14 0
-536 -133 -14 0
536 -133 14 0
536 133 -14 0
-537 134 15 0
-537 -134 -15 0
537 -134 15 0
537 134 -15 0
-538 135 16 0
-538 -135 -16 0
538 -135 16 0
538 135 -16 0
-539 136 17 0
-539 -136 -17 0
539 -136 17 0
539 136 -17 0
-540 137 18 0
-540 -137 -18 0
540 -137 18 0
540 137 -18 0
532 533 534 535 536 537 538 539 540 0
-541 129 19 0
-541 -129 -19 0
541 -129 19 0
541 129 -19 0
-542 130 20 0
-542 -130 -20 0
542 -130 20 0
542 130 -20 0
-543 131 21 0
-543 -131 -21 0
543 -131 21 0
543 131 -21 0
-544 132 22 0
-544 -132 -22 0
544 -132 22 0
544 132 -22 0
-545 133 23 0
-545 -133 -23 0
545 -133 23 0
545 133 -23 0
-546 134 24 0
-546 -134 -24 0
546 -134 24 0
546 134 -24 0
-547 135 25 0
-547 -135 -25 0
547 -135 25 0
547 135 -25 0
-548 136 26 0
-548 -136 -26 0
548 -136 26 0
548 136 -26 0
-549 137 27 0
-549 -137 -27 0
549 -137 27 0
549 137 -27 0
541 542 543 544 545 546 547 548 549 0
-550 129 28 0
-550 -129 -28 0
550 -129 28 0
550 129 -28 0
-551 130 29 0
-551 -130 -29 0
551 -130 29 0
551 130 -29 0
-552 131 30 0
-552 -131 -30 0
552 -131 30 0
552 131 -30 0
-553 132 31 0
-553 -132 -31 0
553 -132 31 0
553 132 -31 0
-554 133 32 0
-554 -133 -32 0
554 -133 32 0
554 133 -32 0
-555 134 33 0
-555 -134 -33 0
555 -134 33 0
555 134 -33 0
-556 135 34 0
-556 -135 -34 0
556 -135 34 0
556 135 -34 0
-557 136 35 0
-557 -136 -35 0
557 -136 35 0
557 136 -35 0
-558 137 36 0
-558 -137 -36 0
558 -137 36 0
558 137 -36 0
550 551 552 553 554 555 556 557 558 0
-559 129 37 0
-559 -129 -37 0
559 -129 37 0
559 129 -37 0
-560 130 38 0
-560 -130 -38 0
560 -130 38 0
560 130 -38 0
-561 131 39 0
-561 -131 -39 0
561 -131 39 0
561 131 -39 0
-562 132 40 0
-562 -132 -40 0
562 -132 40 0
562 132 -40 0
-563 133 41 0
-563 -133 -41 0
563 -133 41 0
563 133 -41 0
-564 134 42 0
-564 -134 -42 0
564 -134 42 0
564 134 -42 0
-565 135 43 0
-565 -135 -43 0
565 -135 43 0
565 135 -43 0
-566 136 44 0
-566 -136 -44 0
566 -136 44 0
566 136 -44 0
-567 137 45 0
-567 -137 -45 0
567 -137 45 0
567 137 -45 0
559 560 561 562 563 564 565 566 567 0
-568 129 46 0
-568 -129 -46 0
568 -129 46 0
568 129 -46 0
-569 130 47 0
-569 -130 -47 0
569 -130 47 0
569 130 -47 0
-570 131 48 0
-570 -131 -48 0
570 -131 48 0
570 131 -48 0
-571 132 49 0
-571 -132 -49 0
571 -132 49 0
571 132 -49 0
-572 133 50 0
-572 -133 -50 0
572 -133 50 0
572 133 -50 0
-573 134 51 0
-573 -134 -51 0
573 -134 51 0
573 134 -51 0
-574 135 52 0
-574 -135 -52 0
574 -135 52 0
574 135 -52 0
-575 136 53 0
-575 -136 -53 0
575 -136 53 0
575 136 -53 0
-576 137 54 0
-576 -137 -54 0
576 -137 54 0
576 137 -54 0
568 569 570 571 572 573 574 575 576 0
-577 129 55 0
-577 -129 -55 0
577 -129 55 0
577 129 -55 0
-578 130 56 0
-578 -130 -56 0
578 -130 56 0
578 130 -56 0
-579 131 57 0
-579 -131 -57 0
579 -131 57 0
579 131 -57 0
-580 132 58 0
-580 -132 -58 0
580 -132 58 0
580 132 -58 0
-581 133 59 0
-581 -133 -59 0
581 -133 59 0
581 133 -59 0
-582 134 60 0
-582 -134 -60 0
582 -134 60 0
582 134 -60 0
-583 135 61 0
-583 -135 -61 0
583 -135 61 0
583 135 -61 0
-584 136 62 0
-584 -136 -62 0
584 -136 62 0
584 136 -62 0
-585 137 63 0
-585 -137 -63 0
585 -137 63 0
585 137 -63 0
577 578 579 580 581 582 583 584 585 0
-586 129 64 0
-586 -129 -64 0
586 -129 64 0
586 129 -64 0
-587 130 65 0
-587 -130 -65 0
587 -130 65 0
587 130 -65 0
-588 131 66 0
-588 -131 -66 0
588 -131 66 0
588 131 -66 0
-589 132 67 0
-589 -132 -67 0
589 -132 67 0
589 132 -67 0
-590 133 68 0
-590 -133 -68 0
590 -133 68 0
590 133 -68 0
-591 134 69 0
-591 -134 -69 0
591 -134 69 0
591 134 -69 0
-592 135 70 0
-592 -135 -70 0
592 -135 70 0
592 135 -70 0
-593 136 71 0
-593 -136 -71 0
593 -136 71 0
593 136 -71 0
-594 137 72 0
-594 -137 -72 0
594 -137 72 0
594 137 -72 0
586 587 588 589 590 591 592 593 594 0
-595 129 73 0
-595 -129 -73 0
595 -129 73 0
595 129 -73 0
-596 130 74 0
-596 -130 -74 0
596 -130 74 0
596 130 -74 0
-597 131 75 0
-597 -131 -75 0
597 -131 75 0
597 131 -75 0
-598 132 76 0
-598 -132 -76 0
598 -132 76 0
598 132 -76 0
-599 133 77 0
-599 -133 -77 0
599 -133 77 0
599 133 -77 0
-600 134 78 0
-600 -134 -78 0
600 -134 78 0
600 134 -78 0
-601 135 79 0
-601 -135 -79 0
601 -135 79 0
601 135 -79 0
-602 136 80 0
-602 -136 -80 0
602 -136 80 0
602 136 -80 0
-603 137 81 0
-603 -137 -81 0
603 -137 81 0
603 137 -81 0
595 596 597 598 599 600 601 602 603 0
-604 129 100 0
-604 -129 -100 0
604 -129 100 0
604 129 -100 0
-605 130 101 0
-605 -130 -101 0
605 -130 101 0
605 130 -101 0
-606 131 102 0
-606 -131 -102 0
606 -131 102 0
606 131 -102 0
-607 132 103 0
-607 -132 -103 0
607 -132 103 0
607 132 -103 0
-608 133 104 0
-608 -133 -104 0
608 -133 104 0
608 133 -104 0
-609 134 105 0
-609 -134 -105 0
609 -134 105 0
609 134 -105 0
-610 135 106 0
-610 -135 -106 0
610 -135 106 0
610 135 -106 0
-611 136 107 0
-611 -136 -107 0
611 -136 107 0
611 136 -107 0
-612 137 108 0
-612 -137 -108 0
612 -137 108 0
612 137 -108 0
604 605 606 607 608 609 610 611 612 0
-613 160 1 0
-613 -160 -1 0
613 -160 1 0
613 160 -1 0
-614 161 2 0
-614 -161 -2 0
614 -161 2 0
614 161 -2 0
-615 162 3 0
-615 -162 -3 0
615 -162 3 0
615 162 -3 0
-616 163 4 0
-616 -163 -4 0
616 -163 4 0
616 163 -4 0
-617 164 5 0
-617 -164 -5 0
617 -164 5 0
617 164 -5 0
-618 165 6 0
-618 -165 -6 0
618 -165 6 0
618 165 -6 0
-619 166 7 0
-619 -166 -7 0
619 -166 7 0
619 166 -7 0
-620 167 8 0
-620 -167 -8 0
620 -167 8 0
620 167 -8 0
-621 168 9 0
-621 -168 -9 0
621 -168 9 0
621 168 -9 0
613 614 615 616 617 618 619 620 621 0
-622 160 10 0
-622 -160 -10 0
622 -160 10 0
622 160 -10 0
-623 161 11 0
-623 -161 -11 0
623 -161 11 0
623 161 -11 0
-624 162 12 0
-624 -162 -12 0
624 -162 12 0
624 162 -12 0
-625 163 13 0
-625 -163 -13 0
625 -163 13 0
625 163 -13 0
-626 164 14 0
-626 -164 -14 0
626 -164 14 0
626 164 -14 0
-627 165 15 0
-627 -165 -15 0
627 -165 15 0
627 165 -15 0
-628 166 16 0
-628 -166 -16 0
628 -166 16 0
628 166 -16 0
-629 167 17 0
-629 -167 -17 0
629 -167 17 0
629 167 -17 0
-630 168 18 0
-630 -168 -18 0
630 -168 18 0
630 168 -18 0
622 623 624 625 626 627 628 629 630 0
-631 160 19 0
-631 -160 -19 0
631 -160 19 0
631 160 -19 0
-632 161 20 0
-632 -161 -20 0
632 -161 20 0
632 161 -20 0
-633 162 21 0
-633 -162 -21 0
633 -162 21 0
633 162 -21 0
-634 163 22 0
-634 -163 -22 0
634 -163 22 0
634 163 -22 0
-635 164 23 0
-635 -164 -23 0
635 -164 23 0
635 164 -23 0
-636 165 24 0
-636 -165 -24 0
636 -165 24 0
636 165 -24 0
-637 166 25 0
-637 -166 -25 0
637 -166 25 0
637 166 -25 0
-638 167 26 0
-638 -167 -26 0
638 -167 26 0
638 167 -26 0
-639 168 27 0
-639 -168 -27 0
639 -168 27 0
639 168 -27 0
631 632 633 634 635 636 637 638 639 0
-640 160 28 0
-640 -160 -28 0
640 -160 28 0
640 160 -28 0
-641 161 29 0
-641 -161 -29 0
641 -161 29 0
641 161 -29 0
-642 162 30 0
-642 -162 -30 0
642 -162 30 0
642 162 -30 0
-643 163 31 0
-643 -163 -31 0
643 -163 31 0
643 163 -31 0
-644 164 32 0
-644 -164 -32 0
644 -164 32 0
644 164 -32 0
-645 165 33 0
-645 -165 -33 0
645 -165 33 0
645 165 -33 0
-646 166 34 0
-646 -166 -34 0
646 -166 34 0
646 166 -34 0
-647 167 35 0
-647 -167 -35 0
647 -167 35 0
647 167 -35 0
-648 168 36 0
-648 -168 -36 0
648 -168 36 0
648 168 -36 0
640 641 642 643 644 645 646 647 648 0
-649 160 37 0
-649 -160 -37 0
649 -160 37 0
649 160 -37 0
-650 161 38 0
-650 -161 -38 0
650 -161 38 0
650 161 -38 0
-651 162 39 0
-651 -162 -39 0
651 -162 39 0
651 162 -39 0
-652 163 40 0
-652 -163 -40 0
652 -163 40 0
652 163 -40 0
-653 164 41 0
-653 -164 -41 0
653 -164 41 0
653 164 -41 0
-654 165 42 0
-654 -165 -42 0
654 -165 42 0
654 165 -42 0
-655 166 43 0
-655 -166 -43 0
655 -166 43 0
655 166 -43 0
-656 167 44 0
-656 -167 -44 0
656 -167 44 0
656 167 -44 0
-657 168 45 0
-657 -168 -45 0
657 -168 45 0
657 168 -45 0
649 650 651 652 653 654 655 656 657 0
-658 160 46 0
-658 -160 -46 0
658 -160 46 0
658 160 -46 0
-659 161 47 0
-659 -161 -47 0
659 -161 47 0
659 161 -47 0
-660 162 48 0
-660 -162 -48 0
660 -162 48 0
660 162 -48 0
-661 163 49 0
-661 -163 -49 0
661 -163 49 0
661 163 -49 0
-662 164 50 0
-662 -164 -50 0
662 -164 50 0
662 164 -50 0
-663 165 51 0
-663 -165 -51 0
663 -165 51 0
663 165 -51 0
-664 166 52 0
-664 -166 -52 0
664 -166 52 0
664 166 -52 0
-665 167 53 0
-665 -167 -53 0
665 -167 53 0
665 167 -53 0
-666 168 54 0
-666 -168 -54 0
666 -168 54 0
666 168 -54 0
658 659 660 661 662 663 664 665 666 0
-667 160 55 0
-667 -160 -55 0
667 -160 55 0
667 160 -55 0
-668 161 56 0
-668 -161 -56 0
668 -161 56 0
668 161 -56 0
-669 162 57 0
-669 -162 -57 0
669 -162 57 0
669 162 -57 0
-670 163 58 0
-670 -163 -58 0
670 -163 58 0
670 163 -58 0
-671 164 59 0
-671 -164 -59 0
671 -164 59 0
671 164 -59 0
-672 165 60 0
-672 -165 -60 0
672 -165 60 0
672 165 -60 0
-673 166 61 0
-673 -166 -61 0
673 -166 61 0
673 166 -61 0
-674 167 62 0
-674 -167 -62 0
674 -167 62 0
674 167 -62 0
-675 168 63 0
-675 -168 -63 0
675 -168 63 0
675 168 -63 0
667 668 669 670 671 672 673 674 675 0
-676 160 64 0
-676 -160 -64 0
676 -160 64 0
676 160 -64 0
-677 161 65 0
-677 -161 -65 0
677 -161 65 0
677 161 -65 0
-678 162 66 0
-678 -162 -66 0
678 -162 66 0
678 162 -66 0
-679 163 67 0
-679 -163 -67 0
679 -163 67 0
679 163 -67 0
-680 164 68 0
-680 -164 -68 0
680 -164 68 0
680 164 -68 0
-681 165 69 0
-681 -165 -69 0
681 -165 69 0
681 165 -69 0
-682 166 70 0
-682 -166 -70 0
682 -166 70 0
682 166 -70 0
-683 167 71 0
-683 -167 -71 0
683 -167 71 0
683 167 -71 0
-684 168 72 0
-684 -168 -72 0
684 -168 72 0
684 168 -72 0
676 677 678 679 680 681 682 683 684 0
-685 160 73 0
-685 -160 -73 0
685 -160 73 0
685 160 -73 0
-686 161 74 0
-686 -161 -74 0
686 -161 74 0
686 161 -74 0
-687 162 75 0
-687 -162 -75 0
687 -162 75 0
687 162 -75 0
-688 163 76 0
-688 -163 -76 0
688 -163 76 0
688 163 -76 0
-689 164 77 0
-689 -164 -77 0
689 -164 77 0
689 164 -77 0
-690 165 78 0
-690 -165 -78 0
690 -165 78 0
690 165 -78 0
-691 166 79 0
-691 -166 -79 0
691 -166 79 0
691 166 -79 0
-692 167 80 0
-692 -167 -80 0
692 -167 80 0
692 167 -80 0
-693 168 81 0
-693 -168 -81 0
693 -168 81 0
693 168 -81 0
685 686 687 688 689 690 691 692 693 0
-694 160 100 0
-694 -160 -100 0
694 -160 100 0
694 160 -100 0
-695 161 101 0
-695 -161 -101 0
695 -161 101 0
695 161 -101 0
-696 162 102 0
-696 -162 -102 0
696 -162 102 0
696 162 -102 0
-697 163 103 0
-697 -163 -103 0
697 -163 103 0
697 163 -103 0
-698 164 104 0
-698 -164 -104 0
698 -164 104 0
698 164 -104 0
-699 165 105 0
-699 -165 -105 0
699 -165 105 0
699 165 -105 0
-700 166 106 0
-700 -166 -106 0
700 -166 106 0
700 166 -106 0
-701 167 107 0
-701 -167 -107 0
701 -167 107 0
701 167 -107 0
-702 168 108 0
-702 -168 -108 0
702 -168 108 0
702 168 -108 0
694 695 696 697 698 699 700 701 702 0
-703 160 129 0
-703 -160 -129 0
703 -160 129 0
703 160 -129 0
-704 161 130 0
-704 -161 -130 0
704 -161 130 0
704 161 -130 0
-705 162 131 0
-705 -162 -131 0
705 -162 131 0
705 162 -131 0
-706 163 132 0
-706 -163 -132 0
706 -163 132 0
706 163 -132 0
-707 164 133 0
-707 -164 -133 0
707 -164 133 0
707 164 -133 0
-708 165 134 0
-708 -165 -134 0
708 -165 134 0
708 165 -134 0
-709 166 135 0
-709 -166 -135 0
709 -166 135 0
709 166 -135 0
-710 167 136 0
-710 -167 -136 0
710 -167 136 0
710 167 -136 0
-711 168 137 0
-711 -168 -137 0
711 -168 137 0
711 168 -137 0
703 704 705 706 707 708 709 710 711 0
-712 193 1 0
-712 -193 -1 0
712 -193 1 0
712 193 -1 0
-713 194 2 0
-713 -194 -2 0
713 -194 2 0
713 194 -2 0
-714 195 3 0
-714 -195 -3 0
714 -195 3 0
714 195 -3 0
-715 196 4 0
-715 -196 -4 0
715 -196 4 0
715 196 -4 0
-716 197 5 0
-716 -197 -5 0
716 -197 5 0
716 197 -5 0
-717 198 6 0
-717 -198 -6 0
717 -198 6 0
717 198 -6 0
-718 199 7 0
-718 -199 -7 0
718 -199 7 0
718 199 -7 0
-719 200 8 0
-719 -200 -8 0
719 -200 8 0
719 200 -8 0
-720 201 9 0
-720 -201 -9 0
720 -201 9 0
720 201 -9 0
712 713 714 715 716 717 718 719 720 0
-721 193 10 0
-721 -193 -10 0
721 -193 10 0
721 193 -10 0
-722 194 11 0
-722 -194 -11 0
722 -194 11 0
722 194 -11 0
-723 195 12 0
-723 -195 -12 0
723 -195 12 0
723 195 -12 0
-724 196 13 0
-724 -196 -13 0
724 -196 13 0
724 196 -13 0
-725 197 14 0
-725 -197 -14 0
725 -197 14 0
725 197 -14 0
-726 198 15 0
-726 -198 -15 0
726 -198 15 0
726 198 -15 0
-727 199 16 0
-727 -199 -16 0
727 -199 16 0
727 199 -16 0
-728 200 17 0
-728 -200 -17 0
728 -200 17 0
728 200 -17 0
-729 201 18 0
-729 -201 -18 0
729 -201 18 0
729 201 -18 0
721 722 723 724 725 726 727 728 729 0
-730 193 19 0
-730 -193 -19 0
730 -193 19 0
730 193 -19 0
-731 194 20 0
-731 -194 -20 0
731 -194 20 0
731 194 -20 0
-732 195 21 0
-732 -195 -21 0
732 -195 21 0
732 195 -21 0
-733 196 22 0
-733 -196 -22 0
733 -196 22 0
733 196 -22 0
-734 197 23 0
-734 -197 -23 0
734 -197 23 0
734 197 -23 0
-735 198 24 0
-735 -198 -24 0
735 -198 24 0
735 198 -24 0
-736 199 25 0
-736 -199 -25 0
736 -199 25 0
736 199 -25 0
-737 200 26 0
-737 -200 -26 0
737 -200 26 0
737 200 -26 0
-738 201 27 0
-738 -201 -27 0
738 -201 27 0
738 201 -27 0
730 731 732 733 734 735 736 737 738 0
-739 193 28 0
-739 -193 -28 0
739 -193 28 0
739 193 -28 0
-740 194 29 0
-740 -194 -29 0
740 -194 29 0
740 194 -29 0
-741 195 30 0
-741 -195 -30 0
741 -195 30 0
741 195 -30 0
-742 196 31 0
-742 -196 -31 0
742 -196 31 0
742 196 -31 0
-743 197 32 0
-743 -197 -32 0
743 -197 32 0
743 197 -32 0
-744 198 33 0
-744 -198 -33 0
744 -198 33 0
744 198 -33 0
-745 199 34 0
-745 -199 -34 0
745 -199 34 0
745 199 -34 0
-746 200 35 0
-746 -200 -35 0
746 -200 35 0
746 200 -35 0
-747 201 36 0
-747 -201 -36 0
747 -201 36 0
747 201 -36 0
739 740 741 742 743 744 745 746 747 0
-748 193 37 0
-748 -193 -37 0
748 -193 37 0
748 193 -37 0
-749 194 38 0
-749 -194 -38 0
749 -194 38 0
749 194 -38 0
-750 195 39 0
-750 -195 -39 0
750 -195 39 0
750 195 -39 0
-751 196 40 0
-751 -196 -40 0
751 -196 40 0
751 196 -40 0
-752 197 41 0
-752 -197 -41 0
752 -197 41 0
752 197 -41 0
-753 198 42 0
-753 -198 -42 0
753 -198 42 0
753 198 -42 0
-754 199 43 0
-754 -199 -43 0
754 -199 43 0
754 199 -43 0
-755 200 44 0
-755 -200 -44 0
755 -200 44 0
755 200 -44 0
-756 201 45 0
-756 -201 -45 0
756 -201 45 0
756 201 -45 0
748 749 750 751 752 753 754 755 756 0
-757 193 46 0
-757 -193 -46 0
757 -193 46 0
757 193 -46 0
-758 194 47 0
-758 -194 -47 0
758 -194 47 0
758 194 -47 0
-759 195 48 0
-759 -195 -48 0
759 -195 48 0
759 195 -48 0
-760 196 49 0
-760 -196 -49 0
760 -196 49 0
760 196 -49 0
-761 197 50 0
-761 -197 -50 0
761 -197 50 0
761 197 -50 0
-762 198 51 0
-762 -198 -51 0
762 -198 51 0
762 198 -51 0
-763 199 52 0
-763 -199 -52 0
763 -199 52 0
763 199 -52 0
-764 200 53 0
-764 -200 -53 0
764 -200 53 0
764 200 -53 0
-765 201 54 0
-765 -201 -54 0
765 -201 54 0
765 201 -54 0
757 758 759 760 761 762 763 764 765 0
-766 193 55 0
-766 -193 -55 0
766 -193 55 0
766 193 -55 0
-767 194 56 0
-767 -194 -56 0
767 -194 56 0
767 194 -56 0
-768 195 57 0
-768 -195 -57 0
768 -195 57 0
768 195 -57 0
-769 196 58 0
-769 -196 -58 0
769 -196 58 0
769 196 -58 0
-770 197 59 0
-770 -197 -59 0
770 -197 59 0
770 197 -59 0
-771 198 60 0
-771 -198 -60 0
771 -198 60 0
771 198 -60 0
-772 199 61 0
-772 -199 -61 0
772 -199 61 0
772 199 -61 0
-773 200 62 0
-773 -200 -62 0
773 -200 62 0
773 200 -62 0
-774 201 63 0
-774 -201 -63 0
774 -201 63 0
774 201 -63 0
766 767 768 769 770 771 772 773 774 0
-775 193 64 0
-775 -193 -64 0
775 -193 64 0
775 193 -64 0
-776 194 65 0
-776 -194 -65 0
776 -194 65 0
776 194 -65 0
-777 195 66 0
-777 -195 -66 0
777 -195 66 0
777 195 -66 0
-778 196 67 0
-778 -196 -67 0
778 -196 67 0
778 196 -67 0
-779 197 68 0
-779 -197 -68 0
779 -197 68 0
779 197 -68 0
-780 198 69 0
-780 -198 -69 0
780 -198 69 0
780 198 -69 0
-781 199 70 0
-781 -199 -70 0
781 -199 70 0
781 199 -70 0
-782 200 71 0
-782 -200 -71 0
782 -200 71 0
782 200 -71 0
-783 201 72 0
-783 -201 -72 0
783 -201 72 0
783 201 -72 0
775 776 777 778 779 780 781 782 783 0
-784 193 73 0
-784 -193 -73 0
784 -193 73 0
784 193 -73 0
-785 194 74 0
-785 -194 -74 0
785 -194 74 0
785 194 -74 0
-786 195 75 0
-786 -195 -75 0
786 -195 75 0
786 195 -75 0
-787 196 76 0
-787 -196 -76 0
787 -196 76 0
787 196 -76 0
-788 197 77 0
-788 -197 -77 0
788 -197 77 0
788 197 -77 0
-789 198 78 0
-789 -198 -78 0
789 -198 78 0
789 198 -78 0
-790 199 79 0
-790 -199 -79 0
790 -199 79 0
790 199 -79 0
-791 200 80 0
-791 -200 -80 0
791 -200 80 0
791 200 -80 0
-792 201 81 0
-792 -201 -81 0
792 -201 81 0
792 201 -81 0
784 785 786 787 788 789 790 791 792 0
-793 193 100 0
-793 -193 -100 0
793 -193 100 0
793 193 -100 0
-794 194 101 0
-794 -194 -101 0
794 -194 101 0
794 194 -101 0
-795 195 102 0
-795 -195 -102 0
795 -195 102 0
795 195 -102 0
-796 196 103 0
-796 -196 -103 0
796 -196 103 0
796 196 -103 0
-797 197 104 0
-797 -197 -104 0
797 -197 104 0
797 197 -104 0
-798 198 105 0
-798 -198 -105 0
798 -198 105 0
798 198 -105 0
-799 199 106 0
-799 -199 -106 0
799 -199 106 0
799 199 -106 0
-800 200 107 0
-800 -200 -107 0
800 -200 107 0
800 200 -107 0
-801 201 108 0
-801 -201 -108 0
801 -201 108 0
801 201 -108 0
793 794 795 796 797 798 799 800 801 0
-802 193 129 0
-802 -193 -129 0
802 -193 129 0
802 193 -129 0
-803 194 130 0
-803 -194 -130 0
803 -194 130 0
803 194 -130 0
-804 195 131 0
-804 -195 -131 0
804 -195 131 0
804 195 -131 0
-805 196 132 0
-805 -196 -132 0
805 -196 132 0
805 196 -132 0
-806 197 133 0
-806 -197 -133 0
806 -197 133 0
806 197 -133 0
-807 198 134 0
-807 -198 -134 0
807 -198 134 0
807 198 -134 0
-808 199 135 0
-808 -199 -135 0
808 -199 135 0
808 199 -135 0
-809 200 136 0
-809 -200 -136 0
809 -200 136 0
809 200 -136 0
-810 201 137 0
-810 -201 -137 0
810 -201 137 0
810 201 -137 0
802 803 804 805 806 807 808 809 810 0
-811 193 160 0
-811 -193 -160 0
811 -193 160 0
811 193 -160 0
-812 194 161 0
-812 -194 -161 0
812 -194 161 0
812 194 -161 0
-813 195 162 0
-813 -195 -162 0
813 -195 162 0
813 195 -162 0
-814 196 163 0
-814 -196 -163 0
814 -196 163 0
814 196 -163 0
-815 197 164 0
-815 -197 -164 0
815 -197 164 0
815 197 -164 0
-816 198 165 0
-816 -198 -165 0
816 -198 165 0
816 198 -165 0
-817 199 166 0
-817 -199 -166 0
817 -199 166 0
817 199 -166 0
-818 200 167 0
-818 -200 -167 0
818 -200 167 0
818 200 -167 0
-819 201 168 0
-819 -201 -168 0
819 -201 168 0
819 201 -168 0
811 812 813 814 815 816 817 818 819 0
-820 228 1 0
-820 -228 -1 0
820 -228 1 0
820 228 -1 0
-821 229 2 0
-821 -229 -2 0
821 -229 2 0
821 229 -2 0
-822 230 3 0
-822 -230 -3 0
822 -230 3 0
822 230 -3 0
-823 231 4 0
-823 -231 -4 0
823 -231 4 0
823 231 -4 0
-824 232 5 0
-824 -232 -5 0
824 -232 5 0
824 232 -5 0
-825 233 6 0
-825 -233 -6 0
825 -233 6 0
825 233 -6 0
-826 234 7 0
-826 -234 -7 0
826 -234 7 0
826 234 -7 0
-827 235 8 0
-827 -235 -8 0
827 -235 8 0
827 235 -8 0
-828 236 9 0
-828 -236 -9 0
828 -236 9 0
828 236 -9 0
820 821 822 823 824 825 826 827 828 0
-829 228 10 0
-829 -228 -10 0
829 -228 10 0
829 228 -10 0
-830 229 11 0
-830 -229 -11 0
830 -229 11 0
830 229 -11 0
-831 230 12 0
-831 -230 -12 0
831 -230 12 0
831 230 -12 0
-832 231 13 0
-832 -231 -13 0
832 -231 13 0
832 231 -13 0
-833 232 14 0
-833 -232 -14 0
833 -232 14 0
833 232 -14 0
-834 233 15 0
-834 -233 -15 0
834 -233 15 0
834 233 -15 0
-835 234 16 0
-835 -234 -16 0
835 -234 16 0
835 234 -16 0
-836 235 17 0
-836 -235 -17 0
836 -235 17 0
836 235 -17 0
-837 236 18 0
-837 -236 -18 0
837 -236 18 0
837 236 -18 0
829 830 831 832 833 834 835 836 837 0
-838 228 19 0
-838 -228 -19 0
838 -228 19 0
838 228 -19 0
-839 229 20 0
-839 -229 -20 0
839 -229 20 0
839 229 -20 0
-840 230 21 0
-840 -230 -21 0
840 -230 21 0
840 230 -21 0
-841 231 22 0
-841 -231 -22 0
841 -231 22 0
841 231 -22 0
-842 232 23 0
-842 -232 -23 0
842 -232 23 0
842 232 -23 0
-843 233 24 0
-843 -233 -24 0
843 -233 24 0
843 233 -24 0
-844 234 25 0
-844 -234 -25 0
844 -234 25 0
844 234 -25 0
-845 235 26 0
-845 -235 -26 0
845 -235 26 0
845 235 -26 0
-846 236 27 0
-846 -236 -27 0
846 -236 27 0
846 236 -27 0
838 839 840 841 842 843 844 845 846 0
-847 228 28 0
-847 -228 -28 0
847 -228 28 0
847 228 -28 0
-848 229 29 0
-848 -229 -29 0
848 -229 29 0
848 229 -29 0
-849 230 30 0
-849 -230 -30 0
849 -230 30 0
849 230 -30 0
-850 231 31 0
-850 -231 -31 0
850 -231 31 0
850 231 -31 0
-851 232 32 0
-851 -232 -32 0
851 -232 32 0
851 232 -32 0
-852 233 33 0
-852 -233 -33 0
852 -233 33 0
852 233 -33 0
-853 234 34 0
-853 -234 -34 0
853 -234 34 0
853 234 -34 0
-854 235 35 0
-854 -235 -35 0
854 -235 35 0
854 235 -35 0
-855 236 36 0
-855 -236 -36 0
855 -236 36 0
855 236 -36 0
847 848 849 850 851 852 853 854 855 0
-856 228 37 0
-856 -228 -37 0
856 -228 37 0
856 228 -37 0
-857 229 38 0
-857 -229 -38 0
857 -229 38 0
857 229 -38 0
-858 230 39 0
-858 -230 -39 0
858 -230 39 0
858 230 -39 0
-859 231 40 0
-859 -231 -40 0
859 -231 40 0
859 231 -40 0
-860 232 41 0
-860 -232 -41 0
860 -232 41 0
860 232 -41 0
-861 233 42 0
-861 -233 -42 0
861 -233 42 0
861 233 -42 0
-862 234 43 0
-862 -234 -43 0
862 -234 43 0
862 234 -43 0
-863 235 44 0
-863 -235 -44 0
863 -235 44 0
863 235 -44 0
-864 236 45 0
-864 -236 -45 0
864 -236 45 0
864 236 -45 0
856 857 858 859 860 861 862 863 864 0
-865 228 46 0
-865 -228 -46 0
865 -228 46 0
865 228 -46 0
-866 229 47 0
-866 -229 -47 0
866 -229 47 0
866 229 -47 0
-867 230 48 0
-867 -230 -48 0
867 -230 48 0
867 230 -48 0
-868 231 49 0
-868 -231 -49 0
868 -231 49 0
868 231 -49 0
-869 232 50 0
-869 -232 -50 0
869 -232 50 0
869 232 -50 0
-870 233 51 0
-870 -233 -51 0
870 -233 51 0
870 233 -51 0
-871 234 52 0
-871 -234 -52 0
871 -234 52 0
871 234 -52 0
-872 235 53 0
-872 -235 -53 0
872 -235 53 0
872 235 -53 0
-873 236 54 0
-873 -236 -54 0
873 -236 54 0
873 236 -54 0
865 866 867 868 869 870 871 872 873 0
-874 228 55 0
-874 -228 -55 0
874 -228 55 0
874 228 -55 0
-875 229 56 0
-875 -229 -56 0
875 -229 56 0
875 229 -56 0
-876 230 57 0
-876 -230 -57 0
876 -230 57 0
876 230 -57 0
-877 231 58 0
-877 -231 -58 0
877 -231 58 0
877 231 -58 0
-878 232 59 0
-878 -232 -59 0
878 -232 59 0
878 232 -59 0
-879 233 60 0
-879 -233 -60 0
879 -233 60 0
879 233 -60 0
-880 234 61 0
-880 -234 -61 0
880 -234 61 0
880 234 -61 0
-881 235 62 0
-881 -235 -62 0
881 -235 62 0
881 235 -62 0
-882 236 63 0
-882 -236 -63 0
882 -236 63 0
882 236 -63 0
874 875 876 877 878 879 880 881 882 0
-883 228 64 0
-883 -228 -64 0
883 -228 64 0
883 228 -64 0
-884 229 65 0
-884 -229 -65 0
884 -229 65 0
884 229 -65 0
-885 230 66 0
-885 -230 -66 0
885 -230 66 0
885 230 -66 0
-886 231 67 0
-886 -231 -67 0
886 -231 67 0
886 231 -67 0
-887 232 68 0
-887 -232 -68 0
887 -232 68 0
887 232 -68 0
-888 233 69 0
-888 -233 -69 0
888 -233 69 0
888 233 -69 0
-889 234 70 0
-889 -234 -70 0
889 -234 70 0
889 234 -70 0
-890 235 71 0
-890 -235 -71 0
890 -235 71 0
890 235 -71 0
-891 236 72 0
-891 -236 -72 0
891 -236 72 0
891 236 -72 0
883 884 885 886 887 888 889 890 891 0
-892 228 73 0
-892 -228 -73 0
892 -228 73 0
892 228 -73 0
-893 229 74 0
-893 -229 -74 0
893 -229 74 0
893 229 -74 0
-894 230 75 0
-894 -230 -75 0
894 -230 75 0
894 230 -75 0
-895 231 76 0
-895 -231 -76 0
895 -231 76 0
895 231 -76 0
-896 232 77 0
-896 -232 -77 0
896 -232 77 0
896 232 -77 0
-897 233 78 0
-897 -233 -78 0
897 -233 78 0
897 233 -78 0
-898 234 79 0
-898 -234 -79 0
898 -234 79 0
898 234 -79 0
-899 235 80 0
-899 -235 -80 0
899 -235 80 0
899 235 -80 0
-900 236 81 0
-900 -236 -81 0
900 -236 81 0
900 236 -81 0
892 893 894 895 896 897 898 899 900 0
-901 228 100 0
-901 -228 -100 0
901 -228 100 0
901 228 -100 0
-902 229 101 0
-902 -229 -101 0
902 -229 101 0
902 229 -101 0
-903 230 102 0
-903 -230 -102 0
903 -230 102 0
903 230 -102 0
-904 231 103 0
-904 -231 -103 0
904 -231 103 0
904 231 -103 0
-905 232 104 0
-905 -232 -104 0
905 -232 104 0
905 232 -104 0
-906 233 105 0
-906 -233 -105 0
906 -233 105 0
906 233 -105 0
-907 234 106 0
-907 -234 -106 0
907 -234 106 0
907 234 -106 0
-908 235 107 0
-908 -235 -107 0
908 -235 107 0
908 235 -107 0
-909 236 108 0
-909 -236 -108 0
909 -236 108 0
909 236 -108 0
901 902 903 904 905 906 907 908 909 0
-910 228 129 0
-910 -228 -129 0
910 -228 129 0
910 228 -129 0
-911 229 130 0
-911 -229 -130 0
911 -229 130 0
911 229 -130 0
-912 230 131 0
-912 -230 -131 0
912 -230 131 0
912 230 -131 0
-913 231 132 0
-913 -231 -132 0
913 -231 132 0
913 231 -132 0
-914 232 133 0
-914 -232 -133 0
914 -232 133 0
914 232 -133 0
-915 233 134 0
-915 -233 -134 0
915 -233 134 0
915 233 -134 0
-916 234 135 0
-916 -234 -135 0
916 -234 135 0
916 234 -135 0
-917 235 136 0
-917 -235 -136 0
917 -235 136 0
917 235 -136 0
-918 236 137 0
-918 -236 -137 0
918 -236 137 0
918 236 -137 0
910 911 912 913 914 915 916 917 918 0
-919 228 160 0
-919 -228 -160 0
919 -228 160 0
919 228 -160 0
-920 229 161 0
-920 -229 -161 0
920 -229 161 0
920 229 -161 0
-921 230 162 0
-921 -230 -162 0
921 -230 162 0
921 230 -162 0
-922 231 163 0
-922 -231 -163 0
922 -231 163 0
922 231 -163 0
-923 232 164 0
-923 -232 -164 0
923 -232 164 0
923 232 -164 0
-924 233 165 0
-924 -233 -165 0
924 -233 165 0
924 233 -165 0
-925 234 166 0
-925 -234 -166 0
925 -234 166 0
925 234 -166 0
-926 235 167 0
-926 -235 -167 0
926 -235 167 0
926 235 -167 0
-927 236 168 0
-927 -236 -168 0
927 -236 168 0
927 236 -168 0
919 920 921 922 923 924 925 926 927 0
-928 228 193 0
-928 -228 -193 0
928 -228 193 0
928 228 -193 0
-929 229 194 0
-929 -229 -194 0
929 -229 194 0
929 229 -194 0
-930 230 195 0
-930 -230 -195 0
930 -230 195 0
930 230 -195 0
-931 231 196 0
-931 -231 -196 0
931 -231 196 0
931 231 -196 0
-932 232 197 0
-932 -232 -197 0
932 -232 197 0
932 232 -197 0
-933 233 198 0
-933 -233 -198 0
933 -233 198 0
933 233 -198 0
-934 234 199 0
-934 -234 -199 0
934 -234 199 0
934 234 -199 0
-935 235 200 0
-935 -235 -200 0
935 -235 200 0
935 235 -200 0
-936 236 201 0
-936 -236 -201 0
936 -236 201 0
936 236 -201 0
928 929 930 931 932 933 934 935 936 0
-937 265 1 0
-937 -265 -1 0
937 -265 1 0
937 265 -1 0
-938 266 2 0
-938 -266 -2 0
938 -266 2 0
938 266 -2 0
-939 267 3 0
-939 -267 -3 0
939 -267 3 0
939 267 -3 0
-940 268 4 0
-940 -268 -4 0
940 -268 4 0
940 268 -4 0
-941 269 5 0
-941 -269 -5 0
941 -269 5 0
941 269 -5 0
-942 270 6 0
-942 -270 -6 0
942 -270 6 0
942 270 -6 0
-943 271 7 0
-943 -271 -7 0
943 -271 7 0
943 271 -7 0
-944 272 8 0
-944 -272 -8 0
944 -272 8 0
944 272 -8 0
-945 273 9 0
-945 -273 -9 0
945 -273 9 0
945 273 -9 0
937 938 939 940 941 942 943 944 945 0
-946 265 10 0
-946 -265 -10 0
946 -265 10 0
946 265 -10 0
-947 266 11 0
-947 -266 -11 0
947 -266 11 0
947 266 -11 0
-948 267 12 0
-948 -267 -12 0
948 -267 12 0
948 267 -12 0
-949 268 13 0
-949 -268 -13 0
949 -268 13 0
949 268 -13 0
-950 269 14 0
-950 -269 -14 0
950 -269 14 0
950 269 -14 0
-951 270 15 0
-951 -270 -15 0
951 -270 15 0
951 270 -15 0
-952 271 16 0
-952 -271 -16 0
952 -271 16 0
952 271 -16 0
-953 272 17 0
-953 -272 -17 0
953 -272 17 0
953 272 -17 0
-954 273 18 0
-954 -273 -18 0
954 -273 18 0
954 273 -18 0
946 947 948 949 950 951 952 953 954 0
-955 265 19 0
-955 -265 -19 0
955 -265 19 0
955 265 -19 0
-956 266 20 0
-956 -266 -20 0
956 -266 20 0
956 266 -20 0
-957 267 21 0
-957 -267 -21 0
957 -267 21 0
957 267 -21 0
-958 268 22 0
-958 -268 -22 0
958 -268 22 0
958 268 -22 0
-959 269 23 0
-959 -269 -23 0
959 -269 23 0
959 269 -23 0
-960 270 24 0
-960 -270 -24 0
960 -270 24 0
960 270 -24 0
-961 271 25 0
-961 -271 -25 0
961 -271 25 0
961 271 -25 0
-962 272 26 0
-962 -272 -26 0
962 -272 26 0
962 272 -26 0
-963 273 27 0
-963 -273 -27 0
963 -273 27 0
963 273 -27 0
955 956 957 958 959 960 961 962 963 0
-964 265 28 0
-964 -265 -28 0
964 -265 28 0
964 265 -28 0
-965 266 29 0
-965 -266 -29 0
965 -266 29 0
965 266 -29 0
-966 267 30 0
-966 -267 -30 0
966 -267 30 0
966 267 -30 0
-967 268 31 0
-967 -268 -31 0
967 -268 31 0
967 268 -31 0
-968 269 32 0
-968 -269 -32 0
968 -269 32 0
968 269 -32 0
-969 270 33 0
-969 -270 -33 0
969 -270 33 0
969 270 -33 0
-970 271 34 0
-970 -271 -34 0
970 -271 34 0
970 271 -34 0
-971 272 35 0
-971 -272 -35 0
971 -272 35 0
971 272 -35 0
-972 273 36 0
-972 -273 -36 0
972 -273 36 0
972 273 -36 0
964 965 966 967 968 969 970 971 972 0
-973 265 37 0
-973 -265 -37 0
973 -265 37 0
973 265 -37 0
-974 266 38 0
-974 -266 -38 0
974 -266 38 0
974 266 -38 0
-975 267 39 0
-975 -267 -39 0
975 -267 39 0
975 267 -39 0
-976 268 40 0
-976 -268 -40 0
976 -268 40 0
976 268 -40 0
-977 269 41 0
-977 -269 -41 0
977 -269 41 0
977 269 -41 0
-978 270 42 0
-978 -270 -42 0
978 -270 42 0
978 270 -42 0
-979 271 43 0
-979 -271 -43 0
979 -271 43 0
979 271 -43 0
-980 272 44 0
-980 -272 -44 0
980 -272 44 0
980 272 -44 0
-981 273 45 0
-981 -273 -45 0
981 -273 45 0
981 273 -45 0
973 974 975 976 977 978 979 980 981 0
-982 265 46 0
-982 -265 -46 0
982 -265 46 0
982 265 -46 0
-983 266 47 0
-983 -266 -47 0
983 -266 47 0
983 266 -47 0
-984 267 48 0
-984 -267 -48 0
984 -267 48 0
984 267 -48 0
-985 268 49 0
-985 -268 -49 0
985 -268 49 0
985 268 -49 0
-986 269 50 0
-986 -269 -50 0
986 -269 50 0
986 269 -50 0
-987 270 51 0
-987 -270 -51 0
987 -270 51 0
987 270 -51 0
-988 271 52 0
-988 -271 -52 0
988 -271 52 0
988 271 -52 0
-989 272 53 0
-989 -272 -53 0
989 -272 53 0
989 272 -53 0
-990 273 54 0
-990 -273 -54 0
990 -273 54 0
990 273 -54 0
982 983 984 985 986 987 988 989 990 0
-991 265 55 0
-991 -265 -55 0
991 -265 55 0
991 265 -55 0
-992 266 56 0
-992 -266 -56 0
992 -266 56 0
992 266 -56 0
-993 267 57 0
-993 -267 -57 0
993 -267 57 0
993 267 -57 0
-994 268 58 0
-994 -268 -58 0
994 -268 58 0
994 268 -58 0
-995 269 59 0
-995 -269 -59 0
995 -269 59 0
995 269 -59 0
-996 270 60 0
-996 -270 -60 0
996 -270 60 0
996 270 -60 0
-997 271 61 0
-997 -271 -61 0
997 -271 61 0
997 271 -61 0
-998 272 62 0
-998 -272 -62 0
998 -272 62 0
998 272 -62 0
-999 273 63 0
-999 -273 -63 0
999 -273 63 0
999 273 -63 0
991 992 993 994 995 996 997 998 999 0
-1000 265 64 0
-1000 -265 -64 0
1000 -265 64 0
1000 265 -64 0
-1001 266 65 0
-1001 -266 -65 0
1001 -266 65 0
1001 266 -65 0
-1002 267 66 0
-1002 -267 -66 0
1002 -267 66 0
1002 267 -66 0
-1003 268 67 0
-1003 -268 -67 0
1003 -268 67 0
1003 268 -67 0
-1004 269 68 0
-1004 -269 -68 0
1004 -269 68 0
1004 269 -68 0
-1005 270 69 0
-1005 -270 -69 0
1005 -270 69 0
1005 270 -69 0
-1006 271 70 0
-1006 -271 -70 0
1006 -271 70 0
1006 271 -70 0
-1007 272 71 0
-1007 -272 -71 0
1007 -272 71 0
1007 272 -71 0
-1008 273 72 0
-1008 -273 -72 0
1008 -273 72 0
1008 273 -72 0
1000 1001 1002 1003 1004 1005 1006 1007 1008 0
-1009 265 73 0
-1009 -265 -73 0
1009 -265 73 0
1009 265 -73 0
-1010 266 74 0
-1010 -266 -74 0
1010 -266 74 0
1010 266 -74 0
-1011 267 75 0
-1011 -267 -75 0
1011 -267 75 0
1011 267 -75 0
-1012 268 76 0
-1012 -268 -76 0
1012 -268 76 0
1012 268 -76 0
-1013 269 77 0
-1013 -269 -77 0
1013 -269 77 0
1013 269 -77 0
-1014 270 78 0
-1014 -270 -78 0
1014 -270 78 0
1014 270 -78 0
-1015 271 79 0
-1015 -271 -79 0
1015 -271 79 0
1015 271 -79 0
-1016 272 80 0
-1016 -272 -80 0
1016 -272 80 0
1016 272 -80 0
-1017 273 81 0
-1017 -273 -81 0
1017 -273 81 0
1017 273 -81 0
1009 1010 1011 1012 1013 1014 1015 1016 1017 0
-1018 265 100 0
-1018 -265 -100 0
1018 -265 100 0
1018 265 -100 0
-1019 266 101 0
-1019 -266 -101 0
1019 -266 101 0
1019 266 -101 0
-1020 267 102 0
-1020 -267 -102 0
1020 -267 102 0
1020 267 -102 0
-1021 268 103 0
-1021 -268 -103 0
1021 -268 103 0
1021 268 -103 0
-1022 269 104 0
-1022 -269 -104 0
1022 -269 104 0
1022 269 -104 0
-1023 270 105 0
-1023 -270 -105 0
1023 -270 105 0
1023 270 -105 0
-1024 271 106 0
-1024 -271 -106 0
1024 -271 106 0
1024 271 -106 0
-1025 272 107 0
-1025 -272 -107 0
1025 -272 107 0
1025 272 -107 0
-1026 273 108 0
-1026 -273 -108 0
1026 -273 108 0
1026 273 -108 0
1018 1019 1020 1021 1022 1023 1024 1025 1026 0
-1027 265 129 0
-1027 -265 -129 0
1027 -265 129 0
1027 265 -129 0
-1028 266 130 0
-1028 -266 -130 0
1028 -266 130 0
1028 266 -130 0
-1029 267 131 0
-1029 -267 -131 0
1029 -267 131 0
1029 267 -131 0
-1030 268 132 0
-1030 -268 -132 0
1030 -268 132 0
1030 268 -132 0
-1031 269 133 0
-1031 -269 -133 0
1031 -269 133 0
1031 269 -133 0
-1032 270 134 0
-1032 -270 -134 0
1032 -270 134 0
1032 270 -134 0
-1033 271 135 0
-1033 -271 -135 0
1033 -271 135 0
1033 271 -135 0
-1034 272 136 0
-1034 -272 -136 0
1034 -272 136 0
1034 272 -136 0
-1035 273 137 0
-1035 -273 -137 0
1035 -273 137 0
1035 273 -137 0
1027 1028 1029 1030 1031 1032 1033 1034 1035 0
-1036 265 160 0
-1036 -265 -160 0
1036 -265 160 0
1036 265 -160 0
-1037 266 161 0
-1037 -266 -161 0
1037 -266 161 0
1037 266 -161 0
-1038 267 162 0
-1038 -267 -162 0
1038 -267 162 0
1038 267 -162 0
-1039 268 163 0
-1039 -268 -163 0
1039 -268 163 0
1039 268 -163 0
-1040 269 164 0
-1040 -269 -164 0
1040 -269 164 0
1040 269 -164 0
-1041 270 165 0
-1041 -270 -165 0
1041 -270 165 0
1041 270 -165 0
-1042 271 166 0
-1042 -271 -166 0
1042 -271 166 0
1042 271 -166 0
-1043 272 167 0
-1043 -272 -167 0
1043 -272 167 0
1043 272 -167 0
-1044 273 168 0
-1044 -273 -168 0
1044 -273 168 0
1044 273 -168 0
1036 1037 1038 1039 1040 1041 1042 1043 1044 0
-1045 265 193 0
-1045 -265 -193 0
1045 -265 193 0
1045 265 -193 0
-1046 266 194 0
-1046 -266 -194 0
1046 -266 194 0
1046 266 -194 0
-1047 267 195 0
-1047 -267 -195 0
1047 -267 195 0
1047 267 -195 0
-1048 268 196 0
-1048 -268 -196 0
1048 -268 196 0
1048 268 -196 0
-1049 269 197 0
-1049 -269 -197 0
1049 -269 197 0
1049 269 -197 0
-1050 270 198 0
-1050 -270 -198 0
1050 -270 198 0
1050 270 -198 0
-1051 271 199 0
-1051 -271 -199 0
1051 -271 199 0
1051 271 -199 0
-1052 272 200 0
-1052 -272 -200 0
1052 -272 200 0
1052 272 -200 0
-1053 273 201 0
-1053 -273 -201 0
1053 -273 201 0
1053 273 -201 0
1045 1046 1047 1048 1049 1050 1051 1052 1053 0
-1054 265 228 0
-1054 -265 -228 0
1054 -265 228 0
1054 265 -228 0
-1055 266 229 0
-1055 -266 -229 0
1055 -266 229 0
1055 266 -229 0
-1056 267 230 0
-1056 -267 -230 0
1056 -267 230 0
1056 267 -230 0
-1057 268 231 0
-1057 -268 -231 0
1057 -268 231 0
1057 268 -231 0
-1058 269 232 0
-1058 -269 -232 0
1058 -269 232 0
1058 269 -232 0
-1059 270 233 0
-1059 -270 -233 0
1059 -270 233 0
1059 270 -233 0
-1060 271 234 0
-1060 -271 -234 0
1060 -271 234 0
1060 271 -234 0
-1061 272 235 0
-1061 -272 -235 0
1061 -272 235 0
1061 272 -235 0
-1062 273 236 0
-1062 -273 -236 0
1062 -273 236 0
1062 273 -236 0
1054 1055 1056 1057 1058 1059 1060 1061 1062 0
-1063 304 1 0
-1063 -304 -1 0
1063 -304 1 0
1063 304 -1 0
-1064 305 2 0
-1064 -305 -2 0
1064 -305 2 0
1064 305 -2 0
-1065 306 3 0
-1065 -306 -3 0
1065 -306 3 0
1065 306 -3 0
-1066 307 4 0
-1066 -307 -4 0
1066 -307 4 0
1066 307 -4 0
-1067 308 5 0
-1067 -308 -5 0
1067 -308 5 0
1067 308 -5 0
-1068 309 6 0
-1068 -309 -6 0
1068 -309 6 0
1068 309 -6 0
-1069 310 7 0
-1069 -310 -7 0
1069 -310 7 0
1069 310 -7 0
-1070 311 8 0
-1070 -311 -8 0
1070 -311 8 0
1070 311 -8 0
-1071 312 9 0
-1071 -312 -9 0
1071 -312 9 0
1071 312 -9 0
1063 1064 1065 1066 1067 1068 1069 1070 1071 0
-1072 304 10 0
-1072 -304 -10 0
1072 -304 10 0
1072 304 -10 0
-1073 305 11 0
-1073 -305 -11 0
1073 -305 11 0
1073 305 -11 0
-1074 306 12 0
-1074 -306 -12 0
1074 -306 12 0
1074 306 -12 0
-1075 307 13 0
-1075 -307 -13 0
1075 -307 13 0
1075 307 -13 0
-1076 308 14 0
-1076 -308 -14 0
1076 -308 14 0
1076 308 -14 0
-1077 309 15 0
-1077 -309 -15 0
1077 -309 15 0
1077 309 -15 0
-1078 310 16 0
-1078 -310 -16 0
1078 -310 16 0
1078 310 -16 0
-1079 311 17 0
-1079 -311 -17 0
1079 -311 17 0
1079 311 -17 0
-1080 312 18 0
-1080 -312 -18 0
1080 -312 18 0
1080 312 -18 0
1072 1073 1074 1075 1076 1077 1078 1079 1080 0
-1081 304 19 0
-1081 -304 -19 0
1081 -304 19 0
1081 304 -19 0
-1082 305 20 0
-1082 -305 -20 0
1082 -305 20 0
1082 305 -20 0
-1083 306 21 0
-1083 -306 -21 0
1083 -306 21 0
1083 306 -21 0
-1084 307 22 0
-1084 -307 -22 0
1084 -307 22 0
1084 307 -22 0
-1085 308 23 0
-1085 -308 -23 0
1085 -308 23 0
1085 308 -23 0
-1086 309 24 0
-1086 -309 -24 0
1086 -309 24 0
1086 309 -24 0
-1087 310 25 0
-1087 -310 -25 0
1087 -310 25 0
1087 310 -25 0
-1088 311 26 0
-1088 -311 -26 0
1088 -311 26 0
1088 311 -26 0
-1089 312 27 0
-1089 -312 -27 0
1089 -312 27 0
1089 312 -27 0
1081 1082 1083 1084 1085 1086 1087 1088 1089 0
-1090 304 28 0
-1090 -304 -28 0
1090 -304 28 0
1090 304 -28 0
-1091 305 29 0
-1091 -305 -29 0
1091 -305 29 0
1091 305 -29 0
-1092 306 30 0
-1092 -306 -30 0
1092 -306 30 0
1092 306 -30 0
-1093 307 31 0
-1093 -307 -31 0
1093 -307 31 0
1093 307 -31 0
-1094 308 32 0
-1094 -308 -32 0
1094 -308 32 0
1094 308 -32 0
-1095 309 33 0
-1095 -309 -33 0
1095 -309 33 0
1095 309 -33 0
-1096 310 34 0
-1096 -310 -34 0
1096 -310 34 0
1096 310 -34 0
-1097 311 35 0
-1097 -311 -35 0
1097 -311 35 0
1097 311 -35 0
-1098 312 36 0
-1098 -312 -36 0
1098 -312 36 0
1098 312 -36 0
1090 1091 1092 1093 1094 1095 1096 1097 1098 0
-1099 304 37 0
-1099 -304 -37 0
1099 -304 37 0
1099 304 -37 0
-1100 305 38 0
-1100 -305 -38 0
1100 -305 38 0
1100 305 -38 0
-1101 306 39 0
-1101 -306 -39 0
1101 -306 39 0
1101 306 -39 0
-1102 307 40 0
-1102 -307 -40 0
1102 -307 40 0
1102 307 -40 0
-1103 308 41 0
-1103 -308 -41 0
1103 -308 41 0
1103 308 -41 0
-1104 309 42 0
-1104 -309 -42 0
1104 -309 42 0
1104 309 -42 0
-1105 310 43 0
-1105 -310 -43 0
1105 -310 43 0
1105 310 -43 0
-1106 311 44 0
-1106 -311 -44 0
1106 -311 44 0
1106 311 -44 0
-1107 312 45 0
-1107 -312 -45 0
1107 -312 45 0
1107 312 -45 0
1099 1100 1101 1102 1103 1104 1105 1106 1107 0
-1108 304 46 0
-1108 -304 -46 0
1108 -304 46 0
1108 304 -46 0
-1109 305 47 0
-1109 -305 -47 0
1109 -305 47 0
1109 305 -47 0
-1110 306 48 0
-1110 -306 -48 0
1110 -306 48 0
1110 306 -48 0
-1111 307 49 0
-1111 -307 -49 0
1111 -307 49 0
1111 307 -49 0
-1112 308 50 0
-1112 -308 -50 0
1112 -308 50 0
1112 308 -50 0
-1113 309 51 0
-1113 -309 -51 0
1113 -309 51 0
1113 309 -51 0
-1114 310 52 0
-1114 -310 -52 0
1114 -310 52 0
1114 310 -52 0
-1115 311 53 0
-1115 -311 -53 0
1115 -311 53 0
1115 311 -53 0
-1116 312 54 0
-1116 -312 -54 0
1116 -312 54 0
1116 312 -54 0
1108 1109 1110 1111 1112 1113 1114 1115 1116 0
-1117 304 55 0
-1117 -304 -55 0
1117 -304 55 0
1117 304 -55 0
-1118 305 56 0
-1118 -305 -56 0
1118 -305 56 0
1118 305 -56 0
-1119 306 57 0
-1119 -306 -57 0
1119 -306 57 0
1119 306 -57 0
-1120 307 58 0
-1120 -307 -58 0
1120 -307 58 0
1120 307 -58 0
-1121 308 59 0
-1121 -308 -59 0
1121 -308 59 0
1121 308 -59 0
-1122 309 60 0
-1122 -309 -60 0
1122 -309 60 0
1122 309 -60 0
-1123 310 61 0
-1123 -310 -61 0
1123 -310 61 0
1123 310 -61 0
-1124 311 62 0
-1124 -311 -62 0
1124 -311 62 0
1124 311 -62 0
-1125 312 63 0
-1125 -312 -63 0
1125 -312 63 0
1125 312 -63 0
1117 1118 1119 1120 1121 1122 1123 1124 1125 0
-1126 304 64 0
-1126 -304 -64 0
1126 -304 64 0
1126 304 -64 0
-1127 305 65 0
-1127 -305 -65 0
1127 -305 65 0
1127 305 -65 0
-1128 306 66 0
-1128 -306 -66 0
1128 -306 66 0
1128 306 -66 0
-1129 307 67 0
-1129 -307 -67 0
1129 -307 67 0
1129 307 -67 0
-1130 308 68 0
-1130 -308 -68 0
1130 -308 68 0
1130 308 -68 0
-1131 309 69 0
-1131 -309 -69 0
1131 -309 69 0
1131 309 -69 0
-1132 310 70 0
-1132 -310 -70 0
1132 -310 70 0
1132 310 -70 0
-1133 311 71 0
-1133 -311 -71 0
1133 -311 71 0
1133 311 -71 0
-1134 312 72 0
-1134 -312 -72 0
1134 -312 72 0
1134 312 -72 0
1126 1127 1128 1129 1130 1131 1132 1133 1134 0
-1135 304 73 0
-1135 -304 -73 0
1135 -304 73 0
1135 304 -73 0
-1136 305 74 0
-1136 -305 -74 0
1136 -305 74 0
1136 305 -74 0
-1137 306 75 0
-1137 -306 -75 0
1137 -306 75 0
1137 306 -75 0
-1138 307 76 0
-1138 -307 -76 0
1138 -307 76 0
1138 307 -76 0
-1139 308 77 0
-1139 -308 -77 0
1139 -308 77 0
1139 308 -77 0
-1140 309 78 0
-1140 -309 -78 0
1140 -309 78 0
1140 309 -78 0
-1141 310 79 0
-1141 -310 -79 0
1141 -310 79 0
1141 310 -79 0
-1142 311 80 0
-1142 -311 -80 0
1142 -311 80 0
1142 311 -80 0
-1143 312 81 0
-1143 -312 -81 0
1143 -312 81 0
1143 312 -81 0
1135 1136 1137 1138 1139 1140 1141 1142 1143 0
-1144 304 100 0
-1144 -304 -100 0
1144 -304 100 0
1144 304 -100 0
-1145 305 101 0
-1145 -305 -101 0
1145 -305 101 0
1145 305 -101 0
-1146 306 102 0
-1146 -306 -102 0
1146 -306 102 0
1146 306 -102 0
-1147 307 103 0
-1147 -307 -103 0
1147 -307 103 0
1147 307 -103 0
-1148 308 104 0
-1148 -308 -104 0
1148 -308 104 0
1148 308 -104 0
-1149 309 105 0
-1149 -309 -105 0
1149 -309 105 0
1149 309 -105 0
-1150 310 106 0
-1150 -310 -106 0
1150 -310 106 0
1150 310 -106 0
-1151 311 107 0
-1151 -311 -107 0
1151 -311 107 0
1151 311 -107 0
-1152 312 108 0
-1152 -312 -108 0
1152 -312 108 0
1152 312 -108 0
1144 1145 1146 1147 1148 1149 1150 1151 1152 0
-1153 304 129 0
-1153 -304 -129 0
1153 -304 129 0
1153 304 -129 0
-1154 305 130 0
-1154 -305 -130 0
1154 -305 130 0
1154 305 -130 0
-1155 306 131 0
-1155 -306 -131 0
1155 -306 131 0
1155 306 -131 0
-1156 307 132 0
-1156 -307 -132 0
1156 -307 132 0
1156 307 -132 0
-1157 308 133 0
-1157 -308 -133 0
1157 -308 133 0
1157 308 -133 0
-1158 309 134 0
-1158 -309 -134 0
1158 -309 134 0
1158 309 -134 0
-1159 310 135 0
-1159 -310 -135 0
1159 -310 135 0
1159 310 -135 0
-1160 311 136 0
-1160 -311 -136 0
1160 -311 136 0
1160 311 -136 0
-1161 312 137 0
-1161 -312 -137 0
1161 -312 137 0
1161 312 -137 0
1153 1154 1155 1156 1157 1158 1159 1160 1161 0
-1162 304 160 0
-1162 -304 -160 0
1162 -304 160 0
1162 304 -160 0
-1163 305 161 0
-1163 -305 -161 0
1163 -305 161 0
1163 305 -161 0
-1164 306 162 0
-1164 -306 -162 0
1164 -306 162 0
1164 306 -162 0
-1165 307 163 0
-1165 -307 -163 0
1165 -307 163 0
1165 307 -163 0
-1166 308 164 0
-1166 -308 -164 0
1166 -308 164 0
1166 308 -164 0
-1167 309 165 0
-1167 -309 -165 0
1167 -309 165 0
1167 309 -165 0
-1168 310 166 0
-1168 -310 -166 0
1168 -310 166 0
1168 310 -166 0
-1169 311 167 0
-1169 -311 -167 0
1169 -311 167 0
1169 311 -167 0
-1170 312 168 0
-1170 -312 -168 0
1170 -312 168 0
1170 312 -168 0
1162 1163 1164 1165 1166 1167 1168 1169 1170 0
-1171 304 193 0
-1171 -304 -193 0
1171 -304 193 0
1171 304 -193 0
-1172 305 194 0
-1172 -305 -194 0
1172 -305 194 0
1172 305 -194 0
-1173 306 195 0
-1173 -306 -195 0
1173 -306 195 0
1173 306 -195 0
-1174 307 196 0
-1174 -307 -196 0
1174 -307 196 0
1174 307 -196 0
-1175 308 197 0
-1175 -308 -197 0
1175 -308 197 0
1175 308 -197 0
-1176 309 198 0
-1176 -309 -198 0
1176 -309 198 0
1176 309 -198 0
-1177 310 199 0
-1177 -310 -199 0
1177 -310 199 0
1177 310 -199 0
-1178 311 200 0
-1178 -311 -200 0
1178 -311 200 0
1178 311 -200 0
-1179 312 201 0
-1179 -312 -201 0
1179 -312 201 0
1179 312 -201 0
1171 1172 1173 1174 1175 1176 1177 1178 1179 0
-1180 304 228 0
-1180 -304 -228 0
1180 -304 228 0
1180 304 -228 0
-1181 305 229 0
-1181 -305 -229 0
1181 -305 229 0
1181 305 -229 0
-1182 306 230 0
-1182 -306 -230 0
1182 -306 230 0
1182 306 -230 0
-1183 307 231 0
-1183 -307 -231 0
1183 -307 231 0
1183 307 -231 0
-1184 308 232 0
-1184 -308 -232 0
1184 -308 232 0
1184 308 -232 0
-1185 309 233 0
-1185 -309 -233 0
1185 -309 233 0
1185 309 -233 0
-1186 310 234 0
-1186 -310 -234 0
1186 -310 234 0
1186 310 -234 0
-1187 311 235 0
-1187 -311 -235 0
1187 -311 235 0
1187 311 -235 0
-1188 312 236 0
-1188 -312 -236 0
1188 -312 236 0
1188 312 -236 0
1180 1181 1182 1183 1184 1185 1186 1187 1188 0
-1189 304 265 0
-1189 -304 -265 0
1189 -304 265 0
1189 304 -265 0
-1190 305 266 0
-1190 -305 -266 0
1190 -305 266 0
1190 305 -266 0
-1191 306 267 0
-1191 -306 -267 0
1191 -306 267 0
1191 306 -267 0
-1192 307 268 0
-1192 -307 -268 0
1192 -307 268 0
1192 307 -268 0
-1193 308 269 0
-1193 -308 -269 0
1193 -308 269 0
1193 308 -269 0
-1194 309 270 0
-1194 -309 -270 0
1194 -309 270 0
1194 309 -270 0
-1195 310 271 0
-1195 -310 -271 0
1195 -310 271 0
1195 310 -271 0
-1196 311 272 0
-1196 -311 -272 0
1196 -311 272 0
1196 311 -272 0
-1197 312 273 0
-1197 -312 -273 0
1197 -312 273 0
1197 312 -273 0
1189 1190 1191 1192 1193 1194 1195 1196 1197 0
-1198 345 1 0
-1198 -345 -1 0
1198 -345 1 0
1198 345 -1 0
-1199 346 2 0
-1199 -346 -2 0
1199 -346 2 0
1199 346 -2 0
-1200 347 3 0
-1200 -347 -3 0
1200 -347 3 0
1200 347 -3 0
-1201 348 4 0
-1201 -348 -4 0
1201 -348 4 0
1201 348 -4 0
-1202 349 5 0
-1202 -349 -5 0
1202 -349 5 0
1202 349 -5 0
-1203 350 6 0
-1203 -350 -6 0
1203 -350 6 0
1203 350 -6 0
-1204 351 7 0
-1204 -351 -7 0
1204 -351 7 0
1204 351 -7 0
-1205 352 8 0
-1205 -352 -8 0
1205 -352 8 0
1205 352 -8 0
-1206 353 9 0
-1206 -353 -9 0
1206 -353 9 0
1206 353 -9 0
1198 1199 1200 1201 1202 1203 1204 1205 1206 0
-1207 345 10 0
-1207 -345 -10 0
1207 -345 10 0
1207 345 -10 0
-1208 346 11 0
-1208 -346 -11 0
1208 -346 11 0
1208 346 -11 0
-1209 347 12 0
-1209 -347 -12 0
1209 -347 12 0
1209 347 -12 0
-1210 348 13 0
-1210 -348 -13 0
1210 -348 13 0
1210 348 -13 0
-1211 349 14 0
-1211 -349 -14 0
1211 -349 14 0
1211 349 -14 0
-1212 350 15 0
-1212 -350 -15 0
1212 -350 15 0
1212 350 -15 0
-1213 351 16 0
-1213 -351 -16 0
1213 -351 16 0
1213 351 -16 0
-1214 352 17 0
-1214 -352 -17 0
1214 -352 17 0
1214 352 -17 0
-1215 353 18 0
-1215 -353 -18 0
1215 -353 18 0
1215 353 -18 0
1207 1208 1209 1210 1211 1212 1213 1214 1215 0
-1216 345 19 0
-1216 -345 -19 0
1216 -345 19 0
1216 345 -19 0
-1217 346 20 0
-1217 -346 -20 0
1217 -346 20 0
1217 346 -20 0
-1218 347 21 0
-1218 -347 -21 0
1218 -347 21 0
1218 347 -21 0
-1219 348 22 0
-1219 -348 -22 0
1219 -348 22 0
1219 348 -22 0
-1220 349 23 0
-1220 -349 -23 0
1220 -349 23 0
1220 349 -23 0
-1221 350 24 0
-1221 -350 -24 0
1221 -350 24 0
1221 350 -24 0
-1222 351 25 0
-1222 -351 -25 0
1222 -351 25 0
1222 351 -25 0
-1223 352 26 0
-1223 -352 -26 0
1223 -352 26 0
1223 352 -26 0
-1224 353 27 0
-1224 -353 -27 0
1224 -353 27 0
1224 353 -27 0
1216 1217 1218 1219 1220 1221 1222 1223 1224 0
-1225 345 28 0
-1225 -345 -28 0
1225 -345 28 0
1225 345 -28 0
-1226 346 29 0
-1226 -346 -29 0
1226 -346 29 0
1226 346 -29 0
-1227 347 30 0
-1227 -347 -30 0
1227 -347 30 0
1227 347 -30 0
-1228 348 31 0
-1228 -348 -31 0
1228 -348 31 0
1228 348 -31 0
-1229 349 32 0
-1229 -349 -32 0
1229 -349 32 0
1229 349 -32 0
-1230 350 33 0
-1230 -350 -33 0
1230 -350 33 0
1230 350 -33 0
-1231 351 34 0
-1231 -351 -34 0
1231 -351 34 0
1231 351 -34 0
-1232 352 35 0
-1232 -352 -35 0
1232 -352 35 0
1232 352 -35 0
-1233 353 36 0
-1233 -353 -36 0
1233 -353 36 0
1233 353 -36 0
1225 1226 1227 1228 1229 1230 1231 1232 1233 0
-1234 345 37 0
-1234 -345 -37 0
1234 -345 37 0
1234 345 -37 0
-1235 346 38 0
-1235 -346 -38 0
1235 -346 38 0
1235 346 -38 0
-1236 347 39 0
-1236 -347 -39 0
1236 -347 39 0
1236 347 -39 0
-1237 348 40 0
-1237 -348 -40 0
1237 -348 40 0
1237 348 -40 0
-1238 349 41 0
-1238 -349 -41 0
1238 -349 41 0
1238 349 -41 0
-1239 350 42 0
-1239 -350 -42 0
1239 -350 42 0
1239 350 -42 0
-1240 351 43 0
-1240 -351 -43 0
1240 -351 43 0
1240 351 -43 0
-1241 352 44 0
-1241 -352 -44 0
1241 -352 44 0
1241 352 -44 0
-1242 353 45 0
-1242 -353 -45 0
1242 -353 45 0
1242 353 -45 0
1234 1235 1236 1237 1238 1239 1240 1241 1242 0
-1243 345 46 0
-1243 -345 -46 0
1243 -345 46 0
1243 345 -46 0
-1244 346 47 0
-1244 -346 -47 0
1244 -346 47 0
1244 346 -47 0
-1245 347 48 0
-1245 -347 -48 0
1245 -347 48 0
1245 347 -48 0
-1246 348 49 0
-1246 -348 -49 0
1246 -348 49 0
1246 348 -49 0
-1247 349 50 0
-1247 -349 -50 0
1247 -349 50 0
1247 349 -50 0
-1248 350 51 0
-1248 -350 -51 0
1248 -350 51 0
1248 350 -51 0
-1249 351 52 0
-1249 -351 -52 0
1249 -351 52 0
1249 351 -52 0
-1250 352 53 0
-1250 -352 -53 0
1250 -352 53 0
1250 352 -53 0
-1251 353 54 0
-1251 -353 -54 0
1251 -353 54 0
1251 353 -54 0
1243 1244 1245 1246 1247 1248 1249 1250 1251 0
-1252 345 55 0
-1252 -345 -55 0
1252 -345 55 0
1252 345 -55 0
-1253 346 56 0
-1253 -346 -56 0
1253 -346 56 0
1253 346 -56 0
-1254 347 57 0
-1254 -347 -57 0
1254 -347 57 0
1254 347 -57 0
-1255 348 58 0
-1255 -348 -58 0
1255 -348 58 0
1255 348 -58 0
-1256 349 59 0
-1256 -349 -59 0
1256 -349 59 0
1256 349 -59 0
-1257 350 60 0
-1257 -350 -60 0
1257 -350 60 0
1257 350 -60 0
-1258 351 61 0
-1258 -351 -61 0
1258 -351 61 0
1258 351 -61 0
-1259 352 62 0
-1259 -352 -62 0
1259 -352 62 0
1259 352 -62 0
-1260 353 63 0
-1260 -353 -63 0
1260 -353 63 0
1260 353 -63 0
1252 1253 1254 1255 1256 1257 1258 1259 1260 0
-1261 345 64 0
-1261 -345 -64 0
1261 -345 64 0
1261 345 -64 0
-1262 346 65 0
-1262 -346 -65 0
1262 -346 65 0
1262 346 -65 0
-1263 347 66 0
-1263 -347 -66 0
1263 -347 66 0
1263 347 -66 0
-1264 348 67 0
-1264 -348 -67 0
1264 -348 67 0
1264 348 -67 0
-1265 349 68 0
-1265 -349 -68 0
1265 -349 68 0
1265 349 -68 0
-1266 350 69 0
-1266 -350 -69 0
1266 -350 69 0
1266 350 -69 0
-1267 351 70 0
-1267 -351 -70 0
1267 -351 70 0
1267 351 -70 0
-1268 352 71 0
-1268 -352 -71 0
1268 -352 71 0
1268 352 -71 0
-1269 353 72 0
-1269 -353 -72 0
1269 -353 72 0
1269 353 -72 0
1261 1262 1263 1264 1265 1266 1267 1268 1269 0
-1270 345 73 0
-1270 -345 -73 0
1270 -345 73 0
1270 345 -73 0
-1271 346 74 0
-1271 -346 -74 0
1271 -346 74 0
1271 346 -74 0
-1272 347 75 0
-1272 -347 -75 0
1272 -347 75 0
1272 347 -75 0
-1273 348 76 0
-1273 -348 -76 0
1273 -348 76 0
1273 348 -76 0
-1274 349 77 0
-1274 -349 -77 0
1274 -349 77 0
1274 349 -77 0
-1275 350 78 0
-1275 -350 -78 0
1275 -350 78 0
1275 350 -78 0
-1276 351 79 0
-1276 -351 -79 0
1276 -351 79 0
1276 351 -79 0
-1277 352 80 0
-1277 -352 -80 0
1277 -352 80 0
1277 352 -80 0
-1278 353 81 0
-1278 -353 -81 0
1278 -353 81 0
1278 353 -81 0
1270 1271 1272 1273 1274 1275 1276 1277 1278 0
-1279 345 100 0
-1279 -345 -100 0
1279 -345 100 0
1279 345 -100 0
-1280 346 101 0
-1280 -346 -101 0
1280 -346 101 0
1280 346 -101 0
-1281 347 102 0
-1281 -347 -102 0
1281 -347 102 0
1281 347 -102 0
-1282 348 103 0
-1282 -348 -103 0
1282 -348 103 0
1282 348 -103 0
-1283 349 104 0
-1283 -349 -104 0
1283 -349 104 0
1283 349 -104 0
-1284 350 105 0
-1284 -350 -105 0
1284 -350 105 0
1284 350 -105 0
-1285 351 106 0
-1285 -351 -106 0
1285 -351 106 0
1285 351 -106 0
-1286 352 107 0
-1286 -352 -107 0
1286 -352 107 0
1286 352 -107 0
-1287 353 108 0
-1287 -353 -108 0
1287 -353 108 0
1287 353 -108 0
1279 1280 1281 1282 1283 1284 1285 1286 1287 0
-1288 345 129 0
-1288 -345 -129 0
1288 -345 129 0
1288 345 -129 0
-1289 346 130 0
-1289 -346 -130 0
1289 -346 130 0
1289 346 -130 0
-1290 347 131 0
-1290 -347 -131 0
1290 -347 131 0
1290 347 -131 0
-1291 348 132 0
-1291 -348 -132 0
1291 -348 132 0
1291 348 -132 0
-1292 349 133 0
-1292 -349 -133 0
1292 -349 133 0
1292 349 -133 0
-1293 350 134 0
-1293 -350 -134 0
1293 -350 134 0
1293 350 -134 0
-1294 351 135 0
-1294 -351 -135 0
1294 -351 135 0
1294 351 -135 0
-1295 352 136 0
-1295 -352 -136 0
1295 -352 136 0
1295 352 -136 0
-1296 353 137 0
-1296 -353 -137 0
1296 -353 137 0
1296 353 -137 0
1288 1289 1290 1291 1292 1293 1294 1295 1296 0
-1297 345 160 0
-1297 -345 -160 0
1297 -345 160 0
1297 345 -160 0
-1298 346 161 0
-1298 -346 -161 0
1298 -346 161 0
1298 346 -161 0
-1299 347 162 0
-1299 -347 -162 0
1299 -347 162 0
1299 347 -162 0
-1300 348 163 0
-1300 -348 -163 0
1300 -348 163 0
1300 348 -163 0
-1301 349 164 0
-1301 -349 -164 0
1301 -349 164 0
1301 349 -164 0
-1302 350 165 0
-1302 -350 -165 0
1302 -350 165 0
1302 350 -165 0
-1303 351 166 0
-1303 -351 -166 0
1303 -351 166 0
1303 351 -166 0
-1304 352 167 0
-1304 -352 -167 0
1304 -352 167 0
1304 352 -167 0
-1305 353 168 0
-1305 -353 -168 0
1305 -353 168 0
1305 353 -168 0
1297 1298 1299 1300 1301 1302 1303 1304 1305 0
-1306 345 193 0
-1306 -345 -193 0
1306 -345 193 0
1306 345 -193 0
-1307 346 194 0
-1307 -346 -194 0
1307 -346 194 0
1307 346 -194 0
-1308 347 195 0
-1308 -347 -195 0
1308 -347 195 0
1308 347 -195 0
-1309 348 196 0
-1309 -348 -196 0
1309 -348 196 0
1309 348 -196 0
-1310 349 197 0
-1310 -349 -197 0
1310 -349 197 0
1310 349 -197 0
-1311 350 198 0
-1311 -350 -198 0
1311 -350 198 0
1311 350 -198 0
-1312 351 199 0
-1312 -351 -199 0
1312 -351 199 0
1312 351 -199 0
-1313 352 200 0
-1313 -352 -200 0
1313 -352 200 0
1313 352 -200 0
-1314 353 201 0
-1314 -353 -201 0
1314 -353 201 0
1314 353 -201 0
1306 1307 1308 1309 1310 1311 1312 1313 1314 0
-1315 345 228 0
-1315 -345 -228 0
1315 -345 228 0
1315 345 -228 0
-1316 346 229 0
-1316 -346 -229 0
1316 -346 229 0
1316 346 -229 0
-1317 347 230 0
-1317 -347 -230 0
1317 -347 230 0
1317 347 -230 0
-1318 348 231 0
-1318 -348 -231 0
1318 -348 231 0
1318 348 -231 0
-1319 349 232 0
-1319 -349 -232 0
1319 -349 232 0
1319 349 -232 0
-1320 350 233 0
-1320 -350 -233 0
1320 -350 233 0
1320 350 -233 0
-1321 351 234 0
-1321 -351 -234 0
1321 -351 234 0
1321 351 -234 0
-1322 352 235 0
-1322 -352 -235 0
1322 -352 235 0
1322 352 -235 0
-1323 353 236 0
-1323 -353 -236 0
1323 -353 236 0
1323 353 -236 0
1315 1316 1317 1318 1319 1320 1321 1322 1323 0
-1324 345 265 0
-1324 -345 -265 0
1324 -345 265 0
1324 345 -265 0
-1325 346 266 0
-1325 -346 -266 0
1325 -346 266 0
1325 346 -266 0
-1326 347 267 0
-1326 -347 -267 0
1326 -347 267 0
1326 347 -267 0
-1327 348 268 0
-1327 -348 -268 0
1327 -348 268 0
1327 348 -268 0
-1328 349 269 0
-1328 -349 -269 0
1328 -349 269 0
1328 349 -269 0
-1329 350 270 0
-1329 -350 -270 0
1329 -350 270 0
1329 350 -270 0
-1330 351 271 0
-1330 -351 -271 0
1330 -351 271 0
1330 351 -271 0
-1331 352 272 0
-1331 -352 -272 0
1331 -352 272 0
1331 352 -272 0
-1332 353 273 0
-1332 -353 -273 0
1332 -353 273 0
1332 353 -273 0
1324 1325 1326 1327 1328 1329 1330 1331 1332 0
-1333 345 304 0
-1333 -345 -304 0
1333 -345 304 0
1333 345 -304 0
-1334 346 305 0
-1334 -346 -305 0
1334 -346 305 0
1334 346 -305 0
-1335 347 306 0
-1335 -347 -306 0
1335 -347 306 0
1335 347 -306 0
-1336 348 307 0
-1336 -348 -307 0
1336 -348 307 0
1336 348 -307 0
-1337 349 308 0
-1337 -349 -308 0
1337 -349 308 0
1337 349 -308 0
-1338 350 309 0
-1338 -350 -309 0
1338 -350 309 0
1338 350 -309 0
-1339 351 310 0
-1339 -351 -310 0
1339 -351 310 0
1339 351 -310 0
-1340 352 311 0
-1340 -352 -311 0
1340 -352 311 0
1340 352 -311 0
-1341 353 312 0
-1341 -353 -312 0
1341 -353 312 0
1341 353 -312 0
1333 1334 1335 1336 1337 1338 1339 1340 1341 0
-1342 388 1 0
-1342 -388 -1 0
1342 -388 1 0
1342 388 -1 0
-1343 389 2 0
-1343 -389 -2 0
1343 -389 2 0
1343 389 -2 0
-1344 390 3 0
-1344 -390 -3 0
1344 -390 3 0
1344 390 -3 0
-1345 391 4 0
-1345 -391 -4 0
1345 -391 4 0
1345 391 -4 0
-1346 392 5 0
-1346 -392 -5 0
1346 -392 5 0
1346 392 -5 0
-1347 393 6 0
-1347 -393 -6 0
1347 -393 6 0
1347 393 -6 0
-1348 394 7 0
-1348 -394 -7 0
1348 -394 7 0
1348 394 -7 0
-1349 395 8 0
-1349 -395 -8 0
1349 -395 8 0
1349 395 -8 0
-1350 396 9 0
-1350 -396 -9 0
1350 -396 9 0
1350 396 -9 0
1342 1343 1344 1345 1346 1347 1348 1349 1350 0
-1351 388 10 0
-1351 -388 -10 0
1351 -388 10 0
1351 388 -10 0
-1352 389 11 0
-1352 -389 -11 0
1352 -389 11 0
1352 389 -11 0
-1353 390 12 0
-1353 -390 -12 0
1353 -390 12 0
1353 390 -12 0
-1354 391 13 0
-1354 -391 -13 0
1354 -391 13 0
1354 391 -13 0
-1355 392 14 0
-1355 -392 -14 0
1355 -392 14 0
1355 392 -14 0
-1356 393 15 0
-1356 -393 -15 0
1356 -393 15 0
1356 393 -15 0
-1357 394 16 0
-1357 -394 -16 0
1357 -394 16 0
1357 394 -16 0
-1358 395 17 0
-1358 -395 -17 0
1358 -395 17 0
1358 395 -17 0
-1359 396 18 0
-1359 -396 -18 0
1359 -396 18 0
1359 396 -18 0
1351 1352 1353 1354 1355 1356 1357 1358 1359 0
-1360 388 19 0
-1360 -388 -19 0
1360 -388 19 0
1360 388 -19 0
-1361 389 20 0
-1361 -389 -20 0
1361 -389 20 0
1361 389 -20 0
-1362 390 21 0
-1362 -390 -21 0
1362 -390 21 0
1362 390 -21 0
-1363 391 22 0
-1363 -391 -22 0
1363 -391 22 0
1363 391 -22 0
-1364 392 23 0
-1364 -392 -23 0
1364 -392 23 0
1364 392 -23 0
-1365 393 24 0
-1365 -393 -24 0
1365 -393 24 0
1365 393 -24 0
-1366 394 25 0
-1366 -394 -25 0
1366 -394 25 0
1366 394 -25 0
-1367 395 26 0
-1367 -395 -26 0
1367 -395 26 0
1367 395 -26 0
-1368 396 27 0
-1368 -396 -27 0
1368 -396 27 0
1368 396 -27 0
1360 1361 1362 1363 1364 1365 1366 1367 1368 0
-1369 388 28 0
-1369 -388 -28 0
1369 -388 28 0
1369 388 -28 0
-1370 389 29 0
-1370 -389 -29 0
1370 -389 29 0
1370 389 -29 0
-1371 390 30 0
-1371 -390 -30 0
1371 -390 30 0
1371 390 -30 0
-1372 391 31 0
-1372 -391 -31 0
1372 -391 31 0
1372 391 -31 0
-1373 392 32 0
-1373 -392 -32 0
1373 -392 32 0
1373 392 -32 0
-1374 393 33 0
-1374 -393 -33 0
1374 -393 33 0
1374 393 -33 0
-1375 394 34 0
-1375 -394 -34 0
1375 -394 34 0
1375 394 -34 0
-1376 395 35 0
-1376 -395 -35 0
1376 -395 35 0
1376 395 -35 0
-1377 396 36 0
-1377 -396 -36 0
1377 -396 36 0
1377 396 -36 0
1369 1370 1371 1372 1373 1374 1375 1376 1377 0
-1378 388 37 0
-1378 -388 -37 0
1378 -388 37 0
1378 388 -37 0
-1379 389 38 0
-1379 -389 -38 0
1379 -389 38 0
1379 389 -38 0
-1380 390 39 0
-1380 -390 -39 0
1380 -390 39 0
1380 390 -39 0
-1381 391 40 0
-1381 -391 -40 0
1381 -391 40 0
1381 391 -40 0
-1382 392 41 0
-1382 -392 -41 0
1382 -392 41 0
1382 392 -41 0
-1383 393 42 0
-1383 -393 -42 0
1383 -393 42 0
1383 393 -42 0
-1384 394 43 0
-1384 -394 -43 0
1384 -394 43 0
1384 394 -43 0
-1385 395 44 0
-1385 -395 -44 0
1385 -395 44 0
1385 395 -44 0
-1386 396 45 0
-1386 -396 -45 0
1386 -396 45 0
1386 396 -45 0
1378 1379 1380 1381 1382 1383 1384 1385 1386 0
-1387 388 46 0
-1387 -388 -46 0
1387 -388 46 0
1387 388 -46 0
-1388 389 47 0
-1388 -389 -47 0
1388 -389 47 0
1388 389 -47 0
-1389 390 48 0
-1389 -390 -48 0
1389 -390 48 0
1389 390 -48 0
-1390 391 49 0
-1390 -391 -49 0
1390 -391 49 0
1390 391 -49 0
-1391 392 50 0
-1391 -392 -50 0
1391 -392 50 0
1391 392 -50 0
-1392 393 51 0
-1392 -393 -51 0
1392 -393 51 0
1392 393 -51 0
-1393 394 52 0
-1393 -394 -52 0
1393 -394 52 0
1393 394 -52 0
-1394 395 53 0
-1394 -395 -53 0
1394 -395 53 0
1394 395 -53 0
-1395 396 54 0
-1395 -396 -54 0
1395 -396 54 0
1395 396 -54 0
1387 1388 1389 1390 1391 1392 1393 1394 1395 0
-1396 388 55 0
-1396 -388 -55 0
1396 -388 55 0
1396 388 -55 0
-1397 389 56 0
-1397 -389 -56 0
1397 -389 56 0
1397 389 -56 0
-1398 390 57 0
-1398 -390 -57 0
1398 -390 57 0
1398 390 -57 0
-1399 391 58 0
-1399 -391 -58 0
1399 -391 58 0
1399 391 -58 0
-1400 392 59 0
-1400 -392 -59 0
1400 -392 59 0
1400 392 -59 0
-1401 393 60 0
-1401 -393 -60 0
1401 -393 60 0
1401 393 -60 0
-1402 394 61 0
-1402 -394 -61 0
1402 -394 61 0
1402 394 -61 0
-1403 395 62 0
-1403 -395 -62 0
1403 -395 62 0
1403 395 -62 0
-1404 396 63 0
-1404 -396 -63 0
1404 -396 63 0
1404 396 -63 0
1396 1397 1398 1399 1400 1401 1402 1403 1404 0
-1405 388 64 0
-1405 -388 -64 0
1405 -388 64 0
1405 388 -64 0
-1406 389 65 0
-1406 -389 -65 0
1406 -389 65 0
1406 389 -65 0
-1407 390 66 0
-1407 -390 -66 0
1407 -390 66 0
1407 390 -66 0
-1408 391 67 0
-1408 -391 -67 0
1408 -391 67 0
1408 391 -67 0
-1409 392 68 0
-1409 -392 -68 0
1409 -392 68 0
1409 392 -68 0
-1410 393 69 0
-1410 -393 -69 0
1410 -393 69 0
1410 393 -69 0
-1411 394 70 0
-1411 -394 -70 0
1411 -394 70 0
1411 394 -70 0
-1412 395 71 0
-1412 -395 -71 0
1412 -395 71 0
1412 395 -71 0
-1413 396 72 0
-1413 -396 -72 0
1413 -396 72 0
1413 396 -72 0
1405 1406 1407 1408 1409 1410 1411 1412 1413 0
-1414 388 73 0
-1414 -388 -73 0
1414 -388 73 0
1414 388 -73 0
-1415 389 74 0
-1415 -389 -74 0
1415 -389 74 0
1415 389 -74 0
-1416 390 75 0
-1416 -390 -75 0
1416 -390 75 0
1416 390 -75 0
-1417 391 76 0
-1417 -391 -76 0
1417 -391 76 0
1417 391 -76 0
-1418 392 77 0
-1418 -392 -77 0
1418 -392 77 0
1418 392 -77 0
-1419 393 78 0
-1419 -393 -78 0
1419 -393 78 0
1419 393 -78 0
-1420 394 79 0
-1420 -394 -79 0
1420 -394 79 0
1420 394 -79 0
-1421 395 80 0
-1421 -395 -80 0
1421 -395 80 0
1421 395 -80 0
-1422 396 81 0
-1422 -396 -81 0
1422 -396 81 0
1422 396 -81 0
1414 1415 1416 1417 1418 1419 1420 1421 1422 0
-1423 388 100 0
-1423 -388 -100 0
1423 -388 100 0
1423 388 -100 0
-1424 389 101 0
-1424 -389 -101 0
1424 -389 101 0
1424 389 -101 0
-1425 390 102 0
-1425 -390 -102 0
1425 -390 102 0
1425 390 -102 0
-1426 391 103 0
-1426 -391 -103 0
1426 -391 103 0
1426 391 -103 0
-1427 392 104 0
-1427 -392 -104 0
1427 -392 104 0
1427 392 -104 0
-1428 393 105 0
-1428 -393 -105 0
1428 -393 105 0
1428 393 -105 0
-1429 394 106 0
-1429 -394 -106 0
1429 -394 106 0
1429 394 -106 0
-1430 395 107 0
-1430 -395 -107 0
1430 -395 107 0
1430 395 -107 0
-1431 396 108 0
-1431 -396 -108 0
1431 -396 108 0
1431 396 -108 0
1423 1424 1425 1426 1427 1428 1429 1430 1431 0
-1432 388 129 0
-1432 -388 -129 0
1432 -388 129 0
1432 388 -129 0
-1433 389 130 0
-1433 -389 -130 0
1433 -389 130 0
1433 389 -130 0
-1434 390 131 0
-1434 -390 -131 0
1434 -390 131 0
1434 390 -131 0
-1435 391 132 0
-1435 -391 -132 0
1435 -391 132 0
1435 391 -132 0
-1436 392 133 0
-1436 -392 -133 0
1436 -392 133 0
1436 392 -133 0
-1437 393 134 0
-1437 -393 -134 0
1437 -393 134 0
1437 393 -134 0
-1438 394 135 0
-1438 -394 -135 0
1438 -394 135 0
1438 394 -135 0
-1439 395 136 0
-1439 -395 -136 0
1439 -395 136 0
1439 395 -136 0
-1440 396 137 0
-1440 -396 -137 0
1440 -396 137 0
1440 396 -137 0
1432 1433 1434 1435 1436 1437 1438 1439 1440 0
-1441 388 160 0
-1441 -388 -160 0
1441 -388 160 0
1441 388 -160 0
-1442 389 161 0
-1442 -389 -161 0
1442 -389 161 0
1442 389 -161 0
-1443 390 162 0
-1443 -390 -162 0
1443 -390 162 0
1443 390 -162 0
-1444 391 163 0
-1444 -391 -163 0
1444 -391 163 0
1444 391 -163 0
-1445 392 164 0
-1445 -392 -164 0
1445 -392 164 0
1445 392 -164 0
-1446 393 165 0
-1446 -393 -165 0
1446 -393 165 0
1446 393 -165 0
-1447 394 166 0
-1447 -394 -166 0
1447 -394 166 0
1447 394 -166 0
-1448 395 167 0
-1448 -395 -167 0
1448 -395 167 0
1448 395 -167 0
-1449 396 168 0
-1449 -396 -168 0
1449 -396 168 0
1449 396 -168 0
1441 1442 1443 1444 1445 1446 1447 1448 1449 0
-1450 388 193 0
-1450 -388 -193 0
1450 -388 193 0
1450 388 -193 0
-1451 389 194 0
-1451 -389 -194 0
1451 -389 194 0
1451 389 -194 0
-1452 390 195 0
-1452 -390 -195 0
1452 -390 195 0
1452 390 -195 0
-1453 391 196 0
-1453 -391 -196 0
1453 -391 196 0
1453 391 -196 0
-1454 392 197 0
-1454 -392 -197 0
1454 -392 197 0
1454 392 -197 0
-1455 393 198 0
-1455 -393 -198 0
1455 -393 198 0
1455 393 -198 0
-1456 394 199 0
-1456 -394 -199 0
1456 -394 199 0
1456 394 -199 0
-1457 395 200 0
-1457 -395 -200 0
1457 -395 200 0
1457 395 -200 0
-1458 396 201 0
-1458 -396 -201 0
1458 -396 201 0
1458 396 -201 0
1450 1451 1452 1453 1454 1455 1456 1457 1458 0
-1459 388 228 0
-1459 -388 -228 0
1459 -388 228 0
1459 388 -228 0
-1460 389 229 0
-1460 -389 -229 0
1460 -389 229 0
1460 389 -229 0
-1461 390 230 0
-1461 -390 -230 0
1461 -390 230 0
1461 390 -230 0
-1462 391 231 0
-1462 -391 -231 0
1462 -391 231 0
1462 391 -231 0
-1463 392 232 0
-1463 -392 -232 0
1463 -392 232 0
1463 392 -232 0
-1464 393 233 0
-1464 -393 -233 0
1464 -393 233 0
1464 393 -233 0
-1465 394 234 0
-1465 -394 -234 0
1465 -394 234 0
1465 394 -234 0
-1466 395 235 0
-1466 -395 -235 0
1466 -395 235 0
1466 395 -235 0
-1467 396 236 0
-1467 -396 -236 0
1467 -396 236 0
1467 396 -236 0
1459 1460 1461 1462 1463 1464 1465 1466 1467 0
-1468 388 265 0
-1468 -388 -265 0
1468 -388 265 0
1468 388 -265 0
-1469 389 266 0
-1469 -389 -266 0
1469 -389 266 0
1469 389 -266 0
-1470 390 267 0
-1470 -390 -267 0
1470 -390 267 0
1470 390 -267 0
-1471 391 268 0
-1471 -391 -268 0
1471 -391 268 0
1471 391 -268 0
-1472 392 269 0
-1472 -392 -269 0
1472 -392 269 0
1472 392 -269 0
-1473 393 270 0
-1473 -393 -270 0
1473 -393 270 0
1473 393 -270 0
-1474 394 271 0
-1474 -394 -271 0
1474 -394 271 0
1474 394 -271 0
-1475 395 272 0
-1475 -395 -272 0
1475 -395 272 0
1475 395 -272 0
-1476 396 273 0
-1476 -396 -273 0
1476 -396 273 0
1476 396 -273 0
1468 1469 1470 1471 1472 1473 1474 1475 1476 0
-1477 388 304 0
-1477 -388 -304 0
1477 -388 304 0
1477 388 -304 0
-1478 389 305 0
-1478 -389 -305 0
1478 -389 305 0
1478 389 -305 0
-1479 390 306 0
-1479 -390 -306 0
1479 -390 306 0
1479 390 -306 0
-1480 391 307 0
-1480 -391 -307 0
1480 -391 307 0
1480 391 -307 0
-1481 392 308 0
-1481 -392 -308 0
1481 -392 308 0
1481 392 -308 0
-1482 393 309 0
-1482 -393 -309 0
1482 -393 309 0
1482 393 -309 0
-1483 394 310 0
-1483 -394 -310 0
1483 -394 310 0
1483 394 -310 0
-1484 395 311 0
-1484 -395 -311 0
1484 -395 311 0
1484 395 -311 0
-1485 396 312 0
-1485 -396 -312 0
1485 -396 312 0
1485 396 -312 0
1477 1478 1479 1480 1481 1482 1483 1484 1485 0
-1486 388 345 0
-1486 -388 -345 0
1486 -388 345 0
1486 388 -345 0
-1487 389 346 0
-1487 -389 -346 0
1487 -389 346 0
1487 389 -346 0
-1488 390 347 0
-1488 -390 -347 0
1488 -390 347 0
1488 390 -347 0
-1489 391 348 0
-1489 -391 -348 0
1489 -391 348 0
1489 391 -348 0
-1490 392 349 0
-1490 -392 -349 0
1490 -392 349 0
1490 392 -349 0
-1491 393 350 0
-1491 -393 -350 0
1491 -393 350 0
1491 393 -350 0
-1492 394 351 0
-1492 -394 -351 0
1492 -394 351 0
1492 394 -351 0
-1493 395 352 0
-1493 -395 -352 0
1493 -395 352 0
1493 395 -352 0
-1494 396 353 0
-1494 -396 -353 0
1494 -396 353 0
1494 396 -353 0
1486 1487 1488 1489 1490 1491 1492 1493 1494 0
-1495 433 1 0
-1495 -433 -1 0
1495 -433 1 0
1495 433 -1 0
-1496 434 2 0
-1496 -434 -2 0
1496 -434 2 0
1496 434 -2 0
-1497 435 3 0
-1497 -435 -3 0
1497 -435 3 0
1497 435 -3 0
-1498 436 4 0
-1498 -436 -4 0
1498 -436 4 0
1498 436 -4 0
-1499 437 5 0
-1499 -437 -5 0
1499 -437 5 0
1499 437 -5 0
-1500 438 6 0
-1500 -438 -6 0
1500 -438 6 0
1500 438 -6 0
-1501 439 7 0
-1501 -439 -7 0
1501 -439 7 0
1501 439 -7 0
-1502 440 8 0
-1502 -440 -8 0
1502 -440 8 0
1502 440 -8 0
-1503 441 9 0
-1503 -441 -9 0
1503 -441 9 0
1503 441 -9 0
1495 1496 1497 1498 1499 1500 1501 1502 1503 0
-1504 433 10 0
-1504 -433 -10 0
1504 -433 10 0
1504 433 -10 0
-1505 434 11 0
-1505 -434 -11 0
1505 -434 11 0
1505 434 -11 0
-1506 435 12 0
-1506 -435 -12 0
1506 -435 12 0
1506 435 -12 0
-1507 436 13 0
-1507 -436 -13 0
1507 -436 13 0
1507 436 -13 0
-1508 437 14 0
-1508 -437 -14 0
1508 -437 14 0
1508 437 -14 0
-1509 438 15 0
-1509 -438 -15 0
1509 -438 15 0
1509 438 -15 0
-1510 439 16 0
-1510 -439 -16 0
1510 -439 16 0
1510 439 -16 0
-1511 440 17 0
-1511 -440 -17 0
1511 -440 17 0
1511 440 -17 0
-1512 441 18 0
-1512 -441 -18 0
1512 -441 18 0
1512 441 -18 0
1504 1505 1506 1507 1508 1509 1510 1511 1512 0
-1513 433 19 0
-1513 -433 -19 0
1513 -433 19 0
1513 433 -19 0
-1514 434 20 0
-1514 -434 -20 0
1514 -434 20 0
1514 434 -20 0
-1515 435 21 0
-1515 -435 -21 0
1515 -435 21 0
1515 435 -21 0
-1516 436 22 0
-1516 -436 -22 0
1516 -436 22 0
1516 436 -22 0
-1517 437 23 0
-1517 -437 -23 0
1517 -437 23 0
1517 437 -23 0
-1518 438 24 0
-1518 -438 -24 0
1518 -438 24 0
1518 438 -24 0
-1519 439 25 0
-1519 -439 -25 0
1519 -439 25 0
1519 439 -25 0
-1520 440 26 0
-1520 -440 -26 0
1520 -440 26 0
1520 440 -26 0
-1521 441 27 0
-1521 -441 -27 0
1521 -441 27 0
1521 441 -27 0
1513 1514 1515 1516 1517 1518 1519 1520 1521 0
-1522 433 28 0
-1522 -433 -28 0
1522 -433 28 0
1522 433 -28 0
-1523 434 29 0
-1523 -434 -29 0
1523 -434 29 0
1523 434 -29 0
-1524 435 30 0
-1524 -435 -30 0
1524 -435 30 0
1524 435 -30 0
-1525 436 31 0
-1525 -436 -31 0
1525 -436 31 0
1525 436 -31 0
-1526 437 32 0
-1526 -437 -32 0
1526 -437 32 0
1526 437 -32 0
-1527 438 33 0
-1527 -438 -33 0
1527 -438 33 0
1527 438 -33 0
-1528 439 34 0
-1528 -439 -34 0
1528 -439 34 0
1528 439 -34 0
-1529 440 35 0
-1529 -440 -35 0
1529 -440 35 0
1529 440 -35 0
-1530 441 36 0
-1530 -441 -36 0
1530 -441 36 0
1530 441 -36 0
1522 1523 1524 1525 1526 1527 1528 1529 1530 0
-1531 433 37 0
-1531 -433 -37 0
1531 -433 37 0
1531 433 -37 0
-1532 434 38 0
-1532 -434 -38 0
1532 -434 38 0
1532 434 -38 0
-1533 435 39 0
-1533 -435 -39 0
1533 -435 39 0
1533 435 -39 0
-1534 436 40 0
-1534 -436 -40 0
1534 -436 40 0
1534 436 -40 0
-1535 437 41 0
-1535 -437 -41 0
1535 -437 41 0
1535 437 -41 0
-1536 438 42 0
-1536 -438 -42 0
1536 -438 42 0
1536 438 -42 0
-1537 439 43 0
-1537 -439 -43 0
1537 -439 43 0
1537 439 -43 0
-1538 440 44 0
-1538 -440 -44 0
1538 -440 44 0
1538 440 -44 0
-1539 441 45 0
-1539 -441 -45 0
1539 -441 45 0
1539 441 -45 0
1531 1532 1533 1534 1535 1536 1537 1538 1539 0
-1540 433 46 0
-1540 -433 -46 0
1540 -433 46 0
1540 433 -46 0
-1541 434 47 0
-1541 -434 -47 0
1541 -434 47 0
1541 434 -47 0
-1542 435 48 0
-1542 -435 -48 0
1542 -435 48 0
1542 435 -48 0
-1543 436 49 0
-1543 -436 -49 0
1543 -436 49 0
1543 436 -49 0
-1544 437 50 0
-1544 -437 -50 0
1544 -437 50 0
1544 437 -50 0
-1545 438 51 0
-1545 -438 -51 0
1545 -438 51 0
1545 438 -51 0
-1546 439 52 0
-1546 -439 -52 0
1546 -439 52 0
1546 439 -52 0
-1547 440 53 0
-1547 -440 -53 0
1547 -440 53 0
1547 440 -53 0
-1548 441 54 0
-1548 -441 -54 0
1548 -441 54 0
1548 441 -54 0
1540 1541 1542 1543 1544 1545 1546 1547 1548 0
-1549 433 55 0
-1549 -433 -55 0
1549 -433 55 0
1549 433 -55 0
-1550 434 56 0
-1550 -434 -56 0
1550 -434 56 0
1550 434 -56 0
-1551 435 57 0
-1551 -435 -57 0
1551 -435 57 0
1551 435 -57 0
-1552 436 58 0
-1552 -436 -58 0
1552 -436 58 0
1552 436 -58 0
-1553 437 59 0
-1553 -437 -59 0
1553 -437 59 0
1553 437 -59 0
-1554 438 60 0
-1554 -438 -60 0
1554 -438 60 0
1554 438 -60 0
-1555 439 61 0
-1555 -439 -61 0
1555 -439 61 0
1555 439 -61 0
-1556 440 62 0
-1556 -440 -62 0
1556 -440 62 0
1556 440 -62 0
-1557 441 63 0
-1557 -441 -63 0
1557 -441 63 0
1557 441 -63 0
1549 1550 1551 1552 1553 1554 1555 1556 1557 0
-1558 433 64 0
-1558 -433 -64 0
1558 -433 64 0
1558 433 -64 0
-1559 434 65 0
-1559 -434 -65 0
1559 -434 65 0
1559 434 -65 0
-1560 435 66 0
-1560 -435 -66 0
1560 -435 66 0
1560 435 -66 0
-1561 436 67 0
-1561 -436 -67 0
1561 -436 67 0
1561 436 -67 0
-1562 437 68 0
-1562 -437 -68 0
1562 -437 68 0
1562 437 -68 0
-1563 438 69 0
-1563 -438 -69 0
1563 -438 69 0
1563 438 -69 0
-1564 439 70 0
-1564 -439 -70 0
1564 -439 70 0
1564 439 -70 0
-1565 440 71 0
-1565 -440 -71 0
1565 -440 71 0
1565 440 -71 0
-1566 441 72 0
-1566 -441 -72 0
1566 -441 72 0
1566 441 -72 0
1558 1559 1560 1561 1562 1563 1564 1565 1566 0
-1567 433 73 0
-1567 -433 -73 0
1567 -433 73 0
1567 433 -73 0
-1568 434 74 0
-1568 -434 -74 0
1568 -434 74 0
1568 434 -74 0
-1569 435 75 0
-1569 -435 -75 0
1569 -435 75 0
1569 435 -75 0
-1570 436 76 0
-1570 -436 -76 0
1570 -436 76 0
1570 436 -76 0
-1571 437 77 0
-1571 -437 -77 0
1571 -437 77 0
1571 437 -77 0
-1572 438 78 0
-1572 -438 -78 0
1572 -438 78 0
1572 438 -78 0
-1573 439 79 0
-1573 -439 -79 0
1573 -439 79 0
1573 439 -79 0
-1574 440 80 0
-1574 -440 -80 0
1574 -440 80 0
1574 440 -80 0
-1575 441 81 0
-1575 -441 -81 0
1575 -441 81 0
1575 441 -81 0
1567 1568 1569 1570 1571 1572 1573 1574 1575 0
-1576 433 100 0
-1576 -433 -100 0
1576 -433 100 0
1576 433 -100 0
-1577 434 101 0
-1577 -434 -101 0
1577 -434 101 0
1577 434 -101 0
-1578 435 102 0
-1578 -435 -102 0
1578 -435 102 0
1578 435 -102 0
-1579 436 103 0
-1579 -436 -103 0
1579 -436 103 0
1579 436 -103 0
-1580 437 104 0
-1580 -437 -104 0
1580 -437 104 0
1580 437 -104 0
-1581 438 105 0
-1581 -438 -105 0
1581 -438 105 0
1581 438 -105 0
-1582 439 106 0
-1582 -439 -106 0
1582 -439 106 0
1582 439 -106 0
-1583 440 107 0
-1583 -440 -107 0
1583 -440 107 0
1583 440 -107 0
-1584 441 108 0
-1584 -441 -108 0
1584 -441 108 0
1584 441 -108 0
1576 1577 1578 1579 1580 1581 1582 1583 1584 0
-1585 433 129 0
-1585 -433 -129 0
1585 -433 129 0
1585 433 -129 0
-1586 434 130 0
-1586 -434 -130 0
1586 -434 130 0
1586 434 -130 0
-1587 435 131 0
-1587 -435 -131 0
1587 -435 131 0
1587 435 -131 0
-1588 436 132 0
-1588 -436 -132 0
1588 -436 132 0
1588 436 -132 0
-1589 437 133 0
-1589 -437 -133 0
1589 -437 133 0
1589 437 -133 0
-1590 438 134 0
-1590 -438 -134 0
1590 -438 134 0
1590 438 -134 0
-1591 439 135 0
-1591 -439 -135 0
1591 -439 135 0
1591 439 -135 0
-1592 440 136 0
-1592 -440 -136 0
1592 -440 136 0
1592 440 -136 0
-1593 441 137 0
-1593 -441 -137 0
1593 -441 137 0
1593 441 -137 0
1585 1586 1587 1588 1589 1590 1591 1592 1593 0
-1594 433 160 0
-1594 -433 -160 0
1594 -433 160 0
1594 433 -160 0
-1595 434 161 0
-1595 -434 -161 0
1595 -434 161 0
1595 434 -161 0
-1596 435 162 0
-1596 -435 -162 0
1596 -435 162 0
1596 435 -162 0
-1597 436 163 0
-1597 -436 -163 0
1597 -436 163 0
1597 436 -163 0
-1598 437 164 0
-1598 -437 -164 0
1598 -437 164 0
1598 437 -164 0
-1599 438 165 0
-1599 -438 -165 0
1599 -438 165 0
1599 438 -165 0
-1600 439 166 0
-1600 -439 -166 0
1600 -439 166 0
1600 439 -166 0
-1601 440 167 0
-1601 -440 -167 0
1601 -440 167 0
1601 440 -167 0
-1602 441 168 0
-1602 -441 -168 0
1602 -441 168 0
1602 441 -168 0
1594 1595 1596 1597 1598 1599 1600 1601 1602 0
-1603 433 193 0
-1603 -433 -193 0
1603 -433 193 0
1603 433 -193 0
-1604 434 194 0
-1604 -434 -194 0
1604 -434 194 0
1604 434 -194 0
-1605 435 195 0
-1605 -435 -195 0
1605 -435 195 0
1605 435 -195 0
-1606 436 196 0
-1606 -436 -196 0
1606 -436 196 0
1606 436 -196 0
-1607 437 197 0
-1607 -437 -197 0
1607 -437 197 0
1607 437 -197 0
-1608 438 198 0
-1608 -438 -198 0
1608 -438 198 0
1608 438 -198 0
-1609 439 199 0
-1609 -439 -199 0
1609 -439 199 0
1609 439 -199 0
-1610 440 200 0
-1610 -440 -200 0
1610 -440 200 0
1610 440 -200 0
-1611 441 201 0
-1611 -441 -201 0
1611 -441 201 0
1611 441 -201 0
1603 1604 1605 1606 1607 1608 1609 1610 1611 0
-1612 433 228 0
-1612 -433 -228 0
1612 -433 228 0
1612 433 -228 0
-1613 434 229 0
-1613 -434 -229 0
1613 -434 229 0
1613 434 -229 0
-1614 435 230 0
-1614 -435 -230 0
1614 -435 230 0
1614 435 -230 0
-1615 436 231 0
-1615 -436 -231 0
1615 -436 231 0
1615 436 -231 0
-1616 437 232 0
-1616 -437 -232 0
1616 -437 232 0
1616 437 -232 0
-1617 438 233 0
-1617 -438 -233 0
1617 -438 233 0
1617 438 -233 0
-1618 439 234 0
-1618 -439 -234 0
1618 -439 234 0
1618 439 -234 0
-1619 440 235 0
-1619 -440 -235 0
1619 -440 235 0
1619 440 -235 0
-1620 441 236 0
-1620 -441 -236 0
1620 -441 236 0
1620 441 -236 0
1612 1613 1614 1615 1616 1617 1618 1619 1620 0
-1621 433 265 0
-1621 -433 -265 0
1621 -433 265 0
1621 433 -265 0
-1622 434 266 0
-1622 -434 -266 0
1622 -434 266 0
1622 434 -266 0
-1623 435 267 0
-1623 -435 -267 0
1623 -435 267 0
1623 435 -267 0
-1624 436 268 0
-1624 -436 -268 0
1624 -436 268 0
1624 436 -268 0
-1625 437 269 0
-1625 -437 -269 0
1625 -437 269 0
1625 437 -269 0
-1626 438 270 0
-1626 -438 -270 0
1626 -438 270 0
1626 438 -270 0
-1627 439 271 0
-1627 -439 -271 0
1627 -439 271 0
1627 439 -271 0
-1628 440 272 0
-1628 -440 -272 0
1628 -440 272 0
1628 440 -272 0
-1629 441 273 0
-1629 -441 -273 0
1629 -441 273 0
1629 441 -273 0
1621 1622 1623 1624 1625 1626 1627 1628 1629 0
-1630 433 304 0
-1630 -433 -304 0
1630 -433 304 0
1630 433 -304 0
-1631 434 305 0
-1631 -434 -305 0
1631 -434 305 0
1631 434 -305 0
-1632 435 306 0
-1632 -435 -306 0
1632 -435 306 0
1632 435 -306 0
-1633 436 307 0
-1633 -436 -307 0
1633 -436 307 0
1633 436 -307 0
-1634 437 308 0
-1634 -437 -308 0
1634 -437 308 0
1634 437 -308 0
-1635 438 309 0
-1635 -438 -309 0
1635 -438 309 0
1635 438 -309 0
-1636 439 310 0
-1636 -439 -310 0
1636 -439 310 0
1636 439 -310 0
-1637 440 311 0
-1637 -440 -311 0
1637 -440 311 0
1637 440 -311 0
-1638 441 312 0
-1638 -441 -312 0
1638 -441 312 0
1638 441 -312 0
1630 1631 1632 1633 1634 1635 1636 1637 1638 0
-1639 433 345 0
-1639 -433 -345 0
1639 -433 345 0
1639 433 -345 0
-1640 434 346 0
-1640 -434 -346 0
1640 -434 346 0
1640 434 -346 0
-1641 435 347 0
-1641 -435 -347 0
1641 -435 347 0
1641 435 -347 0
-1642 436 348 0
-1642 -436 -348 0
1642 -436 348 0
1642 436 -348 0
-1643 437 349 0
-1643 -437 -349 0
1643 -437 349 0
1643 437 -349 0
-1644 438 350 0
-1644 -438 -350 0
1644 -438 350 0
1644 438 -350 0
-1645 439 351 0
-1645 -439 -351 0
1645 -439 351 0
1645 439 -351 0
-1646 440 352 0
-1646 -440 -352 0
1646 -440 352 0
1646 440 -352 0
-1647 441 353 0
-1647 -441 -353 0
1647 -441 353 0
1647 441 -353 0
1639 1640 1641 1642 1643 1644 1645 1646 1647 0
-1648 433 388 0
-1648 -433 -388 0
1648 -433 388 0
1648 433 -388 0
-1649 434 389 0
-1649 -434 -389 0
1649 -434 389 0
1649 434 -389 0
-1650 435 390 0
-1650 -435 -390 0
1650 -435 390 0
1650 435 -390 0
-1651 436 391 0
-1651 -436 -391 0
1651 -436 391 0
1651 436 -391 0
-1652 437 392 0
-1652 -437 -392 0
1652 -437 392 0
1652 437 -392 0
-1653 438 393 0
-1653 -438 -393 0
1653 -438 393 0
1653 438 -393 0
-1654 439 394 0
-1654 -439 -394 0
1654 -439 394 0
1654 439 -394 0
-1655 440 395 0
-1655 -440 -395 0
1655 -440 395 0
1655 440 -395 0
-1656 441 396 0
-1656 -441 -396 0
1656 -441 396 0
1656 441 -396 0
1648 1649 1650 1651 1652 1653 1654 1655 1656 0
1657 1658 1659 1660 1661 1662 1663 1664 1665 1666 1667 1668 1669 1670 1671 1672 1673 1674 1675 0
-1657 -1 0
-1657 -2 0
-1657 -3 0
-1657 4 0
-1657 5 0
-1657 -6 0
-1657 7 0
-1657 -8 0
-1657 -9 0
-1658 -10 0
-1658 -11 0
-1658 -12 0
-1658 13 0
-1658 14 0
-1658 -15 0
-1658 16 0
-1658 -17 0
-1658 -18 0
-1659 -19 0
-1659 -20 0
-1659 -21 0
-1659 22 0
-1659 23 0
-1659 -24 0
-1659 25 0
-1659 -26 0
-1659 -27 0
-1660 -28 0
-1660 -29 0
-1660 -30 0
-1660 31 0
-1660 32 0
-1660 -33 0
-1660 34 0
-1660 -35 0
-1660 -36 0
-1661 -37 0
-1661 -38 0
-1661 -39 0
-1661 40 0
-1661 41 0
-1661 -42 0
-1661 43 0
-1661 -44 0
-1661 -45 0
-1662 -46 0
-1662 -47 0
-1662 -48 0
-1662 49 0
-1662 50 0
-1662 -51 0
-1662 52 0
-1662 -53 0
-1662 -54 0
-1663 -55 0
-1663 -56 0
-1663 -57 0
-1663 58 0
-1663 59 0
-1663 -60 0
-1663 61 0
-1663 -62 0
-1663 -63 0
-1664 -64 0
-1664 -65 0
-1664 -66 0
-1664 67 0
-1664 68 0
-1664 -69 0
-1664 70 0
-1664 -71 0
-1664 -72 0
-1665 -73 0
-1665 -74 0
-1665 -75 0
-1665 76 0
-1665 77 0
-1665 -78 0
-1665 79 0
-1665 -80 0
-1665 -81 0
-1666 -100 0
-1666 -101 0
-1666 -102 0
-1666 103 0
-1666 104 0
-1666 -105 0
-1666 106 0
-1666 -107 0
-1666 -108 0
-1667 -129 0
-1667 -130 0
-1667 -131 0
-1667 132 0
-1667 133 0
-1667 -134 0
-1667 135 0
-1667 -136 0
-1667 -137 0
-1668 -160 0
-1668 -161 0
-1668 -162 0
-1668 163 0
-1668 164 0
-1668 -165 0
-1668 166 0
-1668 -167 0
-1668 -168 0
-1669 -193 0
-1669 -194 0
-1669 -195 0
-1669 196 0
-1669 197 0
-1669 -198 0
-1669 199 0
-1669 -200 0
-1669 -201 0
-1670 -228 0
-1670 -229 0
-1670 -230 0
-1670 231 0
-1670 232 0
-1670 -233 0
-1670 234 0
-1670 -235 0
-1670 -236 0
-1671 -265 0
-1671 -266 0
-1671 -267 0
-1671 268 0
-1671 269 0
-1671 -270 0
-1671 271 0
-1671 -272 0
-1671 -273 0
-1672 -304 0
-1672 -305 0
-1672 -306 0
-1672 307 0
-1672 308 0
-1672 -309 0
-1672 310 0
-1672 -311 0
-1672 -312 0
-1673 -345 0
-1673 -346 0
-1673 -347 0
-1673 348 0
-1673 349 0
-1673 -350 0
-1673 351 0
-1673 -352 0
-1673 -353 0
-1674 -388 0
-1674 -389 0
-1674 -390 0
-1674 391 0
-1674 392 0
-1674 -393 0
-1674 394 0
-1674 -395 0
-1674 -396 0
-1675 -433 0
-1675 -434 0
-1675 -435 0
-1675 436 0
-1675 437 0
-1675 -438 0
-1675 439 0
-1675 -440 0
-1675 -441 0
1676 1677 1678 1679 1680 1681 1682 1683 1684 1685 1686 1687 1688 1689 1690 1691 1692 1693 1694 0
-1676 1 0
-1676 -2 0
-1676 -3 0
-1676 4 0
-1676 5 0
-1676 -6 0
-1676 -7 0
-1676 -8 0
-1676 -9 0
-1677 10 0
-1677 -11 0
-1677 -12 0
-1677 13 0
-1677 14 0
-1677 -15 0
-1677 -16 0
-1677 -17 0
-1677 -18 0
-1678 19 0
-1678 -20 0
-1678 -21 0
-1678 22 0
-1678 23 0
-1678 -24 0
-1678 -25 0
-1678 -26 0
-1678 -27 0
-1679 28 0
-1679 -29 0
-1679 -30 0
-1679 31 0
-1679 32 0
-1679 -33 0
-1679 -34 0
-1679 -35 0
-1679 -36 0
-1680 37 0
-1680 -38 0
-1680 -39 0
-1680 40 0
-1680 41 0
-1680 -42 0
-1680 -43 0
-1680 -44 0
-1680 -45 0
-1681 46 0
-1681 -47 0
-1681 -48 0
-1681 49 0
-1681 50 0
-1681 -51 0
-1681 -52 0
-1681 -53 0
-1681 -54 0
-1682 55 0
-1682 -56 0
-1682 -57 0
-1682 58 0
-1682 59 0
-1682 -60 0
-1682 -61 0
-1682 -62 0
-1682 -63 0
-1683 64 0
-1683 -65 0
-1683 -66 0
-1683 67 0
-1683 68 0
-1683 -69 0
-1683 -70 0
-1683 -71 0
-1683 -72 0
-1684 73 0
-1684 -74 0
-1684 -75 0
-1684 76 0
-1684 77 0
-1684 -78 0
-1684 -79 0
-1684 -80 0
-1684 -81 0
-1685 100 0
-1685 -101 0
-1685 -102 0
-1685 103 0
-1685 104 0
-1685 -105 0
-1685 -106 0
-1685 -107 0
-1685 -108 0
-1686 129 0
-1686 -130 0
-1686 -131 0
-1686 132 0
-1686 133 0
-1686 -134 0
-1686 -135 0
-1686 -136 0
-1686 -137 0
-1687 160 0
-1687 -161 0
-1687 -162 0
-1687 163 0
-1687 164 0
-1687 -165 0
-1687 -166 0
-1687 -167 0
-1687 -168 0
-1688 193 0
-1688 -194 0
-1688 -195 0
-1688 196 0
-1688 197 0
-1688 -198 0
-1688 -199 0
-1688 -200 0
-1688 -201 0
-1689 228 0
-1689 -229 0
-1689 -230 0
-1689 231 0
-1689 232 0
-1689 -233 0
-1689 -234 0
-1689 -235 0
-1689 -236 0
-1690 265 0
-1690 -266 0
-1690 -267 0
-1690 268 0
-1690 269 0
-1690 -270 0
-1690 -271 0
-1690 -272 0
-1690 -273 0
-1691 304 0
-1691 -305 0
-1691 -306 0
-1691 307 0
-1691 308 0
-1691 -309 0
-1691 -310 0
-1691 -311 0
-1691 -312 0
-1692 345 0
-1692 -346 0
-1692 -347 0
-1692 348 0
-1692 349 0
-1692 -350 0
-1692 -351 0
-1692 -352 0
-1692 -353 0
-1693 388 0
-1693 -389 0
-1693 -390 0
-1693 391 0
-1693 392 0
-1693 -393 0
-1693 -394 0
-1693 -395 0
-1693 -396 0
-1694 433 0
-1694 -434 0
-1694 -435 0
-1694 436 0
-1694 437 0
-1694 -438 0
-1694 -439 0
-1694 -440 0
-1694 -441 0
1695 1696 1697 1698 1699 1700 1701 1702 1703 1704 1705 1706 1707 1708 1709 1710 1711 1712 1713 0
-1695 -1 0
-1695 2 0
-1695 -3 0
-1695 -4 0
-1695 -5 0
-1695 6 0
-1695 7 0
-1695 -8 0
-1695 -9 0
-1696 -10 0
-1696 11 0
-1696 -12 0
-1696 -13 0
-1696 -14 0
-1696 15 0
-1696 16 0
-1696 -17 0
-1696 -18 0
-1697 -19 0
-1697 20 0
-1697 -21 0
-1697 -22 0
-1697 -23 0
-1697 24 0
-1697 25 0
-1697 -26 0
-1697 -27 0
-1698 -28 0
-1698 29 0
-1698 -30 0
-1698 -31 0
-1698 -32 0
-1698 33 0
-1698 34 0
-1698 -35 0
-1698 -36 0
-1699 -37 0
-1699 38 0
-1699 -39 0
-1699 -40 0
-1699 -41 0
-1699 42 0
-1699 43 0
-1699 -44 0
-1699 -45 0
-1700 -46 0
-1700 47 0
-1700 -48 0
-1700 -49 0
-1700 -50 0
-1700 51 0
-1700 52 0
-1700 -53 0
-1700 -54 0
-1701 -55 0
-1701 56 0
-1701 -57 0
-1701 -58 0
-1701 -59 0
-1701 60 0
-1701 61 0
-1701 -62 0
-1701 -63 0
-1702 -64 0
-1702 65 0
-1702 -66 0
-1702 -67 0
-1702 -68 0
-1702 69 0
-1702 70 0
-1702 -71 0
-1702 -72 0
-1703 -73 0
-1703 74 0
-1703 -75 0
-1703 -76 0
-1703 -77 0
-1703 78 0
-1703 79 0
-1703 -80 0
-1703 -81 0
-1704 -100 0
-1704 101 0
-1704 -102 0
-1704 -103 0
-1704 -104 0
-1704 105 0
-1704 106 0
-1704 -107 0
-1704 -108 0
-1705 -129 0
-1705 130 0
-1705 -131 0
-1705 -132 0
-1705 -133 0
-1705 134 0
-1705 135 0
-1705 -136 0
-1705 -137 0
-1706 -160 0
-1706 161 0
-1706 -162 0
-1706 -163 0
-1706 -164 0
-1706 165 0
-1706 166 0
-1706 -167 0
-1706 -168 0
-1707 -193 0
-1707 194 0
-1707 -195 0
-1707 -196 0
-1707 -197 0
-1707 198 0
-1707 199 0
-1707 -200 0
-1707 -201 0
-1708 -228 0
-1708 229 0
-1708 -230 0
-1708 -231 0
-1708 -232 0
-1708 233 0
-1708 234 0
-1708 -235 0
-1708 -236 0
-1709 -265 0
-1709 266 0
-1709 -267 0
-1709 -268 0
-1709 -269 0
-1709 270 0
-1709 271 0
-1709 -272 0
-1709 -273 0
-1710 -304 0
-1710 305 0
-1710 -306 0
-1710 -307 0
-1710 -308 0
-1710 309 0
-1710 310 0
-1710 -311 0
-1710 -312 0
-1711 -345 0
-1711 346 0
-1711 -347 0
-1711 -348 0
-1711 -349 0
-1711 350 0
-1711 351 0
-1711 -352 0
-1711 -353 0
-1712 -388 0
-1712 389 0
-1712 -390 0
-1712 -391 0
-1712 -392 0
-1712 393 0
-1712 394 0
-1712 -395 0
-1712 -396 0
-1713 -433 0
-1713 434 0
-1713 -435 0
-1713 -436 0
-1713 -437 0
-1713 438 0
-1713 439 0
-1713 -440 0
-1713 -441 0
1714 1715 1716 1717 1718 1719 1720 1721 1722 1723 1724 1725 1726 1727 1728 1729 1730 1731 1732 0
-1714 1 0
-1714 -2 0
-1714 -3 0
-1714 -4 0
-1714 5 0
-1714 -6 0
-1714 -7 0
-1714 -8 0
-1714 -9 0
-1715 10 0
-1715 -11 0
-1715 -12 0
-1715 -13 0
-1715 14 0
-1715 -15 0
-1715 -16 0
-1715 -17 0
-1715 -18 0
-1716 19 0
-1716 -20 0
-1716 -21 0
-1716 -22 0
-1716 23 0
-1716 -24 0
-1716 -25 0
-1716 -26 0
-1716 -27 0
-1717 28 0
-1717 -29 0
-1717 -30 0
-1717 -31 0
-1717 32 0
-1717 -33 0
-1717 -34 0
-1717 -35 0
-1717 -36 0
-1718 37 0
-1718 -38 0
-1718 -39 0
-1718 -40 0
-1718 41 0
-1718 -42 0
-1718 -43 0
-1718 -44 0
-1718 -45 0
-1719 46 0
-1719 -47 0
-1719 -48 0
-1719 -49 0
-1719 50 0
-1719 -51 0
-1719 -52 0
-1719 -53 0
-1719 -54 0
-1720 55 0
-1720 -56 0
-1720 -57 0
-1720 -58 0
-1720 59 0
-1720 -60 0
-1720 -61 0
-1720 -62 0
-1720 -63 0
-1721 64 0
-1721 -65 0
-1721 -66 0
-1721 -67 0
-1721 68 0
-1721 -69 0
-1721 -70 0
-1721 -71 0
-1721 -72 0
-1722 73 0
-1722 -74 0
-1722 -75 0
-1722 -76 0
-1722 77 0
-1722 -78 0
-1722 -79 0
-1722 -80 0
-1722 -81 0
-1723 100 0
-1723 -101 0
-1723 -102 0
-1723 -103 0
-1723 104 0
-1723 -105 0
-1723 -106 0
-1723 -107 0
-1723 -108 0
-1724 129 0
-1724 -130 0
-1724 -131 0
-1724 -132 0
-1724 133 0
-1724 -134 0
-1724 -135 0
-1724 -136 0
-1724 -137 0
-1725 160 0
-1725 -161 0
-1725 -162 0
-1725 -163 0
-1725 164 0
-1725 -165 0
-1725 -166 0
-1725 -167 0
-1725 -168 0
-1726 193 0
-1726 -194 0
-1726 -195 0
-1726 -196 0
-1726 197 0
-1726 -198 0
-1726 -199 0
-1726 -200 0
-1726 -201 0
-1727 228 0
-1727 -229 0
-1727 -230 0
-1727 -231 0
-1727 232 0
-1727 -233 0
-1727 -234 0
-1727 -235 0
-1727 -236 0
-1728 265 0
-1728 -266 0
-1728 -267 0
-1728 -268 0
-1728 269 0
-1728 -270 0
-1728 -271 0
-1728 -272 0
-1728 -273 0
-1729 304 0
-1729 -305 0
-1729 -306 0
-1729 -307 0
-1729 308 0
-1729 -309 0
-1729 -310 0
-1729 -311 0
-1729 -312 0
-1730 345 0
-1730 -346 0
-1730 -347 0
-1730 -348 0
-1730 349 0
-1730 -350 0
-1730 -351 0
-1730 -352 0
-1730 -353 0
-1731 388 0
-1731 -389 0
-1731 -390 0
-1731 -391 0
-1731 392 0
-1731 -393 0
-1731 -394 0
-1731 -395 0
-1731 -396 0
-1732 433 0
-1732 -434 0
-1732 -435 0
-1732 -436 0
-1732 437 0
-1732 -438 0
-1732 -439 0
-1732 -440 0
-1732 -441 0
1733 1734 1735 1736 1737 1738 1739 1740 1741 1742 1743 1744 1745 1746 1747 1748 1749 1750 1751 0
-1733 -1 0
-1733 -2 0
-1733 -3 0
-1733 -4 0
-1733 -5 0
-1733 -6 0
-1733 7 0
-1733 -8 0
-1733 9 0
-1734 -10 0
-1734 -11 0
-1734 -12 0
-1734 -13 0
-1734 -14 0
-1734 -15 0
-1734 16 0
-1734 -17 0
-1734 18 0
-1735 -19 0
-1735 -20 0
-1735 -21 0
-1735 -22 0
-1735 -23 0
-1735 -24 0
-1735 25 0
-1735 -26 0
-1735 27 0
-1736 -28 0
-1736 -29 0
-1736 -30 0
-1736 -31 0
-1736 -32 0
-1736 -33 0
-1736 34 0
-1736 -35 0
-1736 36 0
-1737 -37 0
-1737 -38 0
-1737 -39 0
-1737 -40 0
-1737 -41 0
-1737 -42 0
-1737 43 0
-1737 -44 0
-1737 45 0
-1738 -46 0
-1738 -47 0
-1738 -48 0
-1738 -49 0
-1738 -50 0
-1738 -51 0
-1738 52 0
-1738 -53 0
-1738 54 0
-1739 -55 0
-1739 -56 0
-1739 -57 0
-1739 -58 0
-1739 -59 0
-1739 -60 0
-1739 61 0
-1739 -62 0
-1739 63 0
-1740 -64 0
-1740 -65 0
-1740 -66 0
-1740 -67 0
-1740 -68 0
-1740 -69 0
-1740 70 0
-1740 -71 0
-1740 72 0
-1741 -73 0
-1741 -74 0
-1741 -75 0
-1741 -76 0
-1741 -77 0
-1741 -78 0
-1741 79 0
-1741 -80 0
-1741 81 0
-1742 -100 0
-1742 -101 0
-1742 -102 0
-1742 -103 0
-1742 -104 0
-1742 -105 0
-1742 106 0
-1742 -107 0
-1742 108 0
-1743 -129 0
-1743 -130 0
-1743 -131 0
-1743 -132 0
-1743 -133 0
-1743 -134 0
-1743 135 0
-1743 -136 0
-1743 137 0
-1744 -160 0
-1744 -161 0
-1744 -162 0
-1744 -163 0
-1744 -164 0
-1744 -165 0
-1744 166 0
-1744 -167 0
-1744 168 0
-1745 -193 0
-1745 -194 0
-1745 -195 0
-1745 -196 0
-1745 -197 0
-1745 -198 0
-1745 199 0
-1745 -200 0
-1745 201 0
-1746 -228 0
-1746 -229 0
-1746 -230 0
-1746 -231 0
-1746 -232 0
-1746 -233 0
-1746 234 0
-1746 -235 0
-1746 236 0
-1747 -265 0
-1747 -266 0
-1747 -267 0
-1747 -268 0
-1747 -269 0
-1747 -270 0
-1747 271 0
-1747 -272 0
-1747 273 0
-1748 -304 0
-1748 -305 0
-1748 -306 0
-1748 -307 0
-1748 -308 0
-1748 -309 0
-1748 310 0
-1748 -311 0
-1748 312 0
-1749 -345 0
-1749 -346 0
-1749 -347 0
-1749 -348 0
-1749 -349 0
-1749 -350 0
-1749 351 0
-1749 -352 0
-1749 353 0
-1750 -388 0
-1750 -389 0
-1750 -390 0
-1750 -391 0
-1750 -392 0
-1750 -393 0
-1750 394 0
-1750 -395 0
-1750 396 0
-1751 -433 0
-1751 -434 0
-1751 -435 0
-1751 -436 0
-1751 -437 0
-1751 -438 0
-1751 439 0
-1751 -440 0
-1751 441 0
1752 1753 1754 1755 1756 1757 1758 1759 1760 1761 1762 1763 1764 1765 1766 1767 1768 1769 1770 0
-1752 -1 0
-1752 -2 0
-1752 -3 0
-1752 4 0
-1752 -5 0
-1752 -6 0
-1752 -7 0
-1752 -8 0
-1752 -9 0
-1753 -10 0
-1753 -11 0
-1753 -12 0
-1753 13 0
-1753 -14 0
-1753 -15 0
-1753 -16 0
-1753 -17 0
-1753 -18 0
-1754 -19 0
-1754 -20 0
-1754 -21 0
-1754 22 0
-1754 -23 0
-1754 -24 0
-1754 -25 0
-1754 -26 0
-1754 -27 0
-1755 -28 0
-1755 -29 0
-1755 -30 0
-1755 31 0
-1755 -32 0
-1755 -33 0
-1755 -34 0
-1755 -35 0
-1755 -36 0
-1756 -37 0
-1756 -38 0
-1756 -39 0
-1756 40 0
-1756 -41 0
-1756 -42 0
-1756 -43 0
-1756 -44 0
-1756 -45 0
-1757 -46 0
-1757 -47 0
-1757 -48 0
-1757 49 0
-1757 -50 0
-1757 -51 0
-1757 -52 0
-1757 -53 0
-1757 -54 0
-1758 -55 0
-1758 -56 0
-1758 -57 0
-1758 58 0
-1758 -59 0
-1758 -60 0
-1758 -61 0
-1758 -62 0
-1758 -63 0
-1759 -64 0
-1759 -65 0
-1759 -66 0
-1759 67 0
-1759 -68 0
-1759 -69 0
-1759 -70 0
-1759 -71 0
-1759 -72 0
-1760 -73 0
-1760 -74 0
-1760 -75 0
-1760 76 0
-1760 -77 0
-1760 -78 0
-1760 -79 0
-1760 -80 0
-1760 -81 0
-1761 -100 0
-1761 -101 0
-1761 -102 0
-1761 103 0
-1761 -104 0
-1761 -105 0
-1761 -106 0
-1761 -107 0
-1761 -108 0
-1762 -129 0
-1762 -130 0
-1762 -131 0
-1762 132 0
-1762 -133 0
-1762 -134 0
-1762 -135 0
-1762 -136 0
-1762 -137 0
-1763 -160 0
-1763 -161 0
-1763 -162 0
-1763 163 0
-1763 -164 0
-1763 -165 0
-1763 -166 0
-1763 -167 0
-1763 -168 0
-1764 -193 0
-1764 -194 0
-1764 -195 0
-1764 196 0
-1764 -197 0
-1764 -198 0
-1764 -199 0
-1764 -200 0
-1764 -201 0
-1765 -228 0
-1765 -229 0
-1765 -230 0
-1765 231 0
-1765 -232 0
-1765 -233 0
-1765 -234 0
-1765 -235 0
-1765 -236 0
-1766 -265 0
-1766 -266 0
-1766 -267 0
-1766 268 0
-1766 -269 0
-1766 -270 0
-1766 -271 0
-1766 -272 0
-1766 -273 0
-1767 -304 0
-1767 -305 0
-1767 -306 0
-1767 307 0
-1767 -308 0
-1767 -309 0
-1767 -310 0
-1767 -311 0
-1767 -312 0
-1768 -345 0
-1768 -346 0
-1768 -347 0
-1768 348 0
-1768 -349 0
-1768 -350 0
-1768 -351 0
-1768 -352 0
-1768 -353 0
-1769 -388 0
-1769 -389 0
-1769 -390 0
-1769 391 0
-1769 -392 0
-1769 -393 0
-1769 -394 0
-1769 -395 0
-1769 -396 0
-1770 -433 0
-1770 -434 0
-1770 -435 0
-1770 436 0
-1770 -437 0
-1770 -438 0
-1770 -439 0
-1770 -440 0
-1770 -441 0
1771 1772 1773 1774 1775 1776 1777 1778 1779 1780 1781 1782 1783 1784 1785 1786 1787 1788 1789 0
-1771 -1 0
-1771 -2 0
-1771 -3 0
-1771 4 0
-1771 -5 0
-1771 -6 0
-1771 7 0
-1771 8 0
-1771 9 0
-1772 -10 0
-1772 -11 0
-1772 -12 0
-1772 13 0
-1772 -14 0
-1772 -15 0
-1772 16 0
-1772 17 0
-1772 18 0
-1773 -19 0
-1773 -20 0
-1773 -21 0
-1773 22 0
-1773 -23 0
-1773 -24 0
-1773 25 0
-1773 26 0
-1773 27 0
-1774 -28 0
-1774 -29 0
-1774 -30 0
-1774 31 0
-1774 -32 0
-1774 -33 0
-1774 34 0
-1774 35 0
-1774 36 0
-1775 -37 0
-1775 -38 0
-1775 -39 0
-1775 40 0
-1775 -41 0
-1775 -42 0
-1775 43 0
-1775 44 0
-1775 45 0
-1776 -46 0
-1776 -47 0
-1776 -48 0
-1776 49 0
-1776 -50 0
-1776 -51 0
-1776 52 0
-1776 53 0
-1776 54 0
-1777 -55 0
-1777 -56 0
-1777 -57 0
-1777 58 0
-1777 -59 0
-1777 -60 0
-1777 61 0
-1777 62 0
-1777 63 0
-1778 -64 0
-1778 -65 0
-1778 -66 0
-1778 67 0
-1778 -68 0
-1778 -69 0
-1778 70 0
-1778 71 0
-1778 72 0
-1779 -73 0
-1779 -74 0
-1779 -75 0
-1779 76 0
-1779 -77 0
-1779 -78 0
-1779 79 0
-1779 80 0
-1779 81 0
-1780 -100 0
-1780 -101 0
-1780 -102 0
-1780 103 0
-1780 -104 0
-1780 -105 0
-1780 106 0
-1780 107 0
-1780 108 0
-1781 -129 0
-1781 -130 0
-1781 -131 0
-1781 132 0
-1781 -133 0
-1781 -134 0
-1781 135 0
-1781 136 0
-1781 137 0
-1782 -160 0
-1782 -161 0
-1782 -162 0
-1782 163 0
-1782 -164 0
-1782 -165 0
-1782 166 0
-1782 167 0
-1782 168 0
-1783 -193 0
-1783 -194 0
-1783 -195 0
-1783 196 0
-1783 -197 0
-1783 -198 0
-1783 199 0
-1783 200 0
-1783 201 0
-1784 -228 0
-1784 -229 0
-1784 -230 0
-1784 231 0
-1784 -232 0
-1784 -233 0
-1784 234 0
-1784 235 0
-1784 236 0
-1785 -265 0
-1785 -266 0
-1785 -267 0
-1785 268 0
-1785 -269 0
-1785 -270 0
-1785 271 0
-1785 272 0
-1785 273 0
-1786 -304 0
-1786 -305 0
-1786 -306 0
-1786 307 0
-1786 -308 0
-1786 -309 0
-1786 310 0
-1786 311 0
-1786 312 0
-1787 -345 0
-1787 -346 0
-1787 -347 0
-1787 348 0
-1787 -349 0
-1787 -350 0
-1787 351 0
-1787 352 0
-1787 353 0
-1788 -388 0
-1788 -389 0
-1788 -390 0
-1788 391 0
-1788 -392 0
-1788 -393 0
-1788 394 0
-1788 395 0
-1788 396 0
-1789 -433 0
-1789 -434 0
-1789 -435 0
-1789 436 0
-1789 -437 0
-1789 -438 0
-1789 439 0
-1789 440 0
-1789 441 0
1790 1791 1792 1793 1794 1795 1796 1797 1798 1799 1800 1801 1802 1803 1804 1805 1806 1807 1808 0
-1790 -1 0
-1790 -2 0
-1790 -3 0
-1790 -4 0
-1790 5 0
-1790 6 0
-1790 -7 0
-1790 -8 0
-1790 9 0
-1791 -10 0
-1791 -11 0
-1791 -12 0
-1791 -13 0
-1791 14 0
-1791 15 0
-1791 -16 0
-1791 -17 0
-1791 18 0
-1792 -19 0
-1792 -20 0
-1792 -21 0
-1792 -22 0
-1792 23 0
-1792 24 0
-1792 -25 0
-1792 -26 0
-1792 27 0
-1793 -28 0
-1793 -29 0
-1793 -30 0
-1793 -31 0
-1793 32 0
-1793 33 0
-1793 -34 0
-1793 -35 0
-1793 36 0
-1794 -37 0
-1794 -38 0
-1794 -39 0
-1794 -40 0
-1794 41 0
-1794 42 0
-1794 -43 0
-1794 -44 0
-1794 45 0
-1795 -46 0
-1795 -47 0
-1795 -48 0
-1795 -49 0
-1795 50 0
-1795 51 0
-1795 -52 0
-1795 -53 0
-1795 54 0
-1796 -55 0
-1796 -56 0
-1796 -57 0
-1796 -58 0
-1796 59 0
-1796 60 0
-1796 -61 0
-1796 -62 0
-1796 63 0
-1797 -64 0
-1797 -65 0
-1797 -66 0
-1797 -67 0
-1797 68 0
-1797 69 0
-1797 -70 0
-1797 -71 0
-1797 72 0
-1798 -73 0
-1798 -74 0
-1798 -75 0
-1798 -76 0
-1798 77 0
-1798 78 0
-1798 -79 0
-1798 -80 0
-1798 81 0
-1799 -100 0
-1799 -101 0
-1799 -102 0
-1799 -103 0
-1799 104 0
-1799 105 0
-1799 -106 0
-1799 -107 0
-1799 108 0
-1800 -129 0
-1800 -130 0
-1800 -131 0
-1800 -132 0
-1800 133 0
-1800 134 0
-1800 -135 0
-1800 -136 0
-1800 137 0
-1801 -160 0
-1801 -161 0
-1801 -162 0
-1801 -163 0
-1801 164 0
-1801 165 0
-1801 -166 0
-1801 -167 0
-1801 168 0
-1802 -193 0
-1802 -194 0
-1802 -195 0
-1802 -196 0
-1802 197 0
-1802 198 0
-1802 -199 0
-1802 -200 0
-1802 201 0
-1803 -228 0
-1803 -229 0
-1803 -230 0
-1803 -231 0
-1803 232 0
-1803 233 0
-1803 -234 0
-1803 -235 0
-1803 236 0
-1804 -265 0
-1804 -266 0
-1804 -267 0
-1804 -268 0
-1804 269 0
-1804 270 0
-1804 -271 0
-1804 -272 0
-1804 273 0
-1805 -304 0
-1805 -305 0
-1805 -306 0
-1805 -307 0
-1805 308 0
-1805 309 0
-1805 -310 0
-1805 -311 0
-1805 312 0
-1806 -345 0
-1806 -346 0
-1806 -347 0
-1806 -348 0
-1806 349 0
-1806 350 0
-1806 -351 0
-1806 -352 0
-1806 353 0
-1807 -388 0
-1807 -389 0
-1807 -390 0
-1807 -391 0
-1807 392 0
-1807 393 0
-1807 -394 0
-1807 -395 0
-1807 396 0
-1808 -433 0
-1808 -434 0
-1808 -435 0
-1808 -436 0
-1808 437 0
-1808 438 0
-1808 -439 0
-1808 -440 0
-1808 441 0
1809 1810 1811 1812 1813 1814 1815 1816 1817 1818 1819 1820 1821 1822 1823 1824 1825 1826 1827 0
-1809 -1 0
-1809 -2 0
-1809 -3 0
-1809 4 0
-1809 -5 0
-1809 6 0
-1809 7 0
-1809 -8 0
-1809 9 0
-1810 -10 0
-1810 -11 0
-1810 -12 0
-1810 13 0
-1810 -14 0
-1810 15 0
-1810 16 0
-1810 -17 0
-1810 18 0
-1811 -19 0
-1811 -20 0
-1811 -21 0
-1811 22 0
-1811 -23 0
-1811 24 0
-1811 25 0
-1811 -26 0
-1811 27 0
-1812 -28 0
-1812 -29 0
-1812 -30 0
-1812 31 0
-1812 -32 0
-1812 33 0
-1812 34 0
-1812 -35 0
-1812 36 0
-1813 -37 0
-1813 -38 0
-1813 -39 0
-1813 40 0
-1813 -41 0
-1813 42 0
-1813 43 0
-1813 -44 0
-1813 45 0
-1814 -46 0
-1814 -47 0
-1814 -48 0
-1814 49 0
-1814 -50 0
-1814 51 0
-1814 52 0
-1814 -53 0
-1814 54 0
-1815 -55 0
-1815 -56 0
-1815 -57 0
-1815 58 0
-1815 -59 0
-1815 60 0
-1815 61 0
-1815 -62 0
-1815 63 0
-1816 -64 0
-1816 -65 0
-1816 -66 0
-1816 67 0
-1816 -68 0
-1816 69 0
-1816 70 0
-1816 -71 0
-1816 72 0
-1817 -73 0
-1817 -74 0
-1817 -75 0
-1817 76 0
-1817 -77 0
-1817 78 0
-1817 79 0
-1817 -80 0
-1817 81 0
-1818 -100 0
-1818 -101 0
-1818 -102 0
-1818 103 0
-1818 -104 0
-1818 105 0
-1818 106 0
-1818 -107 0
-1818 108 0
-1819 -129 0
-1819 -130 0
-1819 -131 0
-1819 132 0
-1819 -133 0
-1819 134 0
-1819 135 0
-1819 -136 0
-1819 137 0
-1820 -160 0
-1820 -161 0
-1820 -162 0
-1820 163 0
-1820 -164 0
-1820 165 0
-1820 166 0
-1820 -167 0
-1820 168 0
-1821 -193 0
-1821 -194 0
-1821 -195 0
-1821 196 0
-1821 -197 0
-1821 198 0
-1821 199 0
-1821 -200 0
-1821 201 0
-1822 -228 0
-1822 -229 0
-1822 -230 0
-1822 231 0
-1822 -232 0
-1822 233 0
-1822 234 0
-1822 -235 0
-1822 236 0
-1823 -265 0
-1823 -266 0
-1823 -267 0
-1823 268 0
-1823 -269 0
-1823 270 0
-1823 271 0
-1823 -272 0
-1823 273 0
-1824 -304 0
-1824 -305 0
-1824 -306 0
-1824 307 0
-1824 -308 0
-1824 309 0
-1824 310 0
-1824 -311 0
-1824 312 0
-1825 -345 0
-1825 -346 0
-1825 -347 0
-1825 348 0
-1825 -349 0
-1825 350 0
-1825 351 0
-1825 -352 0
-1825 353 0
-1826 -388 0
-1826 -389 0
-1826 -390 0
-1826 391 0
-1826 -392 0
-1826 393 0
-1826 394 0
-1826 -395 0
-1826 396 0
-1827 -433 0
-1827 -434 0
-1827 -435 0
-1827 436 0
-1827 -437 0
-1827 438 0
-1827 439 0
-1827 -440 0
-1827 441 0
