p cnf 660 9351
1 0
-2 0
-3 0
-4 0
-5 0
-6 0
-7 0
8 0
-9 0
-10 0
-11 0
-12 0
-13 0
-14 0
15 0
-16 0
-17 0
-18 0
-19 0
-20 0
-21 0
22 0
-23 0
-24 0
-25 0
-26 0
-27 0
-28 0
29 0
-30 0
-31 0
-32 0
-33 0
-34 0
-35 0
36 0
37 38 39 40 41 42 0
-37 -38 0
-37 -39 0
-37 -40 0
-37 -41 0
-37 -42 0
-38 -39 0
-38 -40 0
-38 -41 0
-38 -42 0
-39 -40 0
-39 -41 0
-39 -42 0
-40 -41 0
-40 -42 0
-41 -42 0
43 44 45 46 47 48 0
-43 -44 0
-43 -45 0
-43 -46 0
-43 -47 0
-43 -48 0
-44 -45 0
-44 -46 0
-44 -47 0
-44 -48 0
-45 -46 0
-45 -47 0
-45 -48 0
-46 -47 0
-46 -48 0
-47 -48 0
-37 -43 0
-38 -43 0
-38 -44 0
-39 -43 0
-39 -44 0
-39 -45 0
-40 -43 0
-40 -44 0
-40 -45 0
-40 -46 0
-41 -43 0
-41 -44 0
-41 -45 0
-41 -46 0
-41 -47 0
-42 -43 0
-42 -44 0
-42 -45 0
-42 -46 0
-42 -47 0
-42 -48 0
-37 -44 -1 -7 -49 0
-37 -44 -1 7 49 0
-37 -44 1 -7 49 0
-37 -44 1 7 -49 0
-37 -44 -2 -8 -50 0
-37 -44 -2 8 50 0
-37 -44 2 -8 50 0
-37 -44 2 8 -50 0
-37 -44 -3 -9 -51 0
-37 -44 -3 9 51 0
-37 -44 3 -9 51 0
-37 -44 3 9 -51 0
-37 -44 -4 -10 -52 0
-37 -44 -4 10 52 0
-37 -44 4 -10 52 0
-37 -44 4 10 -52 0
-37 -44 -5 -11 -53 0
-37 -44 -5 11 53 0
-37 -44 5 -11 53 0
-37 -44 5 11 -53 0
-37 -44 -6 -12 -54 0
-37 -44 -6 12 54 0
-37 -44 6 -12 54 0
-37 -44 6 12 -54 0
-37 -45 -1 -13 -49 0
-37 -45 -1 13 49 0
-37 -45 1 -13 49 0
-37 -45 1 13 -49 0
-37 -45 -2 -14 -50 0
-37 -45 -2 14 50 0
-37 -45 2 -14 50 0
-37 -45 2 14 -50 0
-37 -45 -3 -15 -51 0
-37 -45 -3 15 51 0
-37 -45 3 -15 51 0
-37 -45 3 15 -51 0
-37 -45 -4 -16 -52 0
-37 -45 -4 16 52 0
-37 -45 4 -16 52 0
-37 -45 4 16 -52 0
-37 -45 -5 -17 -53 0
-37 -45 -5 17 53 0
-37 -45 5 -17 53 0
-37 -45 5 17 -53 0
-37 -45 -6 -18 -54 0
-37 -45 -6 18 54 0
-37 -45 6 -18 54 0
-37 -45 6 18 -54 0
-37 -46 -1 -19 -49 0
-37 -46 -1 19 49 0
-37 -46 1 -19 49 0
-37 -46 1 19 -49 0
-37 -46 -2 -20 -50 0
-37 -46 -2 20 50 0
-37 -46 2 -20 50 0
-37 -46 2 20 -50 0
-37 -46 -3 -21 -51 0
-37 -46 -3 21 51 0
-37 -46 3 -21 51 0
-37 -46 3 21 -51 0
-37 -46 -4 -22 -52 0
-37 -46 -4 22 52 0
-37 -46 4 -22 52 0
-37 -46 4 22 -52 0
-37 -46 -5 -23 -53 0
-37 -46 -5 23 53 0
-37 -46 5 -23 53 0
-37 -46 5 23 -53 0
-37 -46 -6 -24 -54 0
-37 -46 -6 24 54 0
-37 -46 6 -24 54 0
-37 -46 6 24 -54 0
-37 -47 -1 -25 -49 0
-37 -47 -1 25 49 0
-37 -47 1 -25 49 0
-37 -47 1 25 -49 0
-37 -47 -2 -26 -50 0
-37 -47 -2 26 50 0
-37 -47 2 -26 50 0
-37 -47 2 26 -50 0
-37 -47 -3 -27 -51 0
-37 -47 -3 27 51 0
-37 -47 3 -27 51 0
-37 -47 3 27 -51 0
-37 -47 -4 -28 -52 0
-37 -47 -4 28 52 0
-37 -47 4 -28 52 0
-37 -47 4 28 -52 0
-37 -47 -5 -29 -53 0
-37 -47 -5 29 53 0
-37 -47 5 -29 53 0
-37 -47 5 29 -53 0
-37 -47 -6 -30 -54 0
-37 -47 -6 30 54 0
-37 -47 6 -30 54 0
-37 -47 6 30 -54 0
-37 -48 -1 -31 -49 0
-37 -48 -1 31 49 0
-37 -48 1 -31 49 0
-37 -48 1 31 -49 0
-37 -48 -2 -32 -50 0
-37 -48 -2 32 50 0
-37 -48 2 -32 50 0
-37 -48 2 32 -50 0
-37 -48 -3 -33 -51 0
-37 -48 -3 33 51 0
-37 -48 3 -33 51 0
-37 -48 3 33 -51 0
-37 -48 -4 -34 -52 0
-37 -48 -4 34 52 0
-37 -48 4 -34 52 0
-37 -48 4 34 -52 0
-37 -48 -5 -35 -53 0
-37 -48 -5 35 53 0
-37 -48 5 -35 53 0
-37 -48 5 35 -53 0
-37 -48 -6 -36 -54 0
-37 -48 -6 36 54 0
-37 -48 6 -36 54 0
-37 -48 6 36 -54 0
-38 -45 -7 -13 -49 0
-38 -45 -7 13 49 0
-38 -45 7 -13 49 0
-38 -45 7 13 -49 0
-38 -45 -8 -14 -50 0
-38 -45 -8 14 50 0
-38 -45 8 -14 50 0
-38 -45 8 14 -50 0
-38 -45 -9 -15 -51 0
-38 -45 -9 15 51 0
-38 -45 9 -15 51 0
-38 -45 9 15 -51 0
-38 -45 -10 -16 -52 0
-38 -45 -10 16 52 0
-38 -45 10 -16 52 0
-38 -45 10 16 -52 0
-38 -45 -11 -17 -53 0
-38 -45 -11 17 53 0
-38 -45 11 -17 53 0
-38 -45 11 17 -53 0
-38 -45 -12 -18 -54 0
-38 -45 -12 18 54 0
-38 -45 12 -18 54 0
-38 -45 12 18 -54 0
-38 -46 -7 -19 -49 0
-38 -46 -7 19 49 0
-38 -46 7 -19 49 0
-38 -46 7 19 -49 0
-38 -46 -8 -20 -50 0
-38 -46 -8 20 50 0
-38 -46 8 -20 50 0
-38 -46 8 20 -50 0
-38 -46 -9 -21 -51 0
-38 -46 -9 21 51 0
-38 -46 9 -21 51 0
-38 -46 9 21 -51 0
-38 -46 -10 -22 -52 0
-38 -46 -10 22 52 0
-38 -46 10 -22 52 0
-38 -46 10 22 -52 0
-38 -46 -11 -23 -53 0
-38 -46 -11 23 53 0
-38 -46 11 -23 53 0
-38 -46 11 23 -53 0
-38 -46 -12 -24 -54 0
-38 -46 -12 24 54 0
-38 -46 12 -24 54 0
-38 -46 12 24 -54 0
-38 -47 -7 -25 -49 0
-38 -47 -7 25 49 0
-38 -47 7 -25 49 0
-38 -47 7 25 -49 0
-38 -47 -8 -26 -50 0
-38 -47 -8 26 50 0
-38 -47 8 -26 50 0
-38 -47 8 26 -50 0
-38 -47 -9 -27 -51 0
-38 -47 -9 27 51 0
-38 -47 9 -27 51 0
-38 -47 9 27 -51 0
-38 -47 -10 -28 -52 0
-38 -47 -10 28 52 0
-38 -47 10 -28 52 0
-38 -47 10 28 -52 0
-38 -47 -11 -29 -53 0
-38 -47 -11 29 53 0
-38 -47 11 -29 53 0
-38 -47 11 29 -53 0
-38 -47 -12 -30 -54 0
-38 -47 -12 30 54 0
-38 -47 12 -30 54 0
-38 -47 12 30 -54 0
-38 -48 -7 -31 -49 0
-38 -48 -7 31 49 0
-38 -48 7 -31 49 0
-38 -48 7 31 -49 0
-38 -48 -8 -32 -50 0
-38 -48 -8 32 50 0
-38 -48 8 -32 50 0
-38 -48 8 32 -50 0
-38 -48 -9 -33 -51 0
-38 -48 -9 33 51 0
-38 -48 9 -33 51 0
-38 -48 9 33 -51 0
-38 -48 -10 -34 -52 0
-38 -48 -10 34 52 0
-38 -48 10 -34 52 0
-38 -48 10 34 -52 0
-38 -48 -11 -35 -53 0
-38 -48 -11 35 53 0
-38 -48 11 -35 53 0
-38 -48 11 35 -53 0
-38 -48 -12 -36 -54 0
-38 -48 -12 36 54 0
-38 -48 12 -36 54 0
-38 -48 12 36 -54 0
-39 -46 -13 -19 -49 0
-39 -46 -13 19 49 0
-39 -46 13 -19 49 0
-39 -46 13 19 -49 0
-39 -46 -14 -20 -50 0
-39 -46 -14 20 50 0
-39 -46 14 -20 50 0
-39 -46 14 20 -50 0
-39 -46 -15 -21 -51 0
-39 -46 -15 21 51 0
-39 -46 15 -21 51 0
-39 -46 15 21 -51 0
-39 -46 -16 -22 -52 0
-39 -46 -16 22 52 0
-39 -46 16 -22 52 0
-39 -46 16 22 -52 0
-39 -46 -17 -23 -53 0
-39 -46 -17 23 53 0
-39 -46 17 -23 53 0
-39 -46 17 23 -53 0
-39 -46 -18 -24 -54 0
-39 -46 -18 24 54 0
-39 -46 18 -24 54 0
-39 -46 18 24 -54 0
-39 -47 -13 -25 -49 0
-39 -47 -13 25 49 0
-39 -47 13 -25 49 0
-39 -47 13 25 -49 0
-39 -47 -14 -26 -50 0
-39 -47 -14 26 50 0
-39 -47 14 -26 50 0
-39 -47 14 26 -50 0
-39 -47 -15 -27 -51 0
-39 -47 -15 27 51 0
-39 -47 15 -27 51 0
-39 -47 15 27 -51 0
-39 -47 -16 -28 -52 0
-39 -47 -16 28 52 0
-39 -47 16 -28 52 0
-39 -47 16 28 -52 0
-39 -47 -17 -29 -53 0
-39 -47 -17 29 53 0
-39 -47 17 -29 53 0
-39 -47 17 29 -53 0
-39 -47 -18 -30 -54 0
-39 -47 -18 30 54 0
-39 -47 18 -30 54 0
-39 -47 18 30 -54 0
-39 -48 -13 -31 -49 0
-39 -48 -13 31 49 0
-39 -48 13 -31 49 0
-39 -48 13 31 -49 0
-39 -48 -14 -32 -50 0
-39 -48 -14 32 50 0
-39 -48 14 -32 50 0
-39 -48 14 32 -50 0
-39 -48 -15 -33 -51 0
-39 -48 -15 33 51 0
-39 -48 15 -33 51 0
-39 -48 15 33 -51 0
-39 -48 -16 -34 -52 0
-39 -48 -16 34 52 0
-39 -48 16 -34 52 0
-39 -48 16 34 -52 0
-39 -48 -17 -35 -53 0
-39 -48 -17 35 53 0
-39 -48 17 -35 53 0
-39 -48 17 35 -53 0
-39 -48 -18 -36 -54 0
-39 -48 -18 36 54 0
-39 -48 18 -36 54 0
-39 -48 18 36 -54 0
-40 -47 -19 -25 -49 0
-40 -47 -19 25 49 0
-40 -47 19 -25 49 0
-40 -47 19 25 -49 0
-40 -47 -20 -26 -50 0
-40 -47 -20 26 50 0
-40 -47 20 -26 50 0
-40 -47 20 26 -50 0
-40 -47 -21 -27 -51 0
-40 -47 -21 27 51 0
-40 -47 21 -27 51 0
-40 -47 21 27 -51 0
-40 -47 -22 -28 -52 0
-40 -47 -22 28 52 0
-40 -47 22 -28 52 0
-40 -47 22 28 -52 0
-40 -47 -23 -29 -53 0
-40 -47 -23 29 53 0
-40 -47 23 -29 53 0
-40 -47 23 29 -53 0
-40 -47 -24 -30 -54 0
-40 -47 -24 30 54 0
-40 -47 24 -30 54 0
-40 -47 24 30 -54 0
-40 -48 -19 -31 -49 0
-40 -48 -19 31 49 0
-40 -48 19 -31 49 0
-40 -48 19 31 -49 0
-40 -48 -20 -32 -50 0
-40 -48 -20 32 50 0
-40 -48 20 -32 50 0
-40 -48 20 32 -50 0
-40 -48 -21 -33 -51 0
-40 -48 -21 33 51 0
-40 -48 21 -33 51 0
-40 -48 21 33 -51 0
-40 -48 -22 -34 -52 0
-40 -48 -22 34 52 0
-40 -48 22 -34 52 0
-40 -48 22 34 -52 0
-40 -48 -23 -35 -53 0
-40 -48 -23 35 53 0
-40 -48 23 -35 53 0
-40 -48 23 35 -53 0
-40 -48 -24 -36 -54 0
-40 -48 -24 36 54 0
-40 -48 24 -36 54 0
-40 -48 24 36 -54 0
-41 -48 -25 -31 -49 0
-41 -48 -25 31 49 0
-41 -48 25 -31 49 0
-41 -48 25 31 -49 0
-41 -48 -26 -32 -50 0
-41 -48 -26 32 50 0
-41 -48 26 -32 50 0
-41 -48 26 32 -50 0
-41 -48 -27 -33 -51 0
-41 -48 -27 33 51 0
-41 -48 27 -33 51 0
-41 -48 27 33 -51 0
-41 -48 -28 -34 -52 0
-41 -48 -28 34 52 0
-41 -48 28 -34 52 0
-41 -48 28 34 -52 0
-41 -48 -29 -35 -53 0
-41 -48 -29 35 53 0
-41 -48 29 -35 53 0
-41 -48 29 35 -53 0
-41 -48 -30 -36 -54 0
-41 -48 -30 36 54 0
-41 -48 30 -36 54 0
-41 -48 30 36 -54 0
49 50 51 52 53 54 0
55 56 57 58 59 60 61 0
-55 -56 0
-55 -57 0
-55 -58 0
-55 -59 0
-55 -60 0
-55 -61 0
-56 -57 0
-56 -58 0
-56 -59 0
-56 -60 0
-56 -61 0
-57 -58 0
-57 -59 0
-57 -60 0
-57 -61 0
-58 -59 0
-58 -60 0
-58 -61 0
-59 -60 0
-59 -61 0
-60 -61 0
62 63 64 65 66 67 68 0
-62 -63 0
-62 -64 0
-62 -65 0
-62 -66 0
-62 -67 0
-62 -68 0
-63 -64 0
-63 -65 0
-63 -66 0
-63 -67 0
-63 -68 0
-64 -65 0
-64 -66 0
-64 -67 0
-64 -68 0
-65 -66 0
-65 -67 0
-65 -68 0
-66 -67 0
-66 -68 0
-67 -68 0
-55 -62 0
-56 -62 0
-56 -63 0
-57 -62 0
-57 -63 0
-57 -64 0
-58 -62 0
-58 -63 0
-58 -64 0
-58 -65 0
-59 -62 0
-59 -63 0
-59 -64 0
-59 -65 0
-59 -66 0
-60 -62 0
-60 -63 0
-60 -64 0
-60 -65 0
-60 -66 0
-60 -67 0
-61 -62 0
-61 -63 0
-61 -64 0
-61 -65 0
-61 -66 0
-61 -67 0
-61 -68 0
-55 -63 -1 -7 -69 0
-55 -63 -1 7 69 0
-55 -63 1 -7 69 0
-55 -63 1 7 -69 0
-55 -63 -2 -8 -70 0
-55 -63 -2 8 70 0
-55 -63 2 -8 70 0
-55 -63 2 8 -70 0
-55 -63 -3 -9 -71 0
-55 -63 -3 9 71 0
-55 -63 3 -9 71 0
-55 -63 3 9 -71 0
-55 -63 -4 -10 -72 0
-55 -63 -4 10 72 0
-55 -63 4 -10 72 0
-55 -63 4 10 -72 0
-55 -63 -5 -11 -73 0
-55 -63 -5 11 73 0
-55 -63 5 -11 73 0
-55 -63 5 11 -73 0
-55 -63 -6 -12 -74 0
-55 -63 -6 12 74 0
-55 -63 6 -12 74 0
-55 -63 6 12 -74 0
-55 -64 -1 -13 -69 0
-55 -64 -1 13 69 0
-55 -64 1 -13 69 0
-55 -64 1 13 -69 0
-55 -64 -2 -14 -70 0
-55 -64 -2 14 70 0
-55 -64 2 -14 70 0
-55 -64 2 14 -70 0
-55 -64 -3 -15 -71 0
-55 -64 -3 15 71 0
-55 -64 3 -15 71 0
-55 -64 3 15 -71 0
-55 -64 -4 -16 -72 0
-55 -64 -4 16 72 0
-55 -64 4 -16 72 0
-55 -64 4 16 -72 0
-55 -64 -5 -17 -73 0
-55 -64 -5 17 73 0
-55 -64 5 -17 73 0
-55 -64 5 17 -73 0
-55 -64 -6 -18 -74 0
-55 -64 -6 18 74 0
-55 -64 6 -18 74 0
-55 -64 6 18 -74 0
-55 -65 -1 -19 -69 0
-55 -65 -1 19 69 0
-55 -65 1 -19 69 0
-55 -65 1 19 -69 0
-55 -65 -2 -20 -70 0
-55 -65 -2 20 70 0
-55 -65 2 -20 70 0
-55 -65 2 20 -70 0
-55 -65 -3 -21 -71 0
-55 -65 -3 21 71 0
-55 -65 3 -21 71 0
-55 -65 3 21 -71 0
-55 -65 -4 -22 -72 0
-55 -65 -4 22 72 0
-55 -65 4 -22 72 0
-55 -65 4 22 -72 0
-55 -65 -5 -23 -73 0
-55 -65 -5 23 73 0
-55 -65 5 -23 73 0
-55 -65 5 23 -73 0
-55 -65 -6 -24 -74 0
-55 -65 -6 24 74 0
-55 -65 6 -24 74 0
-55 -65 6 24 -74 0
-55 -66 -1 -25 -69 0
-55 -66 -1 25 69 0
-55 -66 1 -25 69 0
-55 -66 1 25 -69 0
-55 -66 -2 -26 -70 0
-55 -66 -2 26 70 0
-55 -66 2 -26 70 0
-55 -66 2 26 -70 0
-55 -66 -3 -27 -71 0
-55 -66 -3 27 71 0
-55 -66 3 -27 71 0
-55 -66 3 27 -71 0
-55 -66 -4 -28 -72 0
-55 -66 -4 28 72 0
-55 -66 4 -28 72 0
-55 -66 4 28 -72 0
-55 -66 -5 -29 -73 0
-55 -66 -5 29 73 0
-55 -66 5 -29 73 0
-55 -66 5 29 -73 0
-55 -66 -6 -30 -74 0
-55 -66 -6 30 74 0
-55 -66 6 -30 74 0
-55 -66 6 30 -74 0
-55 -67 -1 -31 -69 0
-55 -67 -1 31 69 0
-55 -67 1 -31 69 0
-55 -67 1 31 -69 0
-55 -67 -2 -32 -70 0
-55 -67 -2 32 70 0
-55 -67 2 -32 70 0
-55 -67 2 32 -70 0
-55 -67 -3 -33 -71 0
-55 -67 -3 33 71 0
-55 -67 3 -33 71 0
-55 -67 3 33 -71 0
-55 -67 -4 -34 -72 0
-55 -67 -4 34 72 0
-55 -67 4 -34 72 0
-55 -67 4 34 -72 0
-55 -67 -5 -35 -73 0
-55 -67 -5 35 73 0
-55 -67 5 -35 73 0
-55 -67 5 35 -73 0
-55 -67 -6 -36 -74 0
-55 -67 -6 36 74 0
-55 -67 6 -36 74 0
-55 -67 6 36 -74 0
-55 -68 -1 -49 -69 0
-55 -68 -1 49 69 0
-55 -68 1 -49 69 0
-55 -68 1 49 -69 0
-55 -68 -2 -50 -70 0
-55 -68 -2 50 70 0
-55 -68 2 -50 70 0
-55 -68 2 50 -70 0
-55 -68 -3 -51 -71 0
-55 -68 -3 51 71 0
-55 -68 3 -51 71 0
-55 -68 3 51 -71 0
-55 -68 -4 -52 -72 0
-55 -68 -4 52 72 0
-55 -68 4 -52 72 0
-55 -68 4 52 -72 0
-55 -68 -5 -53 -73 0
-55 -68 -5 53 73 0
-55 -68 5 -53 73 0
-55 -68 5 53 -73 0
-55 -68 -6 -54 -74 0
-55 -68 -6 54 74 0
-55 -68 6 -54 74 0
-55 -68 6 54 -74 0
-56 -64 -7 -13 -69 0
-56 -64 -7 13 69 0
-56 -64 7 -13 69 0
-56 -64 7 13 -69 0
-56 -64 -8 -14 -70 0
-56 -64 -8 14 70 0
-56 -64 8 -14 70 0
-56 -64 8 14 -70 0
-56 -64 -9 -15 -71 0
-56 -64 -9 15 71 0
-56 -64 9 -15 71 0
-56 -64 9 15 -71 0
-56 -64 -10 -16 -72 0
-56 -64 -10 16 72 0
-56 -64 10 -16 72 0
-56 -64 10 16 -72 0
-56 -64 -11 -17 -73 0
-56 -64 -11 17 73 0
-56 -64 11 -17 73 0
-56 -64 11 17 -73 0
-56 -64 -12 -18 -74 0
-56 -64 -12 18 74 0
-56 -64 12 -18 74 0
-56 -64 12 18 -74 0
-56 -65 -7 -19 -69 0
-56 -65 -7 19 69 0
-56 -65 7 -19 69 0
-56 -65 7 19 -69 0
-56 -65 -8 -20 -70 0
-56 -65 -8 20 70 0
-56 -65 8 -20 70 0
-56 -65 8 20 -70 0
-56 -65 -9 -21 -71 0
-56 -65 -9 21 71 0
-56 -65 9 -21 71 0
-56 -65 9 21 -71 0
-56 -65 -10 -22 -72 0
-56 -65 -10 22 72 0
-56 -65 10 -22 72 0
-56 -65 10 22 -72 0
-56 -65 -11 -23 -73 0
-56 -65 -11 23 73 0
-56 -65 11 -23 73 0
-56 -65 11 23 -73 0
-56 -65 -12 -24 -74 0
-56 -65 -12 24 74 0
-56 -65 12 -24 74 0
-56 -65 12 24 -74 0
-56 -66 -7 -25 -69 0
-56 -66 -7 25 69 0
-56 -66 7 -25 69 0
-56 -66 7 25 -69 0
-56 -66 -8 -26 -70 0
-56 -66 -8 26 70 0
-56 -66 8 -26 70 0
-56 -66 8 26 -70 0
-56 -66 -9 -27 -71 0
-56 -66 -9 27 71 0
-56 -66 9 -27 71 0
-56 -66 9 27 -71 0
-56 -66 -10 -28 -72 0
-56 -66 -10 28 72 0
-56 -66 10 -28 72 0
-56 -66 10 28 -72 0
-56 -66 -11 -29 -73 0
-56 -66 -11 29 73 0
-56 -66 11 -29 73 0
-56 -66 11 29 -73 0
-56 -66 -12 -30 -74 0
-56 -66 -12 30 74 0
-56 -66 12 -30 74 0
-56 -66 12 30 -74 0
-56 -67 -7 -31 -69 0
-56 -67 -7 31 69 0
-56 -67 7 -31 69 0
-56 -67 7 31 -69 0
-56 -67 -8 -32 -70 0
-56 -67 -8 32 70 0
-56 -67 8 -32 70 0
-56 -67 8 32 -70 0
-56 -67 -9 -33 -71 0
-56 -67 -9 33 71 0
-56 -67 9 -33 71 0
-56 -67 9 33 -71 0
-56 -67 -10 -34 -72 0
-56 -67 -10 34 72 0
-56 -67 10 -34 72 0
-56 -67 10 34 -72 0
-56 -67 -11 -35 -73 0
-56 -67 -11 35 73 0
-56 -67 11 -35 73 0
-56 -67 11 35 -73 0
-56 -67 -12 -36 -74 0
-56 -67 -12 36 74 0
-56 -67 12 -36 74 0
-56 -67 12 36 -74 0
-56 -68 -7 -49 -69 0
-56 -68 -7 49 69 0
-56 -68 7 -49 69 0
-56 -68 7 49 -69 0
-56 -68 -8 -50 -70 0
-56 -68 -8 50 70 0
-56 -68 8 -50 70 0
-56 -68 8 50 -70 0
-56 -68 -9 -51 -71 0
-56 -68 -9 51 71 0
-56 -68 9 -51 71 0
-56 -68 9 51 -71 0
-56 -68 -10 -52 -72 0
-56 -68 -10 52 72 0
-56 -68 10 -52 72 0
-56 -68 10 52 -72 0
-56 -68 -11 -53 -73 0
-56 -68 -11 53 73 0
-56 -68 11 -53 73 0
-56 -68 11 53 -73 0
-56 -68 -12 -54 -74 0
-56 -68 -12 54 74 0
-56 -68 12 -54 74 0
-56 -68 12 54 -74 0
-57 -65 -13 -19 -69 0
-57 -65 -13 19 69 0
-57 -65 13 -19 69 0
-57 -65 13 19 -69 0
-57 -65 -14 -20 -70 0
-57 -65 -14 20 70 0
-57 -65 14 -20 70 0
-57 -65 14 20 -70 0
-57 -65 -15 -21 -71 0
-57 -65 -15 21 71 0
-57 -65 15 -21 71 0
-57 -65 15 21 -71 0
-57 -65 -16 -22 -72 0
-57 -65 -16 22 72 0
-57 -65 16 -22 72 0
-57 -65 16 22 -72 0
-57 -65 -17 -23 -73 0
-57 -65 -17 23 73 0
-57 -65 17 -23 73 0
-57 -65 17 23 -73 0
-57 -65 -18 -24 -74 0
-57 -65 -18 24 74 0
-57 -65 18 -24 74 0
-57 -65 18 24 -74 0
-57 -66 -13 -25 -69 0
-57 -66 -13 25 69 0
-57 -66 13 -25 69 0
-57 -66 13 25 -69 0
-57 -66 -14 -26 -70 0
-57 -66 -14 26 70 0
-57 -66 14 -26 70 0
-57 -66 14 26 -70 0
-57 -66 -15 -27 -71 0
-57 -66 -15 27 71 0
-57 -66 15 -27 71 0
-57 -66 15 27 -71 0
-57 -66 -16 -28 -72 0
-57 -66 -16 28 72 0
-57 -66 16 -28 72 0
-57 -66 16 28 -72 0
-57 -66 -17 -29 -73 0
-57 -66 -17 29 73 0
-57 -66 17 -29 73 0
-57 -66 17 29 -73 0
-57 -66 -18 -30 -74 0
-57 -66 -18 30 74 0
-57 -66 18 -30 74 0
-57 -66 18 30 -74 0
-57 -67 -13 -31 -69 0
-57 -67 -13 31 69 0
-57 -67 13 -31 69 0
-57 -67 13 31 -69 0
-57 -67 -14 -32 -70 0
-57 -67 -14 32 70 0
-57 -67 14 -32 70 0
-57 -67 14 32 -70 0
-57 -67 -15 -33 -71 0
-57 -67 -15 33 71 0
-57 -67 15 -33 71 0
-57 -67 15 33 -71 0
-57 -67 -16 -34 -72 0
-57 -67 -16 34 72 0
-57 -67 16 -34 72 0
-57 -67 16 34 -72 0
-57 -67 -17 -35 -73 0
-57 -67 -17 35 73 0
-57 -67 17 -35 73 0
-57 -67 17 35 -73 0
-57 -67 -18 -36 -74 0
-57 -67 -18 36 74 0
-57 -67 18 -36 74 0
-57 -67 18 36 -74 0
-57 -68 -13 -49 -69 0
-57 -68 -13 49 69 0
-57 -68 13 -49 69 0
-57 -68 13 49 -69 0
-57 -68 -14 -50 -70 0
-57 -68 -14 50 70 0
-57 -68 14 -50 70 0
-57 -68 14 50 -70 0
-57 -68 -15 -51 -71 0
-57 -68 -15 51 71 0
-57 -68 15 -51 71 0
-57 -68 15 51 -71 0
-57 -68 -16 -52 -72 0
-57 -68 -16 52 72 0
-57 -68 16 -52 72 0
-57 -68 16 52 -72 0
-57 -68 -17 -53 -73 0
-57 -68 -17 53 73 0
-57 -68 17 -53 73 0
-57 -68 17 53 -73 0
-57 -68 -18 -54 -74 0
-57 -68 -18 54 74 0
-57 -68 18 -54 74 0
-57 -68 18 54 -74 0
-58 -66 -19 -25 -69 0
-58 -66 -19 25 69 0
-58 -66 19 -25 69 0
-58 -66 19 25 -69 0
-58 -66 -20 -26 -70 0
-58 -66 -20 26 70 0
-58 -66 20 -26 70 0
-58 -66 20 26 -70 0
-58 -66 -21 -27 -71 0
-58 -66 -21 27 71 0
-58 -66 21 -27 71 0
-58 -66 21 27 -71 0
-58 -66 -22 -28 -72 0
-58 -66 -22 28 72 0
-58 -66 22 -28 72 0
-58 -66 22 28 -72 0
-58 -66 -23 -29 -73 0
-58 -66 -23 29 73 0
-58 -66 23 -29 73 0
-58 -66 23 29 -73 0
-58 -66 -24 -30 -74 0
-58 -66 -24 30 74 0
-58 -66 24 -30 74 0
-58 -66 24 30 -74 0
-58 -67 -19 -31 -69 0
-58 -67 -19 31 69 0
-58 -67 19 -31 69 0
-58 -67 19 31 -69 0
-58 -67 -20 -32 -70 0
-58 -67 -20 32 70 0
-58 -67 20 -32 70 0
-58 -67 20 32 -70 0
-58 -67 -21 -33 -71 0
-58 -67 -21 33 71 0
-58 -67 21 -33 71 0
-58 -67 21 33 -71 0
-58 -67 -22 -34 -72 0
-58 -67 -22 34 72 0
-58 -67 22 -34 72 0
-58 -67 22 34 -72 0
-58 -67 -23 -35 -73 0
-58 -67 -23 35 73 0
-58 -67 23 -35 73 0
-58 -67 23 35 -73 0
-58 -67 -24 -36 -74 0
-58 -67 -24 36 74 0
-58 -67 24 -36 74 0
-58 -67 24 36 -74 0
-58 -68 -19 -49 -69 0
-58 -68 -19 49 69 0
-58 -68 19 -49 69 0
-58 -68 19 49 -69 0
-58 -68 -20 -50 -70 0
-58 -68 -20 50 70 0
-58 -68 20 -50 70 0
-58 -68 20 50 -70 0
-58 -68 -21 -51 -71 0
-58 -68 -21 51 71 0
-58 -68 21 -51 71 0
-58 -68 21 51 -71 0
-58 -68 -22 -52 -72 0
-58 -68 -22 52 72 0
-58 -68 22 -52 72 0
-58 -68 22 52 -72 0
-58 -68 -23 -53 -73 0
-58 -68 -23 53 73 0
-58 -68 23 -53 73 0
-58 -68 23 53 -73 0
-58 -68 -24 -54 -74 0
-58 -68 -24 54 74 0
-58 -68 24 -54 74 0
-58 -68 24 54 -74 0
-59 -67 -25 -31 -69 0
-59 -67 -25 31 69 0
-59 -67 25 -31 69 0
-59 -67 25 31 -69 0
-59 -67 -26 -32 -70 0
-59 -67 -26 32 70 0
-59 -67 26 -32 70 0
-59 -67 26 32 -70 0
-59 -67 -27 -33 -71 0
-59 -67 -27 33 71 0
-59 -67 27 -33 71 0
-59 -67 27 33 -71 0
-59 -67 -28 -34 -72 0
-59 -67 -28 34 72 0
-59 -67 28 -34 72 0
-59 -67 28 34 -72 0
-59 -67 -29 -35 -73 0
-59 -67 -29 35 73 0
-59 -67 29 -35 73 0
-59 -67 29 35 -73 0
-59 -67 -30 -36 -74 0
-59 -67 -30 36 74 0
-59 -67 30 -36 74 0
-59 -67 30 36 -74 0
-59 -68 -25 -49 -69 0
-59 -68 -25 49 69 0
-59 -68 25 -49 69 0
-59 -68 25 49 -69 0
-59 -68 -26 -50 -70 0
-59 -68 -26 50 70 0
-59 -68 26 -50 70 0
-59 -68 26 50 -70 0
-59 -68 -27 -51 -71 0
-59 -68 -27 51 71 0
-59 -68 27 -51 71 0
-59 -68 27 51 -71 0
-59 -68 -28 -52 -72 0
-59 -68 -28 52 72 0
-59 -68 28 -52 72 0
-59 -68 28 52 -72 0
-59 -68 -29 -53 -73 0
-59 -68 -29 53 73 0
-59 -68 29 -53 73 0
-59 -68 29 53 -73 0
-59 -68 -30 -54 -74 0
-59 -68 -30 54 74 0
-59 -68 30 -54 74 0
-59 -68 30 54 -74 0
-60 -68 -31 -49 -69 0
-60 -68 -31 49 69 0
-60 -68 31 -49 69 0
-60 -68 31 49 -69 0
-60 -68 -32 -50 -70 0
-60 -68 -32 50 70 0
-60 -68 32 -50 70 0
-60 -68 32 50 -70 0
-60 -68 -33 -51 -71 0
-60 -68 -33 51 71 0
-60 -68 33 -51 71 0
-60 -68 33 51 -71 0
-60 -68 -34 -52 -72 0
-60 -68 -34 52 72 0
-60 -68 34 -52 72 0
-60 -68 34 52 -72 0
-60 -68 -35 -53 -73 0
-60 -68 -35 53 73 0
-60 -68 35 -53 73 0
-60 -68 35 53 -73 0
-60 -68 -36 -54 -74 0
-60 -68 -36 54 74 0
-60 -68 36 -54 74 0
-60 -68 36 54 -74 0
69 70 71 72 73 74 0
75 76 77 78 79 80 81 82 0
-75 -76 0
-75 -77 0
-75 -78 0
-75 -79 0
-75 -80 0
-75 -81 0
-75 -82 0
-76 -77 0
-76 -78 0
-76 -79 0
-76 -80 0
-76 -81 0
-76 -82 0
-77 -78 0
-77 -79 0
-77 -80 0
-77 -81 0
-77 -82 0
-78 -79 0
-78 -80 0
-78 -81 0
-78 -82 0
-79 -80 0
-79 -81 0
-79 -82 0
-80 -81 0
-80 -82 0
-81 -82 0
83 84 85 86 87 88 89 90 0
-83 -84 0
-83 -85 0
-83 -86 0
-83 -87 0
-83 -88 0
-83 -89 0
-83 -90 0
-84 -85 0
-84 -86 0
-84 -87 0
-84 -88 0
-84 -89 0
-84 -90 0
-85 -86 0
-85 -87 0
-85 -88 0
-85 -89 0
-85 -90 0
-86 -87 0
-86 -88 0
-86 -89 0
-86 -90 0
-87 -88 0
-87 -89 0
-87 -90 0
-88 -89 0
-88 -90 0
-89 -90 0
-75 -83 0
-76 -83 0
-76 -84 0
-77 -83 0
-77 -84 0
-77 -85 0
-78 -83 0
-78 -84 0
-78 -85 0
-78 -86 0
-79 -83 0
-79 -84 0
-79 -85 0
-79 -86 0
-79 -87 0
-80 -83 0
-80 -84 0
-80 -85 0
-80 -86 0
-80 -87 0
-80 -88 0
-81 -83 0
-81 -84 0
-81 -85 0
-81 -86 0
-81 -87 0
-81 -88 0
-81 -89 0
-82 -83 0
-82 -84 0
-82 -85 0
-82 -86 0
-82 -87 0
-82 -88 0
-82 -89 0
-82 -90 0
-75 -84 -1 -7 -91 0
-75 -84 -1 7 91 0
-75 -84 1 -7 91 0
-75 -84 1 7 -91 0
-75 -84 -2 -8 -92 0
-75 -84 -2 8 92 0
-75 -84 2 -8 92 0
-75 -84 2 8 -92 0
-75 -84 -3 -9 -93 0
-75 -84 -3 9 93 0
-75 -84 3 -9 93 0
-75 -84 3 9 -93 0
-75 -84 -4 -10 -94 0
-75 -84 -4 10 94 0
-75 -84 4 -10 94 0
-75 -84 4 10 -94 0
-75 -84 -5 -11 -95 0
-75 -84 -5 11 95 0
-75 -84 5 -11 95 0
-75 -84 5 11 -95 0
-75 -84 -6 -12 -96 0
-75 -84 -6 12 96 0
-75 -84 6 -12 96 0
-75 -84 6 12 -96 0
-75 -85 -1 -13 -91 0
-75 -85 -1 13 91 0
-75 -85 1 -13 91 0
-75 -85 1 13 -91 0
-75 -85 -2 -14 -92 0
-75 -85 -2 14 92 0
-75 -85 2 -14 92 0
-75 -85 2 14 -92 0
-75 -85 -3 -15 -93 0
-75 -85 -3 15 93 0
-75 -85 3 -15 93 0
-75 -85 3 15 -93 0
-75 -85 -4 -16 -94 0
-75 -85 -4 16 94 0
-75 -85 4 -16 94 0
-75 -85 4 16 -94 0
-75 -85 -5 -17 -95 0
-75 -85 -5 17 95 0
-75 -85 5 -17 95 0
-75 -85 5 17 -95 0
-75 -85 -6 -18 -96 0
-75 -85 -6 18 96 0
-75 -85 6 -18 96 0
-75 -85 6 18 -96 0
-75 -86 -1 -19 -91 0
-75 -86 -1 19 91 0
-75 -86 1 -19 91 0
-75 -86 1 19 -91 0
-75 -86 -2 -20 -92 0
-75 -86 -2 20 92 0
-75 -86 2 -20 92 0
-75 -86 2 20 -92 0
-75 -86 -3 -21 -93 0
-75 -86 -3 21 93 0
-75 -86 3 -21 93 0
-75 -86 3 21 -93 0
-75 -86 -4 -22 -94 0
-75 -86 -4 22 94 0
-75 -86 4 -22 94 0
-75 -86 4 22 -94 0
-75 -86 -5 -23 -95 0
-75 -86 -5 23 95 0
-75 -86 5 -23 95 0
-75 -86 5 23 -95 0
-75 -86 -6 -24 -96 0
-75 -86 -6 24 96 0
-75 -86 6 -24 96 0
-75 -86 6 24 -96 0
-75 -87 -1 -25 -91 0
-75 -87 -1 25 91 0
-75 -87 1 -25 91 0
-75 -87 1 25 -91 0
-75 -87 -2 -26 -92 0
-75 -87 -2 26 92 0
-75 -87 2 -26 92 0
-75 -87 2 26 -92 0
-75 -87 -3 -27 -93 0
-75 -87 -3 27 93 0
-75 -87 3 -27 93 0
-75 -87 3 27 -93 0
-75 -87 -4 -28 -94 0
-75 -87 -4 28 94 0
-75 -87 4 -28 94 0
-75 -87 4 28 -94 0
-75 -87 -5 -29 -95 0
-75 -87 -5 29 95 0
-75 -87 5 -29 95 0
-75 -87 5 29 -95 0
-75 -87 -6 -30 -96 0
-75 -87 -6 30 96 0
-75 -87 6 -30 96 0
-75 -87 6 30 -96 0
-75 -88 -1 -31 -91 0
-75 -88 -1 31 91 0
-75 -88 1 -31 91 0
-75 -88 1 31 -91 0
-75 -88 -2 -32 -92 0
-75 -88 -2 32 92 0
-75 -88 2 -32 92 0
-75 -88 2 32 -92 0
-75 -88 -3 -33 -93 0
-75 -88 -3 33 93 0
-75 -88 3 -33 93 0
-75 -88 3 33 -93 0
-75 -88 -4 -34 -94 0
-75 -88 -4 34 94 0
-75 -88 4 -34 94 0
-75 -88 4 34 -94 0
-75 -88 -5 -35 -95 0
-75 -88 -5 35 95 0
-75 -88 5 -35 95 0
-75 -88 5 35 -95 0
-75 -88 -6 -36 -96 0
-75 -88 -6 36 96 0
-75 -88 6 -36 96 0
-75 -88 6 36 -96 0
-75 -89 -1 -49 -91 0
-75 -89 -1 49 91 0
-75 -89 1 -49 91 0
-75 -89 1 49 -91 0
-75 -89 -2 -50 -92 0
-75 -89 -2 50 92 0
-75 -89 2 -50 92 0
-75 -89 2 50 -92 0
-75 -89 -3 -51 -93 0
-75 -89 -3 51 93 0
-75 -89 3 -51 93 0
-75 -89 3 51 -93 0
-75 -89 -4 -52 -94 0
-75 -89 -4 52 94 0
-75 -89 4 -52 94 0
-75 -89 4 52 -94 0
-75 -89 -5 -53 -95 0
-75 -89 -5 53 95 0
-75 -89 5 -53 95 0
-75 -89 5 53 -95 0
-75 -89 -6 -54 -96 0
-75 -89 -6 54 96 0
-75 -89 6 -54 96 0
-75 -89 6 54 -96 0
-75 -90 -1 -69 -91 0
-75 -90 -1 69 91 0
-75 -90 1 -69 91 0
-75 -90 1 69 -91 0
-75 -90 -2 -70 -92 0
-75 -90 -2 70 92 0
-75 -90 2 -70 92 0
-75 -90 2 70 -92 0
-75 -90 -3 -71 -93 0
-75 -90 -3 71 93 0
-75 -90 3 -71 93 0
-75 -90 3 71 -93 0
-75 -90 -4 -72 -94 0
-75 -90 -4 72 94 0
-75 -90 4 -72 94 0
-75 -90 4 72 -94 0
-75 -90 -5 -73 -95 0
-75 -90 -5 73 95 0
-75 -90 5 -73 95 0
-75 -90 5 73 -95 0
-75 -90 -6 -74 -96 0
-75 -90 -6 74 96 0
-75 -90 6 -74 96 0
-75 -90 6 74 -96 0
-76 -85 -7 -13 -91 0
-76 -85 -7 13 91 0
-76 -85 7 -13 91 0
-76 -85 7 13 -91 0
-76 -85 -8 -14 -92 0
-76 -85 -8 14 92 0
-76 -85 8 -14 92 0
-76 -85 8 14 -92 0
-76 -85 -9 -15 -93 0
-76 -85 -9 15 93 0
-76 -85 9 -15 93 0
-76 -85 9 15 -93 0
-76 -85 -10 -16 -94 0
-76 -85 -10 16 94 0
-76 -85 10 -16 94 0
-76 -85 10 16 -94 0
-76 -85 -11 -17 -95 0
-76 -85 -11 17 95 0
-76 -85 11 -17 95 0
-76 -85 11 17 -95 0
-76 -85 -12 -18 -96 0
-76 -85 -12 18 96 0
-76 -85 12 -18 96 0
-76 -85 12 18 -96 0
-76 -86 -7 -19 -91 0
-76 -86 -7 19 91 0
-76 -86 7 -19 91 0
-76 -86 7 19 -91 0
-76 -86 -8 -20 -92 0
-76 -86 -8 20 92 0
-76 -86 8 -20 92 0
-76 -86 8 20 -92 0
-76 -86 -9 -21 -93 0
-76 -86 -9 21 93 0
-76 -86 9 -21 93 0
-76 -86 9 21 -93 0
-76 -86 -10 -22 -94 0
-76 -86 -10 22 94 0
-76 -86 10 -22 94 0
-76 -86 10 22 -94 0
-76 -86 -11 -23 -95 0
-76 -86 -11 23 95 0
-76 -86 11 -23 95 0
-76 -86 11 23 -95 0
-76 -86 -12 -24 -96 0
-76 -86 -12 24 96 0
-76 -86 12 -24 96 0
-76 -86 12 24 -96 0
-76 -87 -7 -25 -91 0
-76 -87 -7 25 91 0
-76 -87 7 -25 91 0
-76 -87 7 25 -91 0
-76 -87 -8 -26 -92 0
-76 -87 -8 26 92 0
-76 -87 8 -26 92 0
-76 -87 8 26 -92 0
-76 -87 -9 -27 -93 0
-76 -87 -9 27 93 0
-76 -87 9 -27 93 0
-76 -87 9 27 -93 0
-76 -87 -10 -28 -94 0
-76 -87 -10 28 94 0
-76 -87 10 -28 94 0
-76 -87 10 28 -94 0
-76 -87 -11 -29 -95 0
-76 -87 -11 29 95 0
-76 -87 11 -29 95 0
-76 -87 11 29 -95 0
-76 -87 -12 -30 -96 0
-76 -87 -12 30 96 0
-76 -87 12 -30 96 0
-76 -87 12 30 -96 0
-76 -88 -7 -31 -91 0
-76 -88 -7 31 91 0
-76 -88 7 -31 91 0
-76 -88 7 31 -91 0
-76 -88 -8 -32 -92 0
-76 -88 -8 32 92 0
-76 -88 8 -32 92 0
-76 -88 8 32 -92 0
-76 -88 -9 -33 -93 0
-76 -88 -9 33 93 0
-76 -88 9 -33 93 0
-76 -88 9 33 -93 0
-76 -88 -10 -34 -94 0
-76 -88 -10 34 94 0
-76 -88 10 -34 94 0
-76 -88 10 34 -94 0
-76 -88 -11 -35 -95 0
-76 -88 -11 35 95 0
-76 -88 11 -35 95 0
-76 -88 11 35 -95 0
-76 -88 -12 -36 -96 0
-76 -88 -12 36 96 0
-76 -88 12 -36 96 0
-76 -88 12 36 -96 0
-76 -89 -7 -49 -91 0
-76 -89 -7 49 91 0
-76 -89 7 -49 91 0
-76 -89 7 49 -91 0
-76 -89 -8 -50 -92 0
-76 -89 -8 50 92 0
-76 -89 8 -50 92 0
-76 -89 8 50 -92 0
-76 -89 -9 -51 -93 0
-76 -89 -9 51 93 0
-76 -89 9 -51 93 0
-76 -89 9 51 -93 0
-76 -89 -10 -52 -94 0
-76 -89 -10 52 94 0
-76 -89 10 -52 94 0
-76 -89 10 52 -94 0
-76 -89 -11 -53 -95 0
-76 -89 -11 53 95 0
-76 -89 11 -53 95 0
-76 -89 11 53 -95 0
-76 -89 -12 -54 -96 0
-76 -89 -12 54 96 0
-76 -89 12 -54 96 0
-76 -89 12 54 -96 0
-76 -90 -7 -69 -91 0
-76 -90 -7 69 91 0
-76 -90 7 -69 91 0
-76 -90 7 69 -91 0
-76 -90 -8 -70 -92 0
-76 -90 -8 70 92 0
-76 -90 8 -70 92 0
-76 -90 8 70 -92 0
-76 -90 -9 -71 -93 0
-76 -90 -9 71 93 0
-76 -90 9 -71 93 0
-76 -90 9 71 -93 0
-76 -90 -10 -72 -94 0
-76 -90 -10 72 94 0
-76 -90 10 -72 94 0
-76 -90 10 72 -94 0
-76 -90 -11 -73 -95 0
-76 -90 -11 73 95 0
-76 -90 11 -73 95 0
-76 -90 11 73 -95 0
-76 -90 -12 -74 -96 0
-76 -90 -12 74 96 0
-76 -90 12 -74 96 0
-76 -90 12 74 -96 0
-77 -86 -13 -19 -91 0
-77 -86 -13 19 91 0
-77 -86 13 -19 91 0
-77 -86 13 19 -91 0
-77 -86 -14 -20 -92 0
-77 -86 -14 20 92 0
-77 -86 14 -20 92 0
-77 -86 14 20 -92 0
-77 -86 -15 -21 -93 0
-77 -86 -15 21 93 0
-77 -86 15 -21 93 0
-77 -86 15 21 -93 0
-77 -86 -16 -22 -94 0
-77 -86 -16 22 94 0
-77 -86 16 -22 94 0
-77 -86 16 22 -94 0
-77 -86 -17 -23 -95 0
-77 -86 -17 23 95 0
-77 -86 17 -23 95 0
-77 -86 17 23 -95 0
-77 -86 -18 -24 -96 0
-77 -86 -18 24 96 0
-77 -86 18 -24 96 0
-77 -86 18 24 -96 0
-77 -87 -13 -25 -91 0
-77 -87 -13 25 91 0
-77 -87 13 -25 91 0
-77 -87 13 25 -91 0
-77 -87 -14 -26 -92 0
-77 -87 -14 26 92 0
-77 -87 14 -26 92 0
-77 -87 14 26 -92 0
-77 -87 -15 -27 -93 0
-77 -87 -15 27 93 0
-77 -87 15 -27 93 0
-77 -87 15 27 -93 0
-77 -87 -16 -28 -94 0
-77 -87 -16 28 94 0
-77 -87 16 -28 94 0
-77 -87 16 28 -94 0
-77 -87 -17 -29 -95 0
-77 -87 -17 29 95 0
-77 -87 17 -29 95 0
-77 -87 17 29 -95 0
-77 -87 -18 -30 -96 0
-77 -87 -18 30 96 0
-77 -87 18 -30 96 0
-77 -87 18 30 -96 0
-77 -88 -13 -31 -91 0
-77 -88 -13 31 91 0
-77 -88 13 -31 91 0
-77 -88 13 31 -91 0
-77 -88 -14 -32 -92 0
-77 -88 -14 32 92 0
-77 -88 14 -32 92 0
-77 -88 14 32 -92 0
-77 -88 -15 -33 -93 0
-77 -88 -15 33 93 0
-77 -88 15 -33 93 0
-77 -88 15 33 -93 0
-77 -88 -16 -34 -94 0
-77 -88 -16 34 94 0
-77 -88 16 -34 94 0
-77 -88 16 34 -94 0
-77 -88 -17 -35 -95 0
-77 -88 -17 35 95 0
-77 -88 17 -35 95 0
-77 -88 17 35 -95 0
-77 -88 -18 -36 -96 0
-77 -88 -18 36 96 0
-77 -88 18 -36 96 0
-77 -88 18 36 -96 0
-77 -89 -13 -49 -91 0
-77 -89 -13 49 91 0
-77 -89 13 -49 91 0
-77 -89 13 49 -91 0
-77 -89 -14 -50 -92 0
-77 -89 -14 50 92 0
-77 -89 14 -50 92 0
-77 -89 14 50 -92 0
-77 -89 -15 -51 -93 0
-77 -89 -15 51 93 0
-77 -89 15 -51 93 0
-77 -89 15 51 -93 0
-77 -89 -16 -52 -94 0
-77 -89 -16 52 94 0
-77 -89 16 -52 94 0
-77 -89 16 52 -94 0
-77 -89 -17 -53 -95 0
-77 -89 -17 53 95 0
-77 -89 17 -53 95 0
-77 -89 17 53 -95 0
-77 -89 -18 -54 -96 0
-77 -89 -18 54 96 0
-77 -89 18 -54 96 0
-77 -89 18 54 -96 0
-77 -90 -13 -69 -91 0
-77 -90 -13 69 91 0
-77 -90 13 -69 91 0
-77 -90 13 69 -91 0
-77 -90 -14 -70 -92 0
-77 -90 -14 70 92 0
-77 -90 14 -70 92 0
-77 -90 14 70 -92 0
-77 -90 -15 -71 -93 0
-77 -90 -15 71 93 0
-77 -90 15 -71 93 0
-77 -90 15 71 -93 0
-77 -90 -16 -72 -94 0
-77 -90 -16 72 94 0
-77 -90 16 -72 94 0
-77 -90 16 72 -94 0
-77 -90 -17 -73 -95 0
-77 -90 -17 73 95 0
-77 -90 17 -73 95 0
-77 -90 17 73 -95 0
-77 -90 -18 -74 -96 0
-77 -90 -18 74 96 0
-77 -90 18 -74 96 0
-77 -90 18 74 -96 0
-78 -87 -19 -25 -91 0
-78 -87 -19 25 91 0
-78 -87 19 -25 91 0
-78 -87 19 25 -91 0
-78 -87 -20 -26 -92 0
-78 -87 -20 26 92 0
-78 -87 20 -26 92 0
-78 -87 20 26 -92 0
-78 -87 -21 -27 -93 0
-78 -87 -21 27 93 0
-78 -87 21 -27 93 0
-78 -87 21 27 -93 0
-78 -87 -22 -28 -94 0
-78 -87 -22 28 94 0
-78 -87 22 -28 94 0
-78 -87 22 28 -94 0
-78 -87 -23 -29 -95 0
-78 -87 -23 29 95 0
-78 -87 23 -29 95 0
-78 -87 23 29 -95 0
-78 -87 -24 -30 -96 0
-78 -87 -24 30 96 0
-78 -87 24 -30 96 0
-78 -87 24 30 -96 0
-78 -88 -19 -31 -91 0
-78 -88 -19 31 91 0
-78 -88 19 -31 91 0
-78 -88 19 31 -91 0
-78 -88 -20 -32 -92 0
-78 -88 -20 32 92 0
-78 -88 20 -32 92 0
-78 -88 20 32 -92 0
-78 -88 -21 -33 -93 0
-78 -88 -21 33 93 0
-78 -88 21 -33 93 0
-78 -88 21 33 -93 0
-78 -88 -22 -34 -94 0
-78 -88 -22 34 94 0
-78 -88 22 -34 94 0
-78 -88 22 34 -94 0
-78 -88 -23 -35 -95 0
-78 -88 -23 35 95 0
-78 -88 23 -35 95 0
-78 -88 23 35 -95 0
-78 -88 -24 -36 -96 0
-78 -88 -24 36 96 0
-78 -88 24 -36 96 0
-78 -88 24 36 -96 0
-78 -89 -19 -49 -91 0
-78 -89 -19 49 91 0
-78 -89 19 -49 91 0
-78 -89 19 49 -91 0
-78 -89 -20 -50 -92 0
-78 -89 -20 50 92 0
-78 -89 20 -50 92 0
-78 -89 20 50 -92 0
-78 -89 -21 -51 -93 0
-78 -89 -21 51 93 0
-78 -89 21 -51 93 0
-78 -89 21 51 -93 0
-78 -89 -22 -52 -94 0
-78 -89 -22 52 94 0
-78 -89 22 -52 94 0
-78 -89 22 52 -94 0
-78 -89 -23 -53 -95 0
-78 -89 -23 53 95 0
-78 -89 23 -53 95 0
-78 -89 23 53 -95 0
-78 -89 -24 -54 -96 0
-78 -89 -24 54 96 0
-78 -89 24 -54 96 0
-78 -89 24 54 -96 0
-78 -90 -19 -69 -91 0
-78 -90 -19 69 91 0
-78 -90 19 -69 91 0
-78 -90 19 69 -91 0
-78 -90 -20 -70 -92 0
-78 -90 -20 70 92 0
-78 -90 20 -70 92 0
-78 -90 20 70 -92 0
-78 -90 -21 -71 -93 0
-78 -90 -21 71 93 0
-78 -90 21 -71 93 0
-78 -90 21 71 -93 0
-78 -90 -22 -72 -94 0
-78 -90 -22 72 94 0
-78 -90 22 -72 94 0
-78 -90 22 72 -94 0
-78 -90 -23 -73 -95 0
-78 -90 -23 73 95 0
-78 -90 23 -73 95 0
-78 -90 23 73 -95 0
-78 -90 -24 -74 -96 0
-78 -90 -24 74 96 0
-78 -90 24 -74 96 0
-78 -90 24 74 -96 0
-79 -88 -25 -31 -91 0
-79 -88 -25 31 91 0
-79 -88 25 -31 91 0
-79 -88 25 31 -91 0
-79 -88 -26 -32 -92 0
-79 -88 -26 32 92 0
-79 -88 26 -32 92 0
-79 -88 26 32 -92 0
-79 -88 -27 -33 -93 0
-79 -88 -27 33 93 0
-79 -88 27 -33 93 0
-79 -88 27 33 -93 0
-79 -88 -28 -34 -94 0
-79 -88 -28 34 94 0
-79 -88 28 -34 94 0
-79 -88 28 34 -94 0
-79 -88 -29 -35 -95 0
-79 -88 -29 35 95 0
-79 -88 29 -35 95 0
-79 -88 29 35 -95 0
-79 -88 -30 -36 -96 0
-79 -88 -30 36 96 0
-79 -88 30 -36 96 0
-79 -88 30 36 -96 0
-79 -89 -25 -49 -91 0
-79 -89 -25 49 91 0
-79 -89 25 -49 91 0
-79 -89 25 49 -91 0
-79 -89 -26 -50 -92 0
-79 -89 -26 50 92 0
-79 -89 26 -50 92 0
-79 -89 26 50 -92 0
-79 -89 -27 -51 -93 0
-79 -89 -27 51 93 0
-79 -89 27 -51 93 0
-79 -89 27 51 -93 0
-79 -89 -28 -52 -94 0
-79 -89 -28 52 94 0
-79 -89 28 -52 94 0
-79 -89 28 52 -94 0
-79 -89 -29 -53 -95 0
-79 -89 -29 53 95 0
-79 -89 29 -53 95 0
-79 -89 29 53 -95 0
-79 -89 -30 -54 -96 0
-79 -89 -30 54 96 0
-79 -89 30 -54 96 0
-79 -89 30 54 -96 0
-79 -90 -25 -69 -91 0
-79 -90 -25 69 91 0
-79 -90 25 -69 91 0
-79 -90 25 69 -91 0
-79 -90 -26 -70 -92 0
-79 -90 -26 70 92 0
-79 -90 26 -70 92 0
-79 -90 26 70 -92 0
-79 -90 -27 -71 -93 0
-79 -90 -27 71 93 0
-79 -90 27 -71 93 0
-79 -90 27 71 -93 0
-79 -90 -28 -72 -94 0
-79 -90 -28 72 94 0
-79 -90 28 -72 94 0
-79 -90 28 72 -94 0
-79 -90 -29 -73 -95 0
-79 -90 -29 73 95 0
-79 -90 29 -73 95 0
-79 -90 29 73 -95 0
-79 -90 -30 -74 -96 0
-79 -90 -30 74 96 0
-79 -90 30 -74 96 0
-79 -90 30 74 -96 0
-80 -89 -31 -49 -91 0
-80 -89 -31 49 91 0
-80 -89 31 -49 91 0
-80 -89 31 49 -91 0
-80 -89 -32 -50 -92 0
-80 -89 -32 50 92 0
-80 -89 32 -50 92 0
-80 -89 32 50 -92 0
-80 -89 -33 -51 -93 0
-80 -89 -33 51 93 0
-80 -89 33 -51 93 0
-80 -89 33 51 -93 0
-80 -89 -34 -52 -94 0
-80 -89 -34 52 94 0
-80 -89 34 -52 94 0
-80 -89 34 52 -94 0
-80 -89 -35 -53 -95 0
-80 -89 -35 53 95 0
-80 -89 35 -53 95 0
-80 -89 35 53 -95 0
-80 -89 -36 -54 -96 0
-80 -89 -36 54 96 0
-80 -89 36 -54 96 0
-80 -89 36 54 -96 0
-80 -90 -31 -69 -91 0
-80 -90 -31 69 91 0
-80 -90 31 -69 91 0
-80 -90 31 69 -91 0
-80 -90 -32 -70 -92 0
-80 -90 -32 70 92 0
-80 -90 32 -70 92 0
-80 -90 32 70 -92 0
-80 -90 -33 -71 -93 0
-80 -90 -33 71 93 0
-80 -90 33 -71 93 0
-80 -90 33 71 -93 0
-80 -90 -34 -72 -94 0
-80 -90 -34 72 94 0
-80 -90 34 -72 94 0
-80 -90 34 72 -94 0
-80 -90 -35 -73 -95 0
-80 -90 -35 73 95 0
-80 -90 35 -73 95 0
-80 -90 35 73 -95 0
-80 -90 -36 -74 -96 0
-80 -90 -36 74 96 0
-80 -90 36 -74 96 0
-80 -90 36 74 -96 0
-81 -90 -49 -69 -91 0
-81 -90 -49 69 91 0
-81 -90 49 -69 91 0
-81 -90 49 69 -91 0
-81 -90 -50 -70 -92 0
-81 -90 -50 70 92 0
-81 -90 50 -70 92 0
-81 -90 50 70 -92 0
-81 -90 -51 -71 -93 0
-81 -90 -51 71 93 0
-81 -90 51 -71 93 0
-81 -90 51 71 -93 0
-81 -90 -52 -72 -94 0
-81 -90 -52 72 94 0
-81 -90 52 -72 94 0
-81 -90 52 72 -94 0
-81 -90 -53 -73 -95 0
-81 -90 -53 73 95 0
-81 -90 53 -73 95 0
-81 -90 53 73 -95 0
-81 -90 -54 -74 -96 0
-81 -90 -54 74 96 0
-81 -90 54 -74 96 0
-81 -90 54 74 -96 0
91 92 93 94 95 96 0
97 98 99 100 101 102 103 104 105 0
-97 -98 0
-97 -99 0
-97 -100 0
-97 -101 0
-97 -102 0
-97 -103 0
-97 -104 0
-97 -105 0
-98 -99 0
-98 -100 0
-98 -101 0
-98 -102 0
-98 -103 0
-98 -104 0
-98 -105 0
-99 -100 0
-99 -101 0
-99 -102 0
-99 -103 0
-99 -104 0
-99 -105 0
-100 -101 0
-100 -102 0
-100 -103 0
-100 -104 0
-100 -105 0
-101 -102 0
-101 -103 0
-101 -104 0
-101 -105 0
-102 -103 0
-102 -104 0
-102 -105 0
-103 -104 0
-103 -105 0
-104 -105 0
106 107 108 109 110 111 112 113 114 0
-106 -107 0
-106 -108 0
-106 -109 0
-106 -110 0
-106 -111 0
-106 -112 0
-106 -113 0
-106 -114 0
-107 -108 0
-107 -109 0
-107 -110 0
-107 -111 0
-107 -112 0
-107 -113 0
-107 -114 0
-108 -109 0
-108 -110 0
-108 -111 0
-108 -112 0
-108 -113 0
-108 -114 0
-109 -110 0
-109 -111 0
-109 -112 0
-109 -113 0
-109 -114 0
-110 -111 0
-110 -112 0
-110 -113 0
-110 -114 0
-111 -112 0
-111 -113 0
-111 -114 0
-112 -113 0
-112 -114 0
-113 -114 0
-97 -106 0
-98 -106 0
-98 -107 0
-99 -106 0
-99 -107 0
-99 -108 0
-100 -106 0
-100 -107 0
-100 -108 0
-100 -109 0
-101 -106 0
-101 -107 0
-101 -108 0
-101 -109 0
-101 -110 0
-102 -106 0
-102 -107 0
-102 -108 0
-102 -109 0
-102 -110 0
-102 -111 0
-103 -106 0
-103 -107 0
-103 -108 0
-103 -109 0
-103 -110 0
-103 -111 0
-103 -112 0
-104 -106 0
-104 -107 0
-104 -108 0
-104 -109 0
-104 -110 0
-104 -111 0
-104 -112 0
-104 -113 0
-105 -106 0
-105 -107 0
-105 -108 0
-105 -109 0
-105 -110 0
-105 -111 0
-105 -112 0
-105 -113 0
-105 -114 0
-97 -107 -1 -7 -115 0
-97 -107 -1 7 115 0
-97 -107 1 -7 115 0
-97 -107 1 7 -115 0
-97 -107 -2 -8 -116 0
-97 -107 -2 8 116 0
-97 -107 2 -8 116 0
-97 -107 2 8 -116 0
-97 -107 -3 -9 -117 0
-97 -107 -3 9 117 0
-97 -107 3 -9 117 0
-97 -107 3 9 -117 0
-97 -107 -4 -10 -118 0
-97 -107 -4 10 118 0
-97 -107 4 -10 118 0
-97 -107 4 10 -118 0
-97 -107 -5 -11 -119 0
-97 -107 -5 11 119 0
-97 -107 5 -11 119 0
-97 -107 5 11 -119 0
-97 -107 -6 -12 -120 0
-97 -107 -6 12 120 0
-97 -107 6 -12 120 0
-97 -107 6 12 -120 0
-97 -108 -1 -13 -115 0
-97 -108 -1 13 115 0
-97 -108 1 -13 115 0
-97 -108 1 13 -115 0
-97 -108 -2 -14 -116 0
-97 -108 -2 14 116 0
-97 -108 2 -14 116 0
-97 -108 2 14 -116 0
-97 -108 -3 -15 -117 0
-97 -108 -3 15 117 0
-97 -108 3 -15 117 0
-97 -108 3 15 -117 0
-97 -108 -4 -16 -118 0
-97 -108 -4 16 118 0
-97 -108 4 -16 118 0
-97 -108 4 16 -118 0
-97 -108 -5 -17 -119 0
-97 -108 -5 17 119 0
-97 -108 5 -17 119 0
-97 -108 5 17 -119 0
-97 -108 -6 -18 -120 0
-97 -108 -6 18 120 0
-97 -108 6 -18 120 0
-97 -108 6 18 -120 0
-97 -109 -1 -19 -115 0
-97 -109 -1 19 115 0
-97 -109 1 -19 115 0
-97 -109 1 19 -115 0
-97 -109 -2 -20 -116 0
-97 -109 -2 20 116 0
-97 -109 2 -20 116 0
-97 -109 2 20 -116 0
-97 -109 -3 -21 -117 0
-97 -109 -3 21 117 0
-97 -109 3 -21 117 0
-97 -109 3 21 -117 0
-97 -109 -4 -22 -118 0
-97 -109 -4 22 118 0
-97 -109 4 -22 118 0
-97 -109 4 22 -118 0
-97 -109 -5 -23 -119 0
-97 -109 -5 23 119 0
-97 -109 5 -23 119 0
-97 -109 5 23 -119 0
-97 -109 -6 -24 -120 0
-97 -109 -6 24 120 0
-97 -109 6 -24 120 0
-97 -109 6 24 -120 0
-97 -110 -1 -25 -115 0
-97 -110 -1 25 115 0
-97 -110 1 -25 115 0
-97 -110 1 25 -115 0
-97 -110 -2 -26 -116 0
-97 -110 -2 26 116 0
-97 -110 2 -26 116 0
-97 -110 2 26 -116 0
-97 -110 -3 -27 -117 0
-97 -110 -3 27 117 0
-97 -110 3 -27 117 0
-97 -110 3 27 -117 0
-97 -110 -4 -28 -118 0
-97 -110 -4 28 118 0
-97 -110 4 -28 118 0
-97 -110 4 28 -118 0
-97 -110 -5 -29 -119 0
-97 -110 -5 29 119 0
-97 -110 5 -29 119 0
-97 -110 5 29 -119 0
-97 -110 -6 -30 -120 0
-97 -110 -6 30 120 0
-97 -110 6 -30 120 0
-97 -110 6 30 -120 0
-97 -111 -1 -31 -115 0
-97 -111 -1 31 115 0
-97 -111 1 -31 115 0
-97 -111 1 31 -115 0
-97 -111 -2 -32 -116 0
-97 -111 -2 32 116 0
-97 -111 2 -32 116 0
-97 -111 2 32 -116 0
-97 -111 -3 -33 -117 0
-97 -111 -3 33 117 0
-97 -111 3 -33 117 0
-97 -111 3 33 -117 0
-97 -111 -4 -34 -118 0
-97 -111 -4 34 118 0
-97 -111 4 -34 118 0
-97 -111 4 34 -118 0
-97 -111 -5 -35 -119 0
-97 -111 -5 35 119 0
-97 -111 5 -35 119 0
-97 -111 5 35 -119 0
-97 -111 -6 -36 -120 0
-97 -111 -6 36 120 0
-97 -111 6 -36 120 0
-97 -111 6 36 -120 0
-97 -112 -1 -49 -115 0
-97 -112 -1 49 115 0
-97 -112 1 -49 115 0
-97 -112 1 49 -115 0
-97 -112 -2 -50 -116 0
-97 -112 -2 50 116 0
-97 -112 2 -50 116 0
-97 -112 2 50 -116 0
-97 -112 -3 -51 -117 0
-97 -112 -3 51 117 0
-97 -112 3 -51 117 0
-97 -112 3 51 -117 0
-97 -112 -4 -52 -118 0
-97 -112 -4 52 118 0
-97 -112 4 -52 118 0
-97 -112 4 52 -118 0
-97 -112 -5 -53 -119 0
-97 -112 -5 53 119 0
-97 -112 5 -53 119 0
-97 -112 5 53 -119 0
-97 -112 -6 -54 -120 0
-97 -112 -6 54 120 0
-97 -112 6 -54 120 0
-97 -112 6 54 -120 0
-97 -113 -1 -69 -115 0
-97 -113 -1 69 115 0
-97 -113 1 -69 115 0
-97 -113 1 69 -115 0
-97 -113 -2 -70 -116 0
-97 -113 -2 70 116 0
-97 -113 2 -70 116 0
-97 -113 2 70 -116 0
-97 -113 -3 -71 -117 0
-97 -113 -3 71 117 0
-97 -113 3 -71 117 0
-97 -113 3 71 -117 0
-97 -113 -4 -72 -118 0
-97 -113 -4 72 118 0
-97 -113 4 -72 118 0
-97 -113 4 72 -118 0
-97 -113 -5 -73 -119 0
-97 -113 -5 73 119 0
-97 -113 5 -73 119 0
-97 -113 5 73 -119 0
-97 -113 -6 -74 -120 0
-97 -113 -6 74 120 0
-97 -113 6 -74 120 0
-97 -113 6 74 -120 0
-97 -114 -1 -91 -115 0
-97 -114 -1 91 115 0
-97 -114 1 -91 115 0
-97 -114 1 91 -115 0
-97 -114 -2 -92 -116 0
-97 -114 -2 92 116 0
-97 -114 2 -92 116 0
-97 -114 2 92 -116 0
-97 -114 -3 -93 -117 0
-97 -114 -3 93 117 0
-97 -114 3 -93 117 0
-97 -114 3 93 -117 0
-97 -114 -4 -94 -118 0
-97 -114 -4 94 118 0
-97 -114 4 -94 118 0
-97 -114 4 94 -118 0
-97 -114 -5 -95 -119 0
-97 -114 -5 95 119 0
-97 -114 5 -95 119 0
-97 -114 5 95 -119 0
-97 -114 -6 -96 -120 0
-97 -114 -6 96 120 0
-97 -114 6 -96 120 0
-97 -114 6 96 -120 0
-98 -108 -7 -13 -115 0
-98 -108 -7 13 115 0
-98 -108 7 -13 115 0
-98 -108 7 13 -115 0
-98 -108 -8 -14 -116 0
-98 -108 -8 14 116 0
-98 -108 8 -14 116 0
-98 -108 8 14 -116 0
-98 -108 -9 -15 -117 0
-98 -108 -9 15 117 0
-98 -108 9 -15 117 0
-98 -108 9 15 -117 0
-98 -108 -10 -16 -118 0
-98 -108 -10 16 118 0
-98 -108 10 -16 118 0
-98 -108 10 16 -118 0
-98 -108 -11 -17 -119 0
-98 -108 -11 17 119 0
-98 -108 11 -17 119 0
-98 -108 11 17 -119 0
-98 -108 -12 -18 -120 0
-98 -108 -12 18 120 0
-98 -108 12 -18 120 0
-98 -108 12 18 -120 0
-98 -109 -7 -19 -115 0
-98 -109 -7 19 115 0
-98 -109 7 -19 115 0
-98 -109 7 19 -115 0
-98 -109 -8 -20 -116 0
-98 -109 -8 20 116 0
-98 -109 8 -20 116 0
-98 -109 8 20 -116 0
-98 -109 -9 -21 -117 0
-98 -109 -9 21 117 0
-98 -109 9 -21 117 0
-98 -109 9 21 -117 0
-98 -109 -10 -22 -118 0
-98 -109 -10 22 118 0
-98 -109 10 -22 118 0
-98 -109 10 22 -118 0
-98 -109 -11 -23 -119 0
-98 -109 -11 23 119 0
-98 -109 11 -23 119 0
-98 -109 11 23 -119 0
-98 -109 -12 -24 -120 0
-98 -109 -12 24 120 0
-98 -109 12 -24 120 0
-98 -109 12 24 -120 0
-98 -110 -7 -25 -115 0
-98 -110 -7 25 115 0
-98 -110 7 -25 115 0
-98 -110 7 25 -115 0
-98 -110 -8 -26 -116 0
-98 -110 -8 26 116 0
-98 -110 8 -26 116 0
-98 -110 8 26 -116 0
-98 -110 -9 -27 -117 0
-98 -110 -9 27 117 0
-98 -110 9 -27 117 0
-98 -110 9 27 -117 0
-98 -110 -10 -28 -118 0
-98 -110 -10 28 118 0
-98 -110 10 -28 118 0
-98 -110 10 28 -118 0
-98 -110 -11 -29 -119 0
-98 -110 -11 29 119 0
-98 -110 11 -29 119 0
-98 -110 11 29 -119 0
-98 -110 -12 -30 -120 0
-98 -110 -12 30 120 0
-98 -110 12 -30 120 0
-98 -110 12 30 -120 0
-98 -111 -7 -31 -115 0
-98 -111 -7 31 115 0
-98 -111 7 -31 115 0
-98 -111 7 31 -115 0
-98 -111 -8 -32 -116 0
-98 -111 -8 32 116 0
-98 -111 8 -32 116 0
-98 -111 8 32 -116 0
-98 -111 -9 -33 -117 0
-98 -111 -9 33 117 0
-98 -111 9 -33 117 0
-98 -111 9 33 -117 0
-98 -111 -10 -34 -118 0
-98 -111 -10 34 118 0
-98 -111 10 -34 118 0
-98 -111 10 34 -118 0
-98 -111 -11 -35 -119 0
-98 -111 -11 35 119 0
-98 -111 11 -35 119 0
-98 -111 11 35 -119 0
-98 -111 -12 -36 -120 0
-98 -111 -12 36 120 0
-98 -111 12 -36 120 0
-98 -111 12 36 -120 0
-98 -112 -7 -49 -115 0
-98 -112 -7 49 115 0
-98 -112 7 -49 115 0
-98 -112 7 49 -115 0
-98 -112 -8 -50 -116 0
-98 -112 -8 50 116 0
-98 -112 8 -50 116 0
-98 -112 8 50 -116 0
-98 -112 -9 -51 -117 0
-98 -112 -9 51 117 0
-98 -112 9 -51 117 0
-98 -112 9 51 -117 0
-98 -112 -10 -52 -118 0
-98 -112 -10 52 118 0
-98 -112 10 -52 118 0
-98 -112 10 52 -118 0
-98 -112 -11 -53 -119 0
-98 -112 -11 53 119 0
-98 -112 11 -53 119 0
-98 -112 11 53 -119 0
-98 -112 -12 -54 -120 0
-98 -112 -12 54 120 0
-98 -112 12 -54 120 0
-98 -112 12 54 -120 0
-98 -113 -7 -69 -115 0
-98 -113 -7 69 115 0
-98 -113 7 -69 115 0
-98 -113 7 69 -115 0
-98 -113 -8 -70 -116 0
-98 -113 -8 70 116 0
-98 -113 8 -70 116 0
-98 -113 8 70 -116 0
-98 -113 -9 -71 -117 0
-98 -113 -9 71 117 0
-98 -113 9 -71 117 0
-98 -113 9 71 -117 0
-98 -113 -10 -72 -118 0
-98 -113 -10 72 118 0
-98 -113 10 -72 118 0
-98 -113 10 72 -118 0
-98 -113 -11 -73 -119 0
-98 -113 -11 73 119 0
-98 -113 11 -73 119 0
-98 -113 11 73 -119 0
-98 -113 -12 -74 -120 0
-98 -113 -12 74 120 0
-98 -113 12 -74 120 0
-98 -113 12 74 -120 0
-98 -114 -7 -91 -115 0
-98 -114 -7 91 115 0
-98 -114 7 -91 115 0
-98 -114 7 91 -115 0
-98 -114 -8 -92 -116 0
-98 -114 -8 92 116 0
-98 -114 8 -92 116 0
-98 -114 8 92 -116 0
-98 -114 -9 -93 -117 0
-98 -114 -9 93 117 0
-98 -114 9 -93 117 0
-98 -114 9 93 -117 0
-98 -114 -10 -94 -118 0
-98 -114 -10 94 118 0
-98 -114 10 -94 118 0
-98 -114 10 94 -118 0
-98 -114 -11 -95 -119 0
-98 -114 -11 95 119 0
-98 -114 11 -95 119 0
-98 -114 11 95 -119 0
-98 -114 -12 -96 -120 0
-98 -114 -12 96 120 0
-98 -114 12 -96 120 0
-98 -114 12 96 -120 0
-99 -109 -13 -19 -115 0
-99 -109 -13 19 115 0
-99 -109 13 -19 115 0
-99 -109 13 19 -115 0
-99 -109 -14 -20 -116 0
-99 -109 -14 20 116 0
-99 -109 14 -20 116 0
-99 -109 14 20 -116 0
-99 -109 -15 -21 -117 0
-99 -109 -15 21 117 0
-99 -109 15 -21 117 0
-99 -109 15 21 -117 0
-99 -109 -16 -22 -118 0
-99 -109 -16 22 118 0
-99 -109 16 -22 118 0
-99 -109 16 22 -118 0
-99 -109 -17 -23 -119 0
-99 -109 -17 23 119 0
-99 -109 17 -23 119 0
-99 -109 17 23 -119 0
-99 -109 -18 -24 -120 0
-99 -109 -18 24 120 0
-99 -109 18 -24 120 0
-99 -109 18 24 -120 0
-99 -110 -13 -25 -115 0
-99 -110 -13 25 115 0
-99 -110 13 -25 115 0
-99 -110 13 25 -115 0
-99 -110 -14 -26 -116 0
-99 -110 -14 26 116 0
-99 -110 14 -26 116 0
-99 -110 14 26 -116 0
-99 -110 -15 -27 -117 0
-99 -110 -15 27 117 0
-99 -110 15 -27 117 0
-99 -110 15 27 -117 0
-99 -110 -16 -28 -118 0
-99 -110 -16 28 118 0
-99 -110 16 -28 118 0
-99 -110 16 28 -118 0
-99 -110 -17 -29 -119 0
-99 -110 -17 29 119 0
-99 -110 17 -29 119 0
-99 -110 17 29 -119 0
-99 -110 -18 -30 -120 0
-99 -110 -18 30 120 0
-99 -110 18 -30 120 0
-99 -110 18 30 -120 0
-99 -111 -13 -31 -115 0
-99 -111 -13 31 115 0
-99 -111 13 -31 115 0
-99 -111 13 31 -115 0
-99 -111 -14 -32 -116 0
-99 -111 -14 32 116 0
-99 -111 14 -32 116 0
-99 -111 14 32 -116 0
-99 -111 -15 -33 -117 0
-99 -111 -15 33 117 0
-99 -111 15 -33 117 0
-99 -111 15 33 -117 0
-99 -111 -16 -34 -118 0
-99 -111 -16 34 118 0
-99 -111 16 -34 118 0
-99 -111 16 34 -118 0
-99 -111 -17 -35 -119 0
-99 -111 -17 35 119 0
-99 -111 17 -35 119 0
-99 -111 17 35 -119 0
-99 -111 -18 -36 -120 0
-99 -111 -18 36 120 0
-99 -111 18 -36 120 0
-99 -111 18 36 -120 0
-99 -112 -13 -49 -115 0
-99 -112 -13 49 115 0
-99 -112 13 -49 115 0
-99 -112 13 49 -115 0
-99 -112 -14 -50 -116 0
-99 -112 -14 50 116 0
-99 -112 14 -50 116 0
-99 -112 14 50 -116 0
-99 -112 -15 -51 -117 0
-99 -112 -15 51 117 0
-99 -112 15 -51 117 0
-99 -112 15 51 -117 0
-99 -112 -16 -52 -118 0
-99 -112 -16 52 118 0
-99 -112 16 -52 118 0
-99 -112 16 52 -118 0
-99 -112 -17 -53 -119 0
-99 -112 -17 53 119 0
-99 -112 17 -53 119 0
-99 -112 17 53 -119 0
-99 -112 -18 -54 -120 0
-99 -112 -18 54 120 0
-99 -112 18 -54 120 0
-99 -112 18 54 -120 0
-99 -113 -13 -69 -115 0
-99 -113 -13 69 115 0
-99 -113 13 -69 115 0
-99 -113 13 69 -115 0
-99 -113 -14 -70 -116 0
-99 -113 -14 70 116 0
-99 -113 14 -70 116 0
-99 -113 14 70 -116 0
-99 -113 -15 -71 -117 0
-99 -113 -15 71 117 0
-99 -113 15 -71 117 0
-99 -113 15 71 -117 0
-99 -113 -16 -72 -118 0
-99 -113 -16 72 118 0
-99 -113 16 -72 118 0
-99 -113 16 72 -118 0
-99 -113 -17 -73 -119 0
-99 -113 -17 73 119 0
-99 -113 17 -73 119 0
-99 -113 17 73 -119 0
-99 -113 -18 -74 -120 0
-99 -113 -18 74 120 0
-99 -113 18 -74 120 0
-99 -113 18 74 -120 0
-99 -114 -13 -91 -115 0
-99 -114 -13 91 115 0
-99 -114 13 -91 115 0
-99 -114 13 91 -115 0
-99 -114 -14 -92 -116 0
-99 -114 -14 92 116 0
-99 -114 14 -92 116 0
-99 -114 14 92 -116 0
-99 -114 -15 -93 -117 0
-99 -114 -15 93 117 0
-99 -114 15 -93 117 0
-99 -114 15 93 -117 0
-99 -114 -16 -94 -118 0
-99 -114 -16 94 118 0
-99 -114 16 -94 118 0
-99 -114 16 94 -118 0
-99 -114 -17 -95 -119 0
-99 -114 -17 95 119 0
-99 -114 17 -95 119 0
-99 -114 17 95 -119 0
-99 -114 -18 -96 -120 0
-99 -114 -18 96 120 0
-99 -114 18 -96 120 0
-99 -114 18 96 -120 0
-100 -110 -19 -25 -115 0
-100 -110 -19 25 115 0
-100 -110 19 -25 115 0
-100 -110 19 25 -115 0
-100 -110 -20 -26 -116 0
-100 -110 -20 26 116 0
-100 -110 20 -26 116 0
-100 -110 20 26 -116 0
-100 -110 -21 -27 -117 0
-100 -110 -21 27 117 0
-100 -110 21 -27 117 0
-100 -110 21 27 -117 0
-100 -110 -22 -28 -118 0
-100 -110 -22 28 118 0
-100 -110 22 -28 118 0
-100 -110 22 28 -118 0
-100 -110 -23 -29 -119 0
-100 -110 -23 29 119 0
-100 -110 23 -29 119 0
-100 -110 23 29 -119 0
-100 -110 -24 -30 -120 0
-100 -110 -24 30 120 0
-100 -110 24 -30 120 0
-100 -110 24 30 -120 0
-100 -111 -19 -31 -115 0
-100 -111 -19 31 115 0
-100 -111 19 -31 115 0
-100 -111 19 31 -115 0
-100 -111 -20 -32 -116 0
-100 -111 -20 32 116 0
-100 -111 20 -32 116 0
-100 -111 20 32 -116 0
-100 -111 -21 -33 -117 0
-100 -111 -21 33 117 0
-100 -111 21 -33 117 0
-100 -111 21 33 -117 0
-100 -111 -22 -34 -118 0
-100 -111 -22 34 118 0
-100 -111 22 -34 118 0
-100 -111 22 34 -118 0
-100 -111 -23 -35 -119 0
-100 -111 -23 35 119 0
-100 -111 23 -35 119 0
-100 -111 23 35 -119 0
-100 -111 -24 -36 -120 0
-100 -111 -24 36 120 0
-100 -111 24 -36 120 0
-100 -111 24 36 -120 0
-100 -112 -19 -49 -115 0
-100 -112 -19 49 115 0
-100 -112 19 -49 115 0
-100 -112 19 49 -115 0
-100 -112 -20 -50 -116 0
-100 -112 -20 50 116 0
-100 -112 20 -50 116 0
-100 -112 20 50 -116 0
-100 -112 -21 -51 -117 0
-100 -112 -21 51 117 0
-100 -112 21 -51 117 0
-100 -112 21 51 -117 0
-100 -112 -22 -52 -118 0
-100 -112 -22 52 118 0
-100 -112 22 -52 118 0
-100 -112 22 52 -118 0
-100 -112 -23 -53 -119 0
-100 -112 -23 53 119 0
-100 -112 23 -53 119 0
-100 -112 23 53 -119 0
-100 -112 -24 -54 -120 0
-100 -112 -24 54 120 0
-100 -112 24 -54 120 0
-100 -112 24 54 -120 0
-100 -113 -19 -69 -115 0
-100 -113 -19 69 115 0
-100 -113 19 -69 115 0
-100 -113 19 69 -115 0
-100 -113 -20 -70 -116 0
-100 -113 -20 70 116 0
-100 -113 20 -70 116 0
-100 -113 20 70 -116 0
-100 -113 -21 -71 -117 0
-100 -113 -21 71 117 0
-100 -113 21 -71 117 0
-100 -113 21 71 -117 0
-100 -113 -22 -72 -118 0
-100 -113 -22 72 118 0
-100 -113 22 -72 118 0
-100 -113 22 72 -118 0
-100 -113 -23 -73 -119 0
-100 -113 -23 73 119 0
-100 -113 23 -73 119 0
-100 -113 23 73 -119 0
-100 -113 -24 -74 -120 0
-100 -113 -24 74 120 0
-100 -113 24 -74 120 0
-100 -113 24 74 -120 0
-100 -114 -19 -91 -115 0
-100 -114 -19 91 115 0
-100 -114 19 -91 115 0
-100 -114 19 91 -115 0
-100 -114 -20 -92 -116 0
-100 -114 -20 92 116 0
-100 -114 20 -92 116 0
-100 -114 20 92 -116 0
-100 -114 -21 -93 -117 0
-100 -114 -21 93 117 0
-100 -114 21 -93 117 0
-100 -114 21 93 -117 0
-100 -114 -22 -94 -118 0
-100 -114 -22 94 118 0
-100 -114 22 -94 118 0
-100 -114 22 94 -118 0
-100 -114 -23 -95 -119 0
-100 -114 -23 95 119 0
-100 -114 23 -95 119 0
-100 -114 23 95 -119 0
-100 -114 -24 -96 -120 0
-100 -114 -24 96 120 0
-100 -114 24 -96 120 0
-100 -114 24 96 -120 0
-101 -111 -25 -31 -115 0
-101 -111 -25 31 115 0
-101 -111 25 -31 115 0
-101 -111 25 31 -115 0
-101 -111 -26 -32 -116 0
-101 -111 -26 32 116 0
-101 -111 26 -32 116 0
-101 -111 26 32 -116 0
-101 -111 -27 -33 -117 0
-101 -111 -27 33 117 0
-101 -111 27 -33 117 0
-101 -111 27 33 -117 0
-101 -111 -28 -34 -118 0
-101 -111 -28 34 118 0
-101 -111 28 -34 118 0
-101 -111 28 34 -118 0
-101 -111 -29 -35 -119 0
-101 -111 -29 35 119 0
-101 -111 29 -35 119 0
-101 -111 29 35 -119 0
-101 -111 -30 -36 -120 0
-101 -111 -30 36 120 0
-101 -111 30 -36 120 0
-101 -111 30 36 -120 0
-101 -112 -25 -49 -115 0
-101 -112 -25 49 115 0
-101 -112 25 -49 115 0
-101 -112 25 49 -115 0
-101 -112 -26 -50 -116 0
-101 -112 -26 50 116 0
-101 -112 26 -50 116 0
-101 -112 26 50 -116 0
-101 -112 -27 -51 -117 0
-101 -112 -27 51 117 0
-101 -112 27 -51 117 0
-101 -112 27 51 -117 0
-101 -112 -28 -52 -118 0
-101 -112 -28 52 118 0
-101 -112 28 -52 118 0
-101 -112 28 52 -118 0
-101 -112 -29 -53 -119 0
-101 -112 -29 53 119 0
-101 -112 29 -53 119 0
-101 -112 29 53 -119 0
-101 -112 -30 -54 -120 0
-101 -112 -30 54 120 0
-101 -112 30 -54 120 0
-101 -112 30 54 -120 0
-101 -113 -25 -69 -115 0
-101 -113 -25 69 115 0
-101 -113 25 -69 115 0
-101 -113 25 69 -115 0
-101 -113 -26 -70 -116 0
-101 -113 -26 70 116 0
-101 -113 26 -70 116 0
-101 -113 26 70 -116 0
-101 -113 -27 -71 -117 0
-101 -113 -27 71 117 0
-101 -113 27 -71 117 0
-101 -113 27 71 -117 0
-101 -113 -28 -72 -118 0
-101 -113 -28 72 118 0
-101 -113 28 -72 118 0
-101 -113 28 72 -118 0
-101 -113 -29 -73 -119 0
-101 -113 -29 73 119 0
-101 -113 29 -73 119 0
-101 -113 29 73 -119 0
-101 -113 -30 -74 -120 0
-101 -113 -30 74 120 0
-101 -113 30 -74 120 0
-101 -113 30 74 -120 0
-101 -114 -25 -91 -115 0
-101 -114 -25 91 115 0
-101 -114 25 -91 115 0
-101 -114 25 91 -115 0
-101 -114 -26 -92 -116 0
-101 -114 -26 92 116 0
-101 -114 26 -92 116 0
-101 -114 26 92 -116 0
-101 -114 -27 -93 -117 0
-101 -114 -27 93 117 0
-101 -114 27 -93 117 0
-101 -114 27 93 -117 0
-101 -114 -28 -94 -118 0
-101 -114 -28 94 118 0
-101 -114 28 -94 118 0
-101 -114 28 94 -118 0
-101 -114 -29 -95 -119 0
-101 -114 -29 95 119 0
-101 -114 29 -95 119 0
-101 -114 29 95 -119 0
-101 -114 -30 -96 -120 0
-101 -114 -30 96 120 0
-101 -114 30 -96 120 0
-101 -114 30 96 -120 0
-102 -112 -31 -49 -115 0
-102 -112 -31 49 115 0
-102 -112 31 -49 115 0
-102 -112 31 49 -115 0
-102 -112 -32 -50 -116 0
-102 -112 -32 50 116 0
-102 -112 32 -50 116 0
-102 -112 32 50 -116 0
-102 -112 -33 -51 -117 0
-102 -112 -33 51 117 0
-102 -112 33 -51 117 0
-102 -112 33 51 -117 0
-102 -112 -34 -52 -118 0
-102 -112 -34 52 118 0
-102 -112 34 -52 118 0
-102 -112 34 52 -118 0
-102 -112 -35 -53 -119 0
-102 -112 -35 53 119 0
-102 -112 35 -53 119 0
-102 -112 35 53 -119 0
-102 -112 -36 -54 -120 0
-102 -112 -36 54 120 0
-102 -112 36 -54 120 0
-102 -112 36 54 -120 0
-102 -113 -31 -69 -115 0
-102 -113 -31 69 115 0
-102 -113 31 -69 115 0
-102 -113 31 69 -115 0
-102 -113 -32 -70 -116 0
-102 -113 -32 70 116 0
-102 -113 32 -70 116 0
-102 -113 32 70 -116 0
-102 -113 -33 -71 -117 0
-102 -113 -33 71 117 0
-102 -113 33 -71 117 0
-102 -113 33 71 -117 0
-102 -113 -34 -72 -118 0
-102 -113 -34 72 118 0
-102 -113 34 -72 118 0
-102 -113 34 72 -118 0
-102 -113 -35 -73 -119 0
-102 -113 -35 73 119 0
-102 -113 35 -73 119 0
-102 -113 35 73 -119 0
-102 -113 -36 -74 -120 0
-102 -113 -36 74 120 0
-102 -113 36 -74 120 0
-102 -113 36 74 -120 0
-102 -114 -31 -91 -115 0
-102 -114 -31 91 115 0
-102 -114 31 -91 115 0
-102 -114 31 91 -115 0
-102 -114 -32 -92 -116 0
-102 -114 -32 92 116 0
-102 -114 32 -92 116 0
-102 -114 32 92 -116 0
-102 -114 -33 -93 -117 0
-102 -114 -33 93 117 0
-102 -114 33 -93 117 0
-102 -114 33 93 -117 0
-102 -114 -34 -94 -118 0
-102 -114 -34 94 118 0
-102 -114 34 -94 118 0
-102 -114 34 94 -118 0
-102 -114 -35 -95 -119 0
-102 -114 -35 95 119 0
-102 -114 35 -95 119 0
-102 -114 35 95 -119 0
-102 -114 -36 -96 -120 0
-102 -114 -36 96 120 0
-102 -114 36 -96 120 0
-102 -114 36 96 -120 0
-103 -113 -49 -69 -115 0
-103 -113 -49 69 115 0
-103 -113 49 -69 115 0
-103 -113 49 69 -115 0
-103 -113 -50 -70 -116 0
-103 -113 -50 70 116 0
-103 -113 50 -70 116 0
-103 -113 50 70 -116 0
-103 -113 -51 -71 -117 0
-103 -113 -51 71 117 0
-103 -113 51 -71 117 0
-103 -113 51 71 -117 0
-103 -113 -52 -72 -118 0
-103 -113 -52 72 118 0
-103 -113 52 -72 118 0
-103 -113 52 72 -118 0
-103 -113 -53 -73 -119 0
-103 -113 -53 73 119 0
-103 -113 53 -73 119 0
-103 -113 53 73 -119 0
-103 -113 -54 -74 -120 0
-103 -113 -54 74 120 0
-103 -113 54 -74 120 0
-103 -113 54 74 -120 0
-103 -114 -49 -91 -115 0
-103 -114 -49 91 115 0
-103 -114 49 -91 115 0
-103 -114 49 91 -115 0
-103 -114 -50 -92 -116 0
-103 -114 -50 92 116 0
-103 -114 50 -92 116 0
-103 -114 50 92 -116 0
-103 -114 -51 -93 -117 0
-103 -114 -51 93 117 0
-103 -114 51 -93 117 0
-103 -114 51 93 -117 0
-103 -114 -52 -94 -118 0
-103 -114 -52 94 118 0
-103 -114 52 -94 118 0
-103 -114 52 94 -118 0
-103 -114 -53 -95 -119 0
-103 -114 -53 95 119 0
-103 -114 53 -95 119 0
-103 -114 53 95 -119 0
-103 -114 -54 -96 -120 0
-103 -114 -54 96 120 0
-103 -114 54 -96 120 0
-103 -114 54 96 -120 0
-104 -114 -69 -91 -115 0
-104 -114 -69 91 115 0
-104 -114 69 -91 115 0
-104 -114 69 91 -115 0
-104 -114 -70 -92 -116 0
-104 -114 -70 92 116 0
-104 -114 70 -92 116 0
-104 -114 70 92 -116 0
-104 -114 -71 -93 -117 0
-104 -114 -71 93 117 0
-104 -114 71 -93 117 0
-104 -114 71 93 -117 0
-104 -114 -72 -94 -118 0
-104 -114 -72 94 118 0
-104 -114 72 -94 118 0
-104 -114 72 94 -118 0
-104 -114 -73 -95 -119 0
-104 -114 -73 95 119 0
-104 -114 73 -95 119 0
-104 -114 73 95 -119 0
-104 -114 -74 -96 -120 0
-104 -114 -74 96 120 0
-104 -114 74 -96 120 0
-104 -114 74 96 -120 0
115 116 117 118 119 120 0
121 122 123 124 125 126 127 128 129 130 0
-121 -122 0
-121 -123 0
-121 -124 0
-121 -125 0
-121 -126 0
-121 -127 0
-121 -128 0
-121 -129 0
-121 -130 0
-122 -123 0
-122 -124 0
-122 -125 0
-122 -126 0
-122 -127 0
-122 -128 0
-122 -129 0
-122 -130 0
-123 -124 0
-123 -125 0
-123 -126 0
-123 -127 0
-123 -128 0
-123 -129 0
-123 -130 0
-124 -125 0
-124 -126 0
-124 -127 0
-124 -128 0
-124 -129 0
-124 -130 0
-125 -126 0
-125 -127 0
-125 -128 0
-125 -129 0
-125 -130 0
-126 -127 0
-126 -128 0
-126 -129 0
-126 -130 0
-127 -128 0
-127 -129 0
-127 -130 0
-128 -129 0
-128 -130 0
-129 -130 0
131 132 133 134 135 136 137 138 139 140 0
-131 -132 0
-131 -133 0
-131 -134 0
-131 -135 0
-131 -136 0
-131 -137 0
-131 -138 0
-131 -139 0
-131 -140 0
-132 -133 0
-132 -134 0
-132 -135 0
-132 -136 0
-132 -137 0
-132 -138 0
-132 -139 0
-132 -140 0
-133 -134 0
-133 -135 0
-133 -136 0
-133 -137 0
-133 -138 0
-133 -139 0
-133 -140 0
-134 -135 0
-134 -136 0
-134 -137 0
-134 -138 0
-134 -139 0
-134 -140 0
-135 -136 0
-135 -137 0
-135 -138 0
-135 -139 0
-135 -140 0
-136 -137 0
-136 -138 0
-136 -139 0
-136 -140 0
-137 -138 0
-137 -139 0
-137 -140 0
-138 -139 0
-138 -140 0
-139 -140 0
-121 -131 0
-122 -131 0
-122 -132 0
-123 -131 0
-123 -132 0
-123 -133 0
-124 -131 0
-124 -132 0
-124 -133 0
-124 -134 0
-125 -131 0
-125 -132 0
-125 -133 0
-125 -134 0
-125 -135 0
-126 -131 0
-126 -132 0
-126 -133 0
-126 -134 0
-126 -135 0
-126 -136 0
-127 -131 0
-127 -132 0
-127 -133 0
-127 -134 0
-127 -135 0
-127 -136 0
-127 -137 0
-128 -131 0
-128 -132 0
-128 -133 0
-128 -134 0
-128 -135 0
-128 -136 0
-128 -137 0
-128 -138 0
-129 -131 0
-129 -132 0
-129 -133 0
-129 -134 0
-129 -135 0
-129 -136 0
-129 -137 0
-129 -138 0
-129 -139 0
-130 -131 0
-130 -132 0
-130 -133 0
-130 -134 0
-130 -135 0
-130 -136 0
-130 -137 0
-130 -138 0
-130 -139 0
-130 -140 0
-121 -132 -1 -7 -141 0
-121 -132 -1 7 141 0
-121 -132 1 -7 141 0
-121 -132 1 7 -141 0
-121 -132 -2 -8 -142 0
-121 -132 -2 8 142 0
-121 -132 2 -8 142 0
-121 -132 2 8 -142 0
-121 -132 -3 -9 -143 0
-121 -132 -3 9 143 0
-121 -132 3 -9 143 0
-121 -132 3 9 -143 0
-121 -132 -4 -10 -144 0
-121 -132 -4 10 144 0
-121 -132 4 -10 144 0
-121 -132 4 10 -144 0
-121 -132 -5 -11 -145 0
-121 -132 -5 11 145 0
-121 -132 5 -11 145 0
-121 -132 5 11 -145 0
-121 -132 -6 -12 -146 0
-121 -132 -6 12 146 0
-121 -132 6 -12 146 0
-121 -132 6 12 -146 0
-121 -133 -1 -13 -141 0
-121 -133 -1 13 141 0
-121 -133 1 -13 141 0
-121 -133 1 13 -141 0
-121 -133 -2 -14 -142 0
-121 -133 -2 14 142 0
-121 -133 2 -14 142 0
-121 -133 2 14 -142 0
-121 -133 -3 -15 -143 0
-121 -133 -3 15 143 0
-121 -133 3 -15 143 0
-121 -133 3 15 -143 0
-121 -133 -4 -16 -144 0
-121 -133 -4 16 144 0
-121 -133 4 -16 144 0
-121 -133 4 16 -144 0
-121 -133 -5 -17 -145 0
-121 -133 -5 17 145 0
-121 -133 5 -17 145 0
-121 -133 5 17 -145 0
-121 -133 -6 -18 -146 0
-121 -133 -6 18 146 0
-121 -133 6 -18 146 0
-121 -133 6 18 -146 0
-121 -134 -1 -19 -141 0
-121 -134 -1 19 141 0
-121 -134 1 -19 141 0
-121 -134 1 19 -141 0
-121 -134 -2 -20 -142 0
-121 -134 -2 20 142 0
-121 -134 2 -20 142 0
-121 -134 2 20 -142 0
-121 -134 -3 -21 -143 0
-121 -134 -3 21 143 0
-121 -134 3 -21 143 0
-121 -134 3 21 -143 0
-121 -134 -4 -22 -144 0
-121 -134 -4 22 144 0
-121 -134 4 -22 144 0
-121 -134 4 22 -144 0
-121 -134 -5 -23 -145 0
-121 -134 -5 23 145 0
-121 -134 5 -23 145 0
-121 -134 5 23 -145 0
-121 -134 -6 -24 -146 0
-121 -134 -6 24 146 0
-121 -134 6 -24 146 0
-121 -134 6 24 -146 0
-121 -135 -1 -25 -141 0
-121 -135 -1 25 141 0
-121 -135 1 -25 141 0
-121 -135 1 25 -141 0
-121 -135 -2 -26 -142 0
-121 -135 -2 26 142 0
-121 -135 2 -26 142 0
-121 -135 2 26 -142 0
-121 -135 -3 -27 -143 0
-121 -135 -3 27 143 0
-121 -135 3 -27 143 0
-121 -135 3 27 -143 0
-121 -135 -4 -28 -144 0
-121 -135 -4 28 144 0
-121 -135 4 -28 144 0
-121 -135 4 28 -144 0
-121 -135 -5 -29 -145 0
-121 -135 -5 29 145 0
-121 -135 5 -29 145 0
-121 -135 5 29 -145 0
-121 -135 -6 -30 -146 0
-121 -135 -6 30 146 0
-121 -135 6 -30 146 0
-121 -135 6 30 -146 0
-121 -136 -1 -31 -141 0
-121 -136 -1 31 141 0
-121 -136 1 -31 141 0
-121 -136 1 31 -141 0
-121 -136 -2 -32 -142 0
-121 -136 -2 32 142 0
-121 -136 2 -32 142 0
-121 -136 2 32 -142 0
-121 -136 -3 -33 -143 0
-121 -136 -3 33 143 0
-121 -136 3 -33 143 0
-121 -136 3 33 -143 0
-121 -136 -4 -34 -144 0
-121 -136 -4 34 144 0
-121 -136 4 -34 144 0
-121 -136 4 34 -144 0
-121 -136 -5 -35 -145 0
-121 -136 -5 35 145 0
-121 -136 5 -35 145 0
-121 -136 5 35 -145 0
-121 -136 -6 -36 -146 0
-121 -136 -6 36 146 0
-121 -136 6 -36 146 0
-121 -136 6 36 -146 0
-121 -137 -1 -49 -141 0
-121 -137 -1 49 141 0
-121 -137 1 -49 141 0
-121 -137 1 49 -141 0
-121 -137 -2 -50 -142 0
-121 -137 -2 50 142 0
-121 -137 2 -50 142 0
-121 -137 2 50 -142 0
-121 -137 -3 -51 -143 0
-121 -137 -3 51 143 0
-121 -137 3 -51 143 0
-121 -137 3 51 -143 0
-121 -137 -4 -52 -144 0
-121 -137 -4 52 144 0
-121 -137 4 -52 144 0
-121 -137 4 52 -144 0
-121 -137 -5 -53 -145 0
-121 -137 -5 53 145 0
-121 -137 5 -53 145 0
-121 -137 5 53 -145 0
-121 -137 -6 -54 -146 0
-121 -137 -6 54 146 0
-121 -137 6 -54 146 0
-121 -137 6 54 -146 0
-121 -138 -1 -69 -141 0
-121 -138 -1 69 141 0
-121 -138 1 -69 141 0
-121 -138 1 69 -141 0
-121 -138 -2 -70 -142 0
-121 -138 -2 70 142 0
-121 -138 2 -70 142 0
-121 -138 2 70 -142 0
-121 -138 -3 -71 -143 0
-121 -138 -3 71 143 0
-121 -138 3 -71 143 0
-121 -138 3 71 -143 0
-121 -138 -4 -72 -144 0
-121 -138 -4 72 144 0
-121 -138 4 -72 144 0
-121 -138 4 72 -144 0
-121 -138 -5 -73 -145 0
-121 -138 -5 73 145 0
-121 -138 5 -73 145 0
-121 -138 5 73 -145 0
-121 -138 -6 -74 -146 0
-121 -138 -6 74 146 0
-121 -138 6 -74 146 0
-121 -138 6 74 -146 0
-121 -139 -1 -91 -141 0
-121 -139 -1 91 141 0
-121 -139 1 -91 141 0
-121 -139 1 91 -141 0
-121 -139 -2 -92 -142 0
-121 -139 -2 92 142 0
-121 -139 2 -92 142 0
-121 -139 2 92 -142 0
-121 -139 -3 -93 -143 0
-121 -139 -3 93 143 0
-121 -139 3 -93 143 0
-121 -139 3 93 -143 0
-121 -139 -4 -94 -144 0
-121 -139 -4 94 144 0
-121 -139 4 -94 144 0
-121 -139 4 94 -144 0
-121 -139 -5 -95 -145 0
-121 -139 -5 95 145 0
-121 -139 5 -95 145 0
-121 -139 5 95 -145 0
-121 -139 -6 -96 -146 0
-121 -139 -6 96 146 0
-121 -139 6 -96 146 0
-121 -139 6 96 -146 0
-121 -140 -1 -115 -141 0
-121 -140 -1 115 141 0
-121 -140 1 -115 141 0
-121 -140 1 115 -141 0
-121 -140 -2 -116 -142 0
-121 -140 -2 116 142 0
-121 -140 2 -116 142 0
-121 -140 2 116 -142 0
-121 -140 -3 -117 -143 0
-121 -140 -3 117 143 0
-121 -140 3 -117 143 0
-121 -140 3 117 -143 0
-121 -140 -4 -118 -144 0
-121 -140 -4 118 144 0
-121 -140 4 -118 144 0
-121 -140 4 118 -144 0
-121 -140 -5 -119 -145 0
-121 -140 -5 119 145 0
-121 -140 5 -119 145 0
-121 -140 5 119 -145 0
-121 -140 -6 -120 -146 0
-121 -140 -6 120 146 0
-121 -140 6 -120 146 0
-121 -140 6 120 -146 0
-122 -133 -7 -13 -141 0
-122 -133 -7 13 141 0
-122 -133 7 -13 141 0
-122 -133 7 13 -141 0
-122 -133 -8 -14 -142 0
-122 -133 -8 14 142 0
-122 -133 8 -14 142 0
-122 -133 8 14 -142 0
-122 -133 -9 -15 -143 0
-122 -133 -9 15 143 0
-122 -133 9 -15 143 0
-122 -133 9 15 -143 0
-122 -133 -10 -16 -144 0
-122 -133 -10 16 144 0
-122 -133 10 -16 144 0
-122 -133 10 16 -144 0
-122 -133 -11 -17 -145 0
-122 -133 -11 17 145 0
-122 -133 11 -17 145 0
-122 -133 11 17 -145 0
-122 -133 -12 -18 -146 0
-122 -133 -12 18 146 0
-122 -133 12 -18 146 0
-122 -133 12 18 -146 0
-122 -134 -7 -19 -141 0
-122 -134 -7 19 141 0
-122 -134 7 -19 141 0
-122 -134 7 19 -141 0
-122 -134 -8 -20 -142 0
-122 -134 -8 20 142 0
-122 -134 8 -20 142 0
-122 -134 8 20 -142 0
-122 -134 -9 -21 -143 0
-122 -134 -9 21 143 0
-122 -134 9 -21 143 0
-122 -134 9 21 -143 0
-122 -134 -10 -22 -144 0
-122 -134 -10 22 144 0
-122 -134 10 -22 144 0
-122 -134 10 22 -144 0
-122 -134 -11 -23 -145 0
-122 -134 -11 23 145 0
-122 -134 11 -23 145 0
-122 -134 11 23 -145 0
-122 -134 -12 -24 -146 0
-122 -134 -12 24 146 0
-122 -134 12 -24 146 0
-122 -134 12 24 -146 0
-122 -135 -7 -25 -141 0
-122 -135 -7 25 141 0
-122 -135 7 -25 141 0
-122 -135 7 25 -141 0
-122 -135 -8 -26 -142 0
-122 -135 -8 26 142 0
-122 -135 8 -26 142 0
-122 -135 8 26 -142 0
-122 -135 -9 -27 -143 0
-122 -135 -9 27 143 0
-122 -135 9 -27 143 0
-122 -135 9 27 -143 0
-122 -135 -10 -28 -144 0
-122 -135 -10 28 144 0
-122 -135 10 -28 144 0
-122 -135 10 28 -144 0
-122 -135 -11 -29 -145 0
-122 -135 -11 29 145 0
-122 -135 11 -29 145 0
-122 -135 11 29 -145 0
-122 -135 -12 -30 -146 0
-122 -135 -12 30 146 0
-122 -135 12 -30 146 0
-122 -135 12 30 -146 0
-122 -136 -7 -31 -141 0
-122 -136 -7 31 141 0
-122 -136 7 -31 141 0
-122 -136 7 31 -141 0
-122 -136 -8 -32 -142 0
-122 -136 -8 32 142 0
-122 -136 8 -32 142 0
-122 -136 8 32 -142 0
-122 -136 -9 -33 -143 0
-122 -136 -9 33 143 0
-122 -136 9 -33 143 0
-122 -136 9 33 -143 0
-122 -136 -10 -34 -144 0
-122 -136 -10 34 144 0
-122 -136 10 -34 144 0
-122 -136 10 34 -144 0
-122 -136 -11 -35 -145 0
-122 -136 -11 35 145 0
-122 -136 11 -35 145 0
-122 -136 11 35 -145 0
-122 -136 -12 -36 -146 0
-122 -136 -12 36 146 0
-122 -136 12 -36 146 0
-122 -136 12 36 -146 0
-122 -137 -7 -49 -141 0
-122 -137 -7 49 141 0
-122 -137 7 -49 141 0
-122 -137 7 49 -141 0
-122 -137 -8 -50 -142 0
-122 -137 -8 50 142 0
-122 -137 8 -50 142 0
-122 -137 8 50 -142 0
-122 -137 -9 -51 -143 0
-122 -137 -9 51 143 0
-122 -137 9 -51 143 0
-122 -137 9 51 -143 0
-122 -137 -10 -52 -144 0
-122 -137 -10 52 144 0
-122 -137 10 -52 144 0
-122 -137 10 52 -144 0
-122 -137 -11 -53 -145 0
-122 -137 -11 53 145 0
-122 -137 11 -53 145 0
-122 -137 11 53 -145 0
-122 -137 -12 -54 -146 0
-122 -137 -12 54 146 0
-122 -137 12 -54 146 0
-122 -137 12 54 -146 0
-122 -138 -7 -69 -141 0
-122 -138 -7 69 141 0
-122 -138 7 -69 141 0
-122 -138 7 69 -141 0
-122 -138 -8 -70 -142 0
-122 -138 -8 70 142 0
-122 -138 8 -70 142 0
-122 -138 8 70 -142 0
-122 -138 -9 -71 -143 0
-122 -138 -9 71 143 0
-122 -138 9 -71 143 0
-122 -138 9 71 -143 0
-122 -138 -10 -72 -144 0
-122 -138 -10 72 144 0
-122 -138 10 -72 144 0
-122 -138 10 72 -144 0
-122 -138 -11 -73 -145 0
-122 -138 -11 73 145 0
-122 -138 11 -73 145 0
-122 -138 11 73 -145 0
-122 -138 -12 -74 -146 0
-122 -138 -12 74 146 0
-122 -138 12 -74 146 0
-122 -138 12 74 -146 0
-122 -139 -7 -91 -141 0
-122 -139 -7 91 141 0
-122 -139 7 -91 141 0
-122 -139 7 91 -141 0
-122 -139 -8 -92 -142 0
-122 -139 -8 92 142 0
-122 -139 8 -92 142 0
-122 -139 8 92 -142 0
-122 -139 -9 -93 -143 0
-122 -139 -9 93 143 0
-122 -139 9 -93 143 0
-122 -139 9 93 -143 0
-122 -139 -10 -94 -144 0
-122 -139 -10 94 144 0
-122 -139 10 -94 144 0
-122 -139 10 94 -144 0
-122 -139 -11 -95 -145 0
-122 -139 -11 95 145 0
-122 -139 11 -95 145 0
-122 -139 11 95 -145 0
-122 -139 -12 -96 -146 0
-122 -139 -12 96 146 0
-122 -139 12 -96 146 0
-122 -139 12 96 -146 0
-122 -140 -7 -115 -141 0
-122 -140 -7 115 141 0
-122 -140 7 -115 141 0
-122 -140 7 115 -141 0
-122 -140 -8 -116 -142 0
-122 -140 -8 116 142 0
-122 -140 8 -116 142 0
-122 -140 8 116 -142 0
-122 -140 -9 -117 -143 0
-122 -140 -9 117 143 0
-122 -140 9 -117 143 0
-122 -140 9 117 -143 0
-122 -140 -10 -118 -144 0
-122 -140 -10 118 144 0
-122 -140 10 -118 144 0
-122 -140 10 118 -144 0
-122 -140 -11 -119 -145 0
-122 -140 -11 119 145 0
-122 -140 11 -119 145 0
-122 -140 11 119 -145 0
-122 -140 -12 -120 -146 0
-122 -140 -12 120 146 0
-122 -140 12 -120 146 0
-122 -140 12 120 -146 0
-123 -134 -13 -19 -141 0
-123 -134 -13 19 141 0
-123 -134 13 -19 141 0
-123 -134 13 19 -141 0
-123 -134 -14 -20 -142 0
-123 -134 -14 20 142 0
-123 -134 14 -20 142 0
-123 -134 14 20 -142 0
-123 -134 -15 -21 -143 0
-123 -134 -15 21 143 0
-123 -134 15 -21 143 0
-123 -134 15 21 -143 0
-123 -134 -16 -22 -144 0
-123 -134 -16 22 144 0
-123 -134 16 -22 144 0
-123 -134 16 22 -144 0
-123 -134 -17 -23 -145 0
-123 -134 -17 23 145 0
-123 -134 17 -23 145 0
-123 -134 17 23 -145 0
-123 -134 -18 -24 -146 0
-123 -134 -18 24 146 0
-123 -134 18 -24 146 0
-123 -134 18 24 -146 0
-123 -135 -13 -25 -141 0
-123 -135 -13 25 141 0
-123 -135 13 -25 141 0
-123 -135 13 25 -141 0
-123 -135 -14 -26 -142 0
-123 -135 -14 26 142 0
-123 -135 14 -26 142 0
-123 -135 14 26 -142 0
-123 -135 -15 -27 -143 0
-123 -135 -15 27 143 0
-123 -135 15 -27 143 0
-123 -135 15 27 -143 0
-123 -135 -16 -28 -144 0
-123 -135 -16 28 144 0
-123 -135 16 -28 144 0
-123 -135 16 28 -144 0
-123 -135 -17 -29 -145 0
-123 -135 -17 29 145 0
-123 -135 17 -29 145 0
-123 -135 17 29 -145 0
-123 -135 -18 -30 -146 0
-123 -135 -18 30 146 0
-123 -135 18 -30 146 0
-123 -135 18 30 -146 0
-123 -136 -13 -31 -141 0
-123 -136 -13 31 141 0
-123 -136 13 -31 141 0
-123 -136 13 31 -141 0
-123 -136 -14 -32 -142 0
-123 -136 -14 32 142 0
-123 -136 14 -32 142 0
-123 -136 14 32 -142 0
-123 -136 -15 -33 -143 0
-123 -136 -15 33 143 0
-123 -136 15 -33 143 0
-123 -136 15 33 -143 0
-123 -136 -16 -34 -144 0
-123 -136 -16 34 144 0
-123 -136 16 -34 144 0
-123 -136 16 34 -144 0
-123 -136 -17 -35 -145 0
-123 -136 -17 35 145 0
-123 -136 17 -35 145 0
-123 -136 17 35 -145 0
-123 -136 -18 -36 -146 0
-123 -136 -18 36 146 0
-123 -136 18 -36 146 0
-123 -136 18 36 -146 0
-123 -137 -13 -49 -141 0
-123 -137 -13 49 141 0
-123 -137 13 -49 141 0
-123 -137 13 49 -141 0
-123 -137 -14 -50 -142 0
-123 -137 -14 50 142 0
-123 -137 14 -50 142 0
-123 -137 14 50 -142 0
-123 -137 -15 -51 -143 0
-123 -137 -15 51 143 0
-123 -137 15 -51 143 0
-123 -137 15 51 -143 0
-123 -137 -16 -52 -144 0
-123 -137 -16 52 144 0
-123 -137 16 -52 144 0
-123 -137 16 52 -144 0
-123 -137 -17 -53 -145 0
-123 -137 -17 53 145 0
-123 -137 17 -53 145 0
-123 -137 17 53 -145 0
-123 -137 -18 -54 -146 0
-123 -137 -18 54 146 0
-123 -137 18 -54 146 0
-123 -137 18 54 -146 0
-123 -138 -13 -69 -141 0
-123 -138 -13 69 141 0
-123 -138 13 -69 141 0
-123 -138 13 69 -141 0
-123 -138 -14 -70 -142 0
-123 -138 -14 70 142 0
-123 -138 14 -70 142 0
-123 -138 14 70 -142 0
-123 -138 -15 -71 -143 0
-123 -138 -15 71 143 0
-123 -138 15 -71 143 0
-123 -138 15 71 -143 0
-123 -138 -16 -72 -144 0
-123 -138 -16 72 144 0
-123 -138 16 -72 144 0
-123 -138 16 72 -144 0
-123 -138 -17 -73 -145 0
-123 -138 -17 73 145 0
-123 -138 17 -73 145 0
-123 -138 17 73 -145 0
-123 -138 -18 -74 -146 0
-123 -138 -18 74 146 0
-123 -138 18 -74 146 0
-123 -138 18 74 -146 0
-123 -139 -13 -91 -141 0
-123 -139 -13 91 141 0
-123 -139 13 -91 141 0
-123 -139 13 91 -141 0
-123 -139 -14 -92 -142 0
-123 -139 -14 92 142 0
-123 -139 14 -92 142 0
-123 -139 14 92 -142 0
-123 -139 -15 -93 -143 0
-123 -139 -15 93 143 0
-123 -139 15 -93 143 0
-123 -139 15 93 -143 0
-123 -139 -16 -94 -144 0
-123 -139 -16 94 144 0
-123 -139 16 -94 144 0
-123 -139 16 94 -144 0
-123 -139 -17 -95 -145 0
-123 -139 -17 95 145 0
-123 -139 17 -95 145 0
-123 -139 17 95 -145 0
-123 -139 -18 -96 -146 0
-123 -139 -18 96 146 0
-123 -139 18 -96 146 0
-123 -139 18 96 -146 0
-123 -140 -13 -115 -141 0
-123 -140 -13 115 141 0
-123 -140 13 -115 141 0
-123 -140 13 115 -141 0
-123 -140 -14 -116 -142 0
-123 -140 -14 116 142 0
-123 -140 14 -116 142 0
-123 -140 14 116 -142 0
-123 -140 -15 -117 -143 0
-123 -140 -15 117 143 0
-123 -140 15 -117 143 0
-123 -140 15 117 -143 0
-123 -140 -16 -118 -144 0
-123 -140 -16 118 144 0
-123 -140 16 -118 144 0
-123 -140 16 118 -144 0
-123 -140 -17 -119 -145 0
-123 -140 -17 119 145 0
-123 -140 17 -119 145 0
-123 -140 17 119 -145 0
-123 -140 -18 -120 -146 0
-123 -140 -18 120 146 0
-123 -140 18 -120 146 0
-123 -140 18 120 -146 0
-124 -135 -19 -25 -141 0
-124 -135 -19 25 141 0
-124 -135 19 -25 141 0
-124 -135 19 25 -141 0
-124 -135 -20 -26 -142 0
-124 -135 -20 26 142 0
-124 -135 20 -26 142 0
-124 -135 20 26 -142 0
-124 -135 -21 -27 -143 0
-124 -135 -21 27 143 0
-124 -135 21 -27 143 0
-124 -135 21 27 -143 0
-124 -135 -22 -28 -144 0
-124 -135 -22 28 144 0
-124 -135 22 -28 144 0
-124 -135 22 28 -144 0
-124 -135 -23 -29 -145 0
-124 -135 -23 29 145 0
-124 -135 23 -29 145 0
-124 -135 23 29 -145 0
-124 -135 -24 -30 -146 0
-124 -135 -24 30 146 0
-124 -135 24 -30 146 0
-124 -135 24 30 -146 0
-124 -136 -19 -31 -141 0
-124 -136 -19 31 141 0
-124 -136 19 -31 141 0
-124 -136 19 31 -141 0
-124 -136 -20 -32 -142 0
-124 -136 -20 32 142 0
-124 -136 20 -32 142 0
-124 -136 20 32 -142 0
-124 -136 -21 -33 -143 0
-124 -136 -21 33 143 0
-124 -136 21 -33 143 0
-124 -136 21 33 -143 0
-124 -136 -22 -34 -144 0
-124 -136 -22 34 144 0
-124 -136 22 -34 144 0
-124 -136 22 34 -144 0
-124 -136 -23 -35 -145 0
-124 -136 -23 35 145 0
-124 -136 23 -35 145 0
-124 -136 23 35 -145 0
-124 -136 -24 -36 -146 0
-124 -136 -24 36 146 0
-124 -136 24 -36 146 0
-124 -136 24 36 -146 0
-124 -137 -19 -49 -141 0
-124 -137 -19 49 141 0
-124 -137 19 -49 141 0
-124 -137 19 49 -141 0
-124 -137 -20 -50 -142 0
-124 -137 -20 50 142 0
-124 -137 20 -50 142 0
-124 -137 20 50 -142 0
-124 -137 -21 -51 -143 0
-124 -137 -21 51 143 0
-124 -137 21 -51 143 0
-124 -137 21 51 -143 0
-124 -137 -22 -52 -144 0
-124 -137 -22 52 144 0
-124 -137 22 -52 144 0
-124 -137 22 52 -144 0
-124 -137 -23 -53 -145 0
-124 -137 -23 53 145 0
-124 -137 23 -53 145 0
-124 -137 23 53 -145 0
-124 -137 -24 -54 -146 0
-124 -137 -24 54 146 0
-124 -137 24 -54 146 0
-124 -137 24 54 -146 0
-124 -138 -19 -69 -141 0
-124 -138 -19 69 141 0
-124 -138 19 -69 141 0
-124 -138 19 69 -141 0
-124 -138 -20 -70 -142 0
-124 -138 -20 70 142 0
-124 -138 20 -70 142 0
-124 -138 20 70 -142 0
-124 -138 -21 -71 -143 0
-124 -138 -21 71 143 0
-124 -138 21 -71 143 0
-124 -138 21 71 -143 0
-124 -138 -22 -72 -144 0
-124 -138 -22 72 144 0
-124 -138 22 -72 144 0
-124 -138 22 72 -144 0
-124 -138 -23 -73 -145 0
-124 -138 -23 73 145 0
-124 -138 23 -73 145 0
-124 -138 23 73 -145 0
-124 -138 -24 -74 -146 0
-124 -138 -24 74 146 0
-124 -138 24 -74 146 0
-124 -138 24 74 -146 0
-124 -139 -19 -91 -141 0
-124 -139 -19 91 141 0
-124 -139 19 -91 141 0
-124 -139 19 91 -141 0
-124 -139 -20 -92 -142 0
-124 -139 -20 92 142 0
-124 -139 20 -92 142 0
-124 -139 20 92 -142 0
-124 -139 -21 -93 -143 0
-124 -139 -21 93 143 0
-124 -139 21 -93 143 0
-124 -139 21 93 -143 0
-124 -139 -22 -94 -144 0
-124 -139 -22 94 144 0
-124 -139 22 -94 144 0
-124 -139 22 94 -144 0
-124 -139 -23 -95 -145 0
-124 -139 -23 95 145 0
-124 -139 23 -95 145 0
-124 -139 23 95 -145 0
-124 -139 -24 -96 -146 0
-124 -139 -24 96 146 0
-124 -139 24 -96 146 0
-124 -139 24 96 -146 0
-124 -140 -19 -115 -141 0
-124 -140 -19 115 141 0
-124 -140 19 -115 141 0
-124 -140 19 115 -141 0
-124 -140 -20 -116 -142 0
-124 -140 -20 116 142 0
-124 -140 20 -116 142 0
-124 -140 20 116 -142 0
-124 -140 -21 -117 -143 0
-124 -140 -21 117 143 0
-124 -140 21 -117 143 0
-124 -140 21 117 -143 0
-124 -140 -22 -118 -144 0
-124 -140 -22 118 144 0
-124 -140 22 -118 144 0
-124 -140 22 118 -144 0
-124 -140 -23 -119 -145 0
-124 -140 -23 119 145 0
-124 -140 23 -119 145 0
-124 -140 23 119 -145 0
-124 -140 -24 -120 -146 0
-124 -140 -24 120 146 0
-124 -140 24 -120 146 0
-124 -140 24 120 -146 0
-125 -136 -25 -31 -141 0
-125 -136 -25 31 141 0
-125 -136 25 -31 141 0
-125 -136 25 31 -141 0
-125 -136 -26 -32 -142 0
-125 -136 -26 32 142 0
-125 -136 26 -32 142 0
-125 -136 26 32 -142 0
-125 -136 -27 -33 -143 0
-125 -136 -27 33 143 0
-125 -136 27 -33 143 0
-125 -136 27 33 -143 0
-125 -136 -28 -34 -144 0
-125 -136 -28 34 144 0
-125 -136 28 -34 144 0
-125 -136 28 34 -144 0
-125 -136 -29 -35 -145 0
-125 -136 -29 35 145 0
-125 -136 29 -35 145 0
-125 -136 29 35 -145 0
-125 -136 -30 -36 -146 0
-125 -136 -30 36 146 0
-125 -136 30 -36 146 0
-125 -136 30 36 -146 0
-125 -137 -25 -49 -141 0
-125 -137 -25 49 141 0
-125 -137 25 -49 141 0
-125 -137 25 49 -141 0
-125 -137 -26 -50 -142 0
-125 -137 -26 50 142 0
-125 -137 26 -50 142 0
-125 -137 26 50 -142 0
-125 -137 -27 -51 -143 0
-125 -137 -27 51 143 0
-125 -137 27 -51 143 0
-125 -137 27 51 -143 0
-125 -137 -28 -52 -144 0
-125 -137 -28 52 144 0
-125 -137 28 -52 144 0
-125 -137 28 52 -144 0
-125 -137 -29 -53 -145 0
-125 -137 -29 53 145 0
-125 -137 29 -53 145 0
-125 -137 29 53 -145 0
-125 -137 -30 -54 -146 0
-125 -137 -30 54 146 0
-125 -137 30 -54 146 0
-125 -137 30 54 -146 0
-125 -138 -25 -69 -141 0
-125 -138 -25 69 141 0
-125 -138 25 -69 141 0
-125 -138 25 69 -141 0
-125 -138 -26 -70 -142 0
-125 -138 -26 70 142 0
-125 -138 26 -70 142 0
-125 -138 26 70 -142 0
-125 -138 -27 -71 -143 0
-125 -138 -27 71 143 0
-125 -138 27 -71 143 0
-125 -138 27 71 -143 0
-125 -138 -28 -72 -144 0
-125 -138 -28 72 144 0
-125 -138 28 -72 144 0
-125 -138 28 72 -144 0
-125 -138 -29 -73 -145 0
-125 -138 -29 73 145 0
-125 -138 29 -73 145 0
-125 -138 29 73 -145 0
-125 -138 -30 -74 -146 0
-125 -138 -30 74 146 0
-125 -138 30 -74 146 0
-125 -138 30 74 -146 0
-125 -139 -25 -91 -141 0
-125 -139 -25 91 141 0
-125 -139 25 -91 141 0
-125 -139 25 91 -141 0
-125 -139 -26 -92 -142 0
-125 -139 -26 92 142 0
-125 -139 26 -92 142 0
-125 -139 26 92 -142 0
-125 -139 -27 -93 -143 0
-125 -139 -27 93 143 0
-125 -139 27 -93 143 0
-125 -139 27 93 -143 0
-125 -139 -28 -94 -144 0
-125 -139 -28 94 144 0
-125 -139 28 -94 144 0
-125 -139 28 94 -144 0
-125 -139 -29 -95 -145 0
-125 -139 -29 95 145 0
-125 -139 29 -95 145 0
-125 -139 29 95 -145 0
-125 -139 -30 -96 -146 0
-125 -139 -30 96 146 0
-125 -139 30 -96 146 0
-125 -139 30 96 -146 0
-125 -140 -25 -115 -141 0
-125 -140 -25 115 141 0
-125 -140 25 -115 141 0
-125 -140 25 115 -141 0
-125 -140 -26 -116 -142 0
-125 -140 -26 116 142 0
-125 -140 26 -116 142 0
-125 -140 26 116 -142 0
-125 -140 -27 -117 -143 0
-125 -140 -27 117 143 0
-125 -140 27 -117 143 0
-125 -140 27 117 -143 0
-125 -140 -28 -118 -144 0
-125 -140 -28 118 144 0
-125 -140 28 -118 144 0
-125 -140 28 118 -144 0
-125 -140 -29 -119 -145 0
-125 -140 -29 119 145 0
-125 -140 29 -119 145 0
-125 -140 29 119 -145 0
-125 -140 -30 -120 -146 0
-125 -140 -30 120 146 0
-125 -140 30 -120 146 0
-125 -140 30 120 -146 0
-126 -137 -31 -49 -141 0
-126 -137 -31 49 141 0
-126 -137 31 -49 141 0
-126 -137 31 49 -141 0
-126 -137 -32 -50 -142 0
-126 -137 -32 50 142 0
-126 -137 32 -50 142 0
-126 -137 32 50 -142 0
-126 -137 -33 -51 -143 0
-126 -137 -33 51 143 0
-126 -137 33 -51 143 0
-126 -137 33 51 -143 0
-126 -137 -34 -52 -144 0
-126 -137 -34 52 144 0
-126 -137 34 -52 144 0
-126 -137 34 52 -144 0
-126 -137 -35 -53 -145 0
-126 -137 -35 53 145 0
-126 -137 35 -53 145 0
-126 -137 35 53 -145 0
-126 -137 -36 -54 -146 0
-126 -137 -36 54 146 0
-126 -137 36 -54 146 0
-126 -137 36 54 -146 0
-126 -138 -31 -69 -141 0
-126 -138 -31 69 141 0
-126 -138 31 -69 141 0
-126 -138 31 69 -141 0
-126 -138 -32 -70 -142 0
-126 -138 -32 70 142 0
-126 -138 32 -70 142 0
-126 -138 32 70 -142 0
-126 -138 -33 -71 -143 0
-126 -138 -33 71 143 0
-126 -138 33 -71 143 0
-126 -138 33 71 -143 0
-126 -138 -34 -72 -144 0
-126 -138 -34 72 144 0
-126 -138 34 -72 144 0
-126 -138 34 72 -144 0
-126 -138 -35 -73 -145 0
-126 -138 -35 73 145 0
-126 -138 35 -73 145 0
-126 -138 35 73 -145 0
-126 -138 -36 -74 -146 0
-126 -138 -36 74 146 0
-126 -138 36 -74 146 0
-126 -138 36 74 -146 0
-126 -139 -31 -91 -141 0
-126 -139 -31 91 141 0
-126 -139 31 -91 141 0
-126 -139 31 91 -141 0
-126 -139 -32 -92 -142 0
-126 -139 -32 92 142 0
-126 -139 32 -92 142 0
-126 -139 32 92 -142 0
-126 -139 -33 -93 -143 0
-126 -139 -33 93 143 0
-126 -139 33 -93 143 0
-126 -139 33 93 -143 0
-126 -139 -34 -94 -144 0
-126 -139 -34 94 144 0
-126 -139 34 -94 144 0
-126 -139 34 94 -144 0
-126 -139 -35 -95 -145 0
-126 -139 -35 95 145 0
-126 -139 35 -95 145 0
-126 -139 35 95 -145 0
-126 -139 -36 -96 -146 0
-126 -139 -36 96 146 0
-126 -139 36 -96 146 0
-126 -139 36 96 -146 0
-126 -140 -31 -115 -141 0
-126 -140 -31 115 141 0
-126 -140 31 -115 141 0
-126 -140 31 115 -141 0
-126 -140 -32 -116 -142 0
-126 -140 -32 116 142 0
-126 -140 32 -116 142 0
-126 -140 32 116 -142 0
-126 -140 -33 -117 -143 0
-126 -140 -33 117 143 0
-126 -140 33 -117 143 0
-126 -140 33 117 -143 0
-126 -140 -34 -118 -144 0
-126 -140 -34 118 144 0
-126 -140 34 -118 144 0
-126 -140 34 118 -144 0
-126 -140 -35 -119 -145 0
-126 -140 -35 119 145 0
-126 -140 35 -119 145 0
-126 -140 35 119 -145 0
-126 -140 -36 -120 -146 0
-126 -140 -36 120 146 0
-126 -140 36 -120 146 0
-126 -140 36 120 -146 0
-127 -138 -49 -69 -141 0
-127 -138 -49 69 141 0
-127 -138 49 -69 141 0
-127 -138 49 69 -141 0
-127 -138 -50 -70 -142 0
-127 -138 -50 70 142 0
-127 -138 50 -70 142 0
-127 -138 50 70 -142 0
-127 -138 -51 -71 -143 0
-127 -138 -51 71 143 0
-127 -138 51 -71 143 0
-127 -138 51 71 -143 0
-127 -138 -52 -72 -144 0
-127 -138 -52 72 144 0
-127 -138 52 -72 144 0
-127 -138 52 72 -144 0
-127 -138 -53 -73 -145 0
-127 -138 -53 73 145 0
-127 -138 53 -73 145 0
-127 -138 53 73 -145 0
-127 -138 -54 -74 -146 0
-127 -138 -54 74 146 0
-127 -138 54 -74 146 0
-127 -138 54 74 -146 0
-127 -139 -49 -91 -141 0
-127 -139 -49 91 141 0
-127 -139 49 -91 141 0
-127 -139 49 91 -141 0
-127 -139 -50 -92 -142 0
-127 -139 -50 92 142 0
-127 -139 50 -92 142 0
-127 -139 50 92 -142 0
-127 -139 -51 -93 -143 0
-127 -139 -51 93 143 0
-127 -139 51 -93 143 0
-127 -139 51 93 -143 0
-127 -139 -52 -94 -144 0
-127 -139 -52 94 144 0
-127 -139 52 -94 144 0
-127 -139 52 94 -144 0
-127 -139 -53 -95 -145 0
-127 -139 -53 95 145 0
-127 -139 53 -95 145 0
-127 -139 53 95 -145 0
-127 -139 -54 -96 -146 0
-127 -139 -54 96 146 0
-127 -139 54 -96 146 0
-127 -139 54 96 -146 0
-127 -140 -49 -115 -141 0
-127 -140 -49 115 141 0
-127 -140 49 -115 141 0
-127 -140 49 115 -141 0
-127 -140 -50 -116 -142 0
-127 -140 -50 116 142 0
-127 -140 50 -116 142 0
-127 -140 50 116 -142 0
-127 -140 -51 -117 -143 0
-127 -140 -51 117 143 0
-127 -140 51 -117 143 0
-127 -140 51 117 -143 0
-127 -140 -52 -118 -144 0
-127 -140 -52 118 144 0
-127 -140 52 -118 144 0
-127 -140 52 118 -144 0
-127 -140 -53 -119 -145 0
-127 -140 -53 119 145 0
-127 -140 53 -119 145 0
-127 -140 53 119 -145 0
-127 -140 -54 -120 -146 0
-127 -140 -54 120 146 0
-127 -140 54 -120 146 0
-127 -140 54 120 -146 0
-128 -139 -69 -91 -141 0
-128 -139 -69 91 141 0
-128 -139 69 -91 141 0
-128 -139 69 91 -141 0
-128 -139 -70 -92 -142 0
-128 -139 -70 92 142 0
-128 -139 70 -92 142 0
-128 -139 70 92 -142 0
-128 -139 -71 -93 -143 0
-128 -139 -71 93 143 0
-128 -139 71 -93 143 0
-128 -139 71 93 -143 0
-128 -139 -72 -94 -144 0
-128 -139 -72 94 144 0
-128 -139 72 -94 144 0
-128 -139 72 94 -144 0
-128 -139 -73 -95 -145 0
-128 -139 -73 95 145 0
-128 -139 73 -95 145 0
-128 -139 73 95 -145 0
-128 -139 -74 -96 -146 0
-128 -139 -74 96 146 0
-128 -139 74 -96 146 0
-128 -139 74 96 -146 0
-128 -140 -69 -115 -141 0
-128 -140 -69 115 141 0
-128 -140 69 -115 141 0
-128 -140 69 115 -141 0
-128 -140 -70 -116 -142 0
-128 -140 -70 116 142 0
-128 -140 70 -116 142 0
-128 -140 70 116 -142 0
-128 -140 -71 -117 -143 0
-128 -140 -71 117 143 0
-128 -140 71 -117 143 0
-128 -140 71 117 -143 0
-128 -140 -72 -118 -144 0
-128 -140 -72 118 144 0
-128 -140 72 -118 144 0
-128 -140 72 118 -144 0
-128 -140 -73 -119 -145 0
-128 -140 -73 119 145 0
-128 -140 73 -119 145 0
-128 -140 73 119 -145 0
-128 -140 -74 -120 -146 0
-128 -140 -74 120 146 0
-128 -140 74 -120 146 0
-128 -140 74 120 -146 0
-129 -140 -91 -115 -141 0
-129 -140 -91 115 141 0
-129 -140 91 -115 141 0
-129 -140 91 115 -141 0
-129 -140 -92 -116 -142 0
-129 -140 -92 116 142 0
-129 -140 92 -116 142 0
-129 -140 92 116 -142 0
-129 -140 -93 -117 -143 0
-129 -140 -93 117 143 0
-129 -140 93 -117 143 0
-129 -140 93 117 -143 0
-129 -140 -94 -118 -144 0
-129 -140 -94 118 144 0
-129 -140 94 -118 144 0
-129 -140 94 118 -144 0
-129 -140 -95 -119 -145 0
-129 -140 -95 119 145 0
-129 -140 95 -119 145 0
-129 -140 95 119 -145 0
-129 -140 -96 -120 -146 0
-129 -140 -96 120 146 0
-129 -140 96 -120 146 0
-129 -140 96 120 -146 0
141 142 143 144 145 146 0
147 148 149 150 151 152 153 154 155 156 157 0
-147 -148 0
-147 -149 0
-147 -150 0
-147 -151 0
-147 -152 0
-147 -153 0
-147 -154 0
-147 -155 0
-147 -156 0
-147 -157 0
-148 -149 0
-148 -150 0
-148 -151 0
-148 -152 0
-148 -153 0
-148 -154 0
-148 -155 0
-148 -156 0
-148 -157 0
-149 -150 0
-149 -151 0
-149 -152 0
-149 -153 0
-149 -154 0
-149 -155 0
-149 -156 0
-149 -157 0
-150 -151 0
-150 -152 0
-150 -153 0
-150 -154 0
-150 -155 0
-150 -156 0
-150 -157 0
-151 -152 0
-151 -153 0
-151 -154 0
-151 -155 0
-151 -156 0
-151 -157 0
-152 -153 0
-152 -154 0
-152 -155 0
-152 -156 0
-152 -157 0
-153 -154 0
-153 -155 0
-153 -156 0
-153 -157 0
-154 -155 0
-154 -156 0
-154 -157 0
-155 -156 0
-155 -157 0
-156 -157 0
158 159 160 161 162 163 164 165 166 167 168 0
-158 -159 0
-158 -160 0
-158 -161 0
-158 -162 0
-158 -163 0
-158 -164 0
-158 -165 0
-158 -166 0
-158 -167 0
-158 -168 0
-159 -160 0
-159 -161 0
-159 -162 0
-159 -163 0
-159 -164 0
-159 -165 0
-159 -166 0
-159 -167 0
-159 -168 0
-160 -161 0
-160 -162 0
-160 -163 0
-160 -164 0
-160 -165 0
-160 -166 0
-160 -167 0
-160 -168 0
-161 -162 0
-161 -163 0
-161 -164 0
-161 -165 0
-161 -166 0
-161 -167 0
-161 -168 0
-162 -163 0
-162 -164 0
-162 -165 0
-162 -166 0
-162 -167 0
-162 -168 0
-163 -164 0
-163 -165 0
-163 -166 0
-163 -167 0
-163 -168 0
-164 -165 0
-164 -166 0
-164 -167 0
-164 -168 0
-165 -166 0
-165 -167 0
-165 -168 0
-166 -167 0
-166 -168 0
-167 -168 0
-147 -158 0
-148 -158 0
-148 -159 0
-149 -158 0
-149 -159 0
-149 -160 0
-150 -158 0
-150 -159 0
-150 -160 0
-150 -161 0
-151 -158 0
-151 -159 0
-151 -160 0
-151 -161 0
-151 -162 0
-152 -158 0
-152 -159 0
-152 -160 0
-152 -161 0
-152 -162 0
-152 -163 0
-153 -158 0
-153 -159 0
-153 -160 0
-153 -161 0
-153 -162 0
-153 -163 0
-153 -164 0
-154 -158 0
-154 -159 0
-154 -160 0
-154 -161 0
-154 -162 0
-154 -163 0
-154 -164 0
-154 -165 0
-155 -158 0
-155 -159 0
-155 -160 0
-155 -161 0
-155 -162 0
-155 -163 0
-155 -164 0
-155 -165 0
-155 -166 0
-156 -158 0
-156 -159 0
-156 -160 0
-156 -161 0
-156 -162 0
-156 -163 0
-156 -164 0
-156 -165 0
-156 -166 0
-156 -167 0
-157 -158 0
-157 -159 0
-157 -160 0
-157 -161 0
-157 -162 0
-157 -163 0
-157 -164 0
-157 -165 0
-157 -166 0
-157 -167 0
-157 -168 0
-147 -159 -1 -7 -169 0
-147 -159 -1 7 169 0
-147 -159 1 -7 169 0
-147 -159 1 7 -169 0
-147 -159 -2 -8 -170 0
-147 -159 -2 8 170 0
-147 -159 2 -8 170 0
-147 -159 2 8 -170 0
-147 -159 -3 -9 -171 0
-147 -159 -3 9 171 0
-147 -159 3 -9 171 0
-147 -159 3 9 -171 0
-147 -159 -4 -10 -172 0
-147 -159 -4 10 172 0
-147 -159 4 -10 172 0
-147 -159 4 10 -172 0
-147 -159 -5 -11 -173 0
-147 -159 -5 11 173 0
-147 -159 5 -11 173 0
-147 -159 5 11 -173 0
-147 -159 -6 -12 -174 0
-147 -159 -6 12 174 0
-147 -159 6 -12 174 0
-147 -159 6 12 -174 0
-147 -160 -1 -13 -169 0
-147 -160 -1 13 169 0
-147 -160 1 -13 169 0
-147 -160 1 13 -169 0
-147 -160 -2 -14 -170 0
-147 -160 -2 14 170 0
-147 -160 2 -14 170 0
-147 -160 2 14 -170 0
-147 -160 -3 -15 -171 0
-147 -160 -3 15 171 0
-147 -160 3 -15 171 0
-147 -160 3 15 -171 0
-147 -160 -4 -16 -172 0
-147 -160 -4 16 172 0
-147 -160 4 -16 172 0
-147 -160 4 16 -172 0
-147 -160 -5 -17 -173 0
-147 -160 -5 17 173 0
-147 -160 5 -17 173 0
-147 -160 5 17 -173 0
-147 -160 -6 -18 -174 0
-147 -160 -6 18 174 0
-147 -160 6 -18 174 0
-147 -160 6 18 -174 0
-147 -161 -1 -19 -169 0
-147 -161 -1 19 169 0
-147 -161 1 -19 169 0
-147 -161 1 19 -169 0
-147 -161 -2 -20 -170 0
-147 -161 -2 20 170 0
-147 -161 2 -20 170 0
-147 -161 2 20 -170 0
-147 -161 -3 -21 -171 0
-147 -161 -3 21 171 0
-147 -161 3 -21 171 0
-147 -161 3 21 -171 0
-147 -161 -4 -22 -172 0
-147 -161 -4 22 172 0
-147 -161 4 -22 172 0
-147 -161 4 22 -172 0
-147 -161 -5 -23 -173 0
-147 -161 -5 23 173 0
-147 -161 5 -23 173 0
-147 -161 5 23 -173 0
-147 -161 -6 -24 -174 0
-147 -161 -6 24 174 0
-147 -161 6 -24 174 0
-147 -161 6 24 -174 0
-147 -162 -1 -25 -169 0
-147 -162 -1 25 169 0
-147 -162 1 -25 169 0
-147 -162 1 25 -169 0
-147 -162 -2 -26 -170 0
-147 -162 -2 26 170 0
-147 -162 2 -26 170 0
-147 -162 2 26 -170 0
-147 -162 -3 -27 -171 0
-147 -162 -3 27 171 0
-147 -162 3 -27 171 0
-147 -162 3 27 -171 0
-147 -162 -4 -28 -172 0
-147 -162 -4 28 172 0
-147 -162 4 -28 172 0
-147 -162 4 28 -172 0
-147 -162 -5 -29 -173 0
-147 -162 -5 29 173 0
-147 -162 5 -29 173 0
-147 -162 5 29 -173 0
-147 -162 -6 -30 -174 0
-147 -162 -6 30 174 0
-147 -162 6 -30 174 0
-147 -162 6 30 -174 0
-147 -163 -1 -31 -169 0
-147 -163 -1 31 169 0
-147 -163 1 -31 169 0
-147 -163 1 31 -169 0
-147 -163 -2 -32 -170 0
-147 -163 -2 32 170 0
-147 -163 2 -32 170 0
-147 -163 2 32 -170 0
-147 -163 -3 -33 -171 0
-147 -163 -3 33 171 0
-147 -163 3 -33 171 0
-147 -163 3 33 -171 0
-147 -163 -4 -34 -172 0
-147 -163 -4 34 172 0
-147 -163 4 -34 172 0
-147 -163 4 34 -172 0
-147 -163 -5 -35 -173 0
-147 -163 -5 35 173 0
-147 -163 5 -35 173 0
-147 -163 5 35 -173 0
-147 -163 -6 -36 -174 0
-147 -163 -6 36 174 0
-147 -163 6 -36 174 0
-147 -163 6 36 -174 0
-147 -164 -1 -49 -169 0
-147 -164 -1 49 169 0
-147 -164 1 -49 169 0
-147 -164 1 49 -169 0
-147 -164 -2 -50 -170 0
-147 -164 -2 50 170 0
-147 -164 2 -50 170 0
-147 -164 2 50 -170 0
-147 -164 -3 -51 -171 0
-147 -164 -3 51 171 0
-147 -164 3 -51 171 0
-147 -164 3 51 -171 0
-147 -164 -4 -52 -172 0
-147 -164 -4 52 172 0
-147 -164 4 -52 172 0
-147 -164 4 52 -172 0
-147 -164 -5 -53 -173 0
-147 -164 -5 53 173 0
-147 -164 5 -53 173 0
-147 -164 5 53 -173 0
-147 -164 -6 -54 -174 0
-147 -164 -6 54 174 0
-147 -164 6 -54 174 0
-147 -164 6 54 -174 0
-147 -165 -1 -69 -169 0
-147 -165 -1 69 169 0
-147 -165 1 -69 169 0
-147 -165 1 69 -169 0
-147 -165 -2 -70 -170 0
-147 -165 -2 70 170 0
-147 -165 2 -70 170 0
-147 -165 2 70 -170 0
-147 -165 -3 -71 -171 0
-147 -165 -3 71 171 0
-147 -165 3 -71 171 0
-147 -165 3 71 -171 0
-147 -165 -4 -72 -172 0
-147 -165 -4 72 172 0
-147 -165 4 -72 172 0
-147 -165 4 72 -172 0
-147 -165 -5 -73 -173 0
-147 -165 -5 73 173 0
-147 -165 5 -73 173 0
-147 -165 5 73 -173 0
-147 -165 -6 -74 -174 0
-147 -165 -6 74 174 0
-147 -165 6 -74 174 0
-147 -165 6 74 -174 0
-147 -166 -1 -91 -169 0
-147 -166 -1 91 169 0
-147 -166 1 -91 169 0
-147 -166 1 91 -169 0
-147 -166 -2 -92 -170 0
-147 -166 -2 92 170 0
-147 -166 2 -92 170 0
-147 -166 2 92 -170 0
-147 -166 -3 -93 -171 0
-147 -166 -3 93 171 0
-147 -166 3 -93 171 0
-147 -166 3 93 -171 0
-147 -166 -4 -94 -172 0
-147 -166 -4 94 172 0
-147 -166 4 -94 172 0
-147 -166 4 94 -172 0
-147 -166 -5 -95 -173 0
-147 -166 -5 95 173 0
-147 -166 5 -95 173 0
-147 -166 5 95 -173 0
-147 -166 -6 -96 -174 0
-147 -166 -6 96 174 0
-147 -166 6 -96 174 0
-147 -166 6 96 -174 0
-147 -167 -1 -115 -169 0
-147 -167 -1 115 169 0
-147 -167 1 -115 169 0
-147 -167 1 115 -169 0
-147 -167 -2 -116 -170 0
-147 -167 -2 116 170 0
-147 -167 2 -116 170 0
-147 -167 2 116 -170 0
-147 -167 -3 -117 -171 0
-147 -167 -3 117 171 0
-147 -167 3 -117 171 0
-147 -167 3 117 -171 0
-147 -167 -4 -118 -172 0
-147 -167 -4 118 172 0
-147 -167 4 -118 172 0
-147 -167 4 118 -172 0
-147 -167 -5 -119 -173 0
-147 -167 -5 119 173 0
-147 -167 5 -119 173 0
-147 -167 5 119 -173 0
-147 -167 -6 -120 -174 0
-147 -167 -6 120 174 0
-147 -167 6 -120 174 0
-147 -167 6 120 -174 0
-147 -168 -1 -141 -169 0
-147 -168 -1 141 169 0
-147 -168 1 -141 169 0
-147 -168 1 141 -169 0
-147 -168 -2 -142 -170 0
-147 -168 -2 142 170 0
-147 -168 2 -142 170 0
-147 -168 2 142 -170 0
-147 -168 -3 -143 -171 0
-147 -168 -3 143 171 0
-147 -168 3 -143 171 0
-147 -168 3 143 -171 0
-147 -168 -4 -144 -172 0
-147 -168 -4 144 172 0
-147 -168 4 -144 172 0
-147 -168 4 144 -172 0
-147 -168 -5 -145 -173 0
-147 -168 -5 145 173 0
-147 -168 5 -145 173 0
-147 -168 5 145 -173 0
-147 -168 -6 -146 -174 0
-147 -168 -6 146 174 0
-147 -168 6 -146 174 0
-147 -168 6 146 -174 0
-148 -160 -7 -13 -169 0
-148 -160 -7 13 169 0
-148 -160 7 -13 169 0
-148 -160 7 13 -169 0
-148 -160 -8 -14 -170 0
-148 -160 -8 14 170 0
-148 -160 8 -14 170 0
-148 -160 8 14 -170 0
-148 -160 -9 -15 -171 0
-148 -160 -9 15 171 0
-148 -160 9 -15 171 0
-148 -160 9 15 -171 0
-148 -160 -10 -16 -172 0
-148 -160 -10 16 172 0
-148 -160 10 -16 172 0
-148 -160 10 16 -172 0
-148 -160 -11 -17 -173 0
-148 -160 -11 17 173 0
-148 -160 11 -17 173 0
-148 -160 11 17 -173 0
-148 -160 -12 -18 -174 0
-148 -160 -12 18 174 0
-148 -160 12 -18 174 0
-148 -160 12 18 -174 0
-148 -161 -7 -19 -169 0
-148 -161 -7 19 169 0
-148 -161 7 -19 169 0
-148 -161 7 19 -169 0
-148 -161 -8 -20 -170 0
-148 -161 -8 20 170 0
-148 -161 8 -20 170 0
-148 -161 8 20 -170 0
-148 -161 -9 -21 -171 0
-148 -161 -9 21 171 0
-148 -161 9 -21 171 0
-148 -161 9 21 -171 0
-148 -161 -10 -22 -172 0
-148 -161 -10 22 172 0
-148 -161 10 -22 172 0
-148 -161 10 22 -172 0
-148 -161 -11 -23 -173 0
-148 -161 -11 23 173 0
-148 -161 11 -23 173 0
-148 -161 11 23 -173 0
-148 -161 -12 -24 -174 0
-148 -161 -12 24 174 0
-148 -161 12 -24 174 0
-148 -161 12 24 -174 0
-148 -162 -7 -25 -169 0
-148 -162 -7 25 169 0
-148 -162 7 -25 169 0
-148 -162 7 25 -169 0
-148 -162 -8 -26 -170 0
-148 -162 -8 26 170 0
-148 -162 8 -26 170 0
-148 -162 8 26 -170 0
-148 -162 -9 -27 -171 0
-148 -162 -9 27 171 0
-148 -162 9 -27 171 0
-148 -162 9 27 -171 0
-148 -162 -10 -28 -172 0
-148 -162 -10 28 172 0
-148 -162 10 -28 172 0
-148 -162 10 28 -172 0
-148 -162 -11 -29 -173 0
-148 -162 -11 29 173 0
-148 -162 11 -29 173 0
-148 -162 11 29 -173 0
-148 -162 -12 -30 -174 0
-148 -162 -12 30 174 0
-148 -162 12 -30 174 0
-148 -162 12 30 -174 0
-148 -163 -7 -31 -169 0
-148 -163 -7 31 169 0
-148 -163 7 -31 169 0
-148 -163 7 31 -169 0
-148 -163 -8 -32 -170 0
-148 -163 -8 32 170 0
-148 -163 8 -32 170 0
-148 -163 8 32 -170 0
-148 -163 -9 -33 -171 0
-148 -163 -9 33 171 0
-148 -163 9 -33 171 0
-148 -163 9 33 -171 0
-148 -163 -10 -34 -172 0
-148 -163 -10 34 172 0
-148 -163 10 -34 172 0
-148 -163 10 34 -172 0
-148 -163 -11 -35 -173 0
-148 -163 -11 35 173 0
-148 -163 11 -35 173 0
-148 -163 11 35 -173 0
-148 -163 -12 -36 -174 0
-148 -163 -12 36 174 0
-148 -163 12 -36 174 0
-148 -163 12 36 -174 0
-148 -164 -7 -49 -169 0
-148 -164 -7 49 169 0
-148 -164 7 -49 169 0
-148 -164 7 49 -169 0
-148 -164 -8 -50 -170 0
-148 -164 -8 50 170 0
-148 -164 8 -50 170 0
-148 -164 8 50 -170 0
-148 -164 -9 -51 -171 0
-148 -164 -9 51 171 0
-148 -164 9 -51 171 0
-148 -164 9 51 -171 0
-148 -164 -10 -52 -172 0
-148 -164 -10 52 172 0
-148 -164 10 -52 172 0
-148 -164 10 52 -172 0
-148 -164 -11 -53 -173 0
-148 -164 -11 53 173 0
-148 -164 11 -53 173 0
-148 -164 11 53 -173 0
-148 -164 -12 -54 -174 0
-148 -164 -12 54 174 0
-148 -164 12 -54 174 0
-148 -164 12 54 -174 0
-148 -165 -7 -69 -169 0
-148 -165 -7 69 169 0
-148 -165 7 -69 169 0
-148 -165 7 69 -169 0
-148 -165 -8 -70 -170 0
-148 -165 -8 70 170 0
-148 -165 8 -70 170 0
-148 -165 8 70 -170 0
-148 -165 -9 -71 -171 0
-148 -165 -9 71 171 0
-148 -165 9 -71 171 0
-148 -165 9 71 -171 0
-148 -165 -10 -72 -172 0
-148 -165 -10 72 172 0
-148 -165 10 -72 172 0
-148 -165 10 72 -172 0
-148 -165 -11 -73 -173 0
-148 -165 -11 73 173 0
-148 -165 11 -73 173 0
-148 -165 11 73 -173 0
-148 -165 -12 -74 -174 0
-148 -165 -12 74 174 0
-148 -165 12 -74 174 0
-148 -165 12 74 -174 0
-148 -166 -7 -91 -169 0
-148 -166 -7 91 169 0
-148 -166 7 -91 169 0
-148 -166 7 91 -169 0
-148 -166 -8 -92 -170 0
-148 -166 -8 92 170 0
-148 -166 8 -92 170 0
-148 -166 8 92 -170 0
-148 -166 -9 -93 -171 0
-148 -166 -9 93 171 0
-148 -166 9 -93 171 0
-148 -166 9 93 -171 0
-148 -166 -10 -94 -172 0
-148 -166 -10 94 172 0
-148 -166 10 -94 172 0
-148 -166 10 94 -172 0
-148 -166 -11 -95 -173 0
-148 -166 -11 95 173 0
-148 -166 11 -95 173 0
-148 -166 11 95 -173 0
-148 -166 -12 -96 -174 0
-148 -166 -12 96 174 0
-148 -166 12 -96 174 0
-148 -166 12 96 -174 0
-148 -167 -7 -115 -169 0
-148 -167 -7 115 169 0
-148 -167 7 -115 169 0
-148 -167 7 115 -169 0
-148 -167 -8 -116 -170 0
-148 -167 -8 116 170 0
-148 -167 8 -116 170 0
-148 -167 8 116 -170 0
-148 -167 -9 -117 -171 0
-148 -167 -9 117 171 0
-148 -167 9 -117 171 0
-148 -167 9 117 -171 0
-148 -167 -10 -118 -172 0
-148 -167 -10 118 172 0
-148 -167 10 -118 172 0
-148 -167 10 118 -172 0
-148 -167 -11 -119 -173 0
-148 -167 -11 119 173 0
-148 -167 11 -119 173 0
-148 -167 11 119 -173 0
-148 -167 -12 -120 -174 0
-148 -167 -12 120 174 0
-148 -167 12 -120 174 0
-148 -167 12 120 -174 0
-148 -168 -7 -141 -169 0
-148 -168 -7 141 169 0
-148 -168 7 -141 169 0
-148 -168 7 141 -169 0
-148 -168 -8 -142 -170 0
-148 -168 -8 142 170 0
-148 -168 8 -142 170 0
-148 -168 8 142 -170 0
-148 -168 -9 -143 -171 0
-148 -168 -9 143 171 0
-148 -168 9 -143 171 0
-148 -168 9 143 -171 0
-148 -168 -10 -144 -172 0
-148 -168 -10 144 172 0
-148 -168 10 -144 172 0
-148 -168 10 144 -172 0
-148 -168 -11 -145 -173 0
-148 -168 -11 145 173 0
-148 -168 11 -145 173 0
-148 -168 11 145 -173 0
-148 -168 -12 -146 -174 0
-148 -168 -12 146 174 0
-148 -168 12 -146 174 0
-148 -168 12 146 -174 0
-149 -161 -13 -19 -169 0
-149 -161 -13 19 169 0
-149 -161 13 -19 169 0
-149 -161 13 19 -169 0
-149 -161 -14 -20 -170 0
-149 -161 -14 20 170 0
-149 -161 14 -20 170 0
-149 -161 14 20 -170 0
-149 -161 -15 -21 -171 0
-149 -161 -15 21 171 0
-149 -161 15 -21 171 0
-149 -161 15 21 -171 0
-149 -161 -16 -22 -172 0
-149 -161 -16 22 172 0
-149 -161 16 -22 172 0
-149 -161 16 22 -172 0
-149 -161 -17 -23 -173 0
-149 -161 -17 23 173 0
-149 -161 17 -23 173 0
-149 -161 17 23 -173 0
-149 -161 -18 -24 -174 0
-149 -161 -18 24 174 0
-149 -161 18 -24 174 0
-149 -161 18 24 -174 0
-149 -162 -13 -25 -169 0
-149 -162 -13 25 169 0
-149 -162 13 -25 169 0
-149 -162 13 25 -169 0
-149 -162 -14 -26 -170 0
-149 -162 -14 26 170 0
-149 -162 14 -26 170 0
-149 -162 14 26 -170 0
-149 -162 -15 -27 -171 0
-149 -162 -15 27 171 0
-149 -162 15 -27 171 0
-149 -162 15 27 -171 0
-149 -162 -16 -28 -172 0
-149 -162 -16 28 172 0
-149 -162 16 -28 172 0
-149 -162 16 28 -172 0
-149 -162 -17 -29 -173 0
-149 -162 -17 29 173 0
-149 -162 17 -29 173 0
-149 -162 17 29 -173 0
-149 -162 -18 -30 -174 0
-149 -162 -18 30 174 0
-149 -162 18 -30 174 0
-149 -162 18 30 -174 0
-149 -163 -13 -31 -169 0
-149 -163 -13 31 169 0
-149 -163 13 -31 169 0
-149 -163 13 31 -169 0
-149 -163 -14 -32 -170 0
-149 -163 -14 32 170 0
-149 -163 14 -32 170 0
-149 -163 14 32 -170 0
-149 -163 -15 -33 -171 0
-149 -163 -15 33 171 0
-149 -163 15 -33 171 0
-149 -163 15 33 -171 0
-149 -163 -16 -34 -172 0
-149 -163 -16 34 172 0
-149 -163 16 -34 172 0
-149 -163 16 34 -172 0
-149 -163 -17 -35 -173 0
-149 -163 -17 35 173 0
-149 -163 17 -35 173 0
-149 -163 17 35 -173 0
-149 -163 -18 -36 -174 0
-149 -163 -18 36 174 0
-149 -163 18 -36 174 0
-149 -163 18 36 -174 0
-149 -164 -13 -49 -169 0
-149 -164 -13 49 169 0
-149 -164 13 -49 169 0
-149 -164 13 49 -169 0
-149 -164 -14 -50 -170 0
-149 -164 -14 50 170 0
-149 -164 14 -50 170 0
-149 -164 14 50 -170 0
-149 -164 -15 -51 -171 0
-149 -164 -15 51 171 0
-149 -164 15 -51 171 0
-149 -164 15 51 -171 0
-149 -164 -16 -52 -172 0
-149 -164 -16 52 172 0
-149 -164 16 -52 172 0
-149 -164 16 52 -172 0
-149 -164 -17 -53 -173 0
-149 -164 -17 53 173 0
-149 -164 17 -53 173 0
-149 -164 17 53 -173 0
-149 -164 -18 -54 -174 0
-149 -164 -18 54 174 0
-149 -164 18 -54 174 0
-149 -164 18 54 -174 0
-149 -165 -13 -69 -169 0
-149 -165 -13 69 169 0
-149 -165 13 -69 169 0
-149 -165 13 69 -169 0
-149 -165 -14 -70 -170 0
-149 -165 -14 70 170 0
-149 -165 14 -70 170 0
-149 -165 14 70 -170 0
-149 -165 -15 -71 -171 0
-149 -165 -15 71 171 0
-149 -165 15 -71 171 0
-149 -165 15 71 -171 0
-149 -165 -16 -72 -172 0
-149 -165 -16 72 172 0
-149 -165 16 -72 172 0
-149 -165 16 72 -172 0
-149 -165 -17 -73 -173 0
-149 -165 -17 73 173 0
-149 -165 17 -73 173 0
-149 -165 17 73 -173 0
-149 -165 -18 -74 -174 0
-149 -165 -18 74 174 0
-149 -165 18 -74 174 0
-149 -165 18 74 -174 0
-149 -166 -13 -91 -169 0
-149 -166 -13 91 169 0
-149 -166 13 -91 169 0
-149 -166 13 91 -169 0
-149 -166 -14 -92 -170 0
-149 -166 -14 92 170 0
-149 -166 14 -92 170 0
-149 -166 14 92 -170 0
-149 -166 -15 -93 -171 0
-149 -166 -15 93 171 0
-149 -166 15 -93 171 0
-149 -166 15 93 -171 0
-149 -166 -16 -94 -172 0
-149 -166 -16 94 172 0
-149 -166 16 -94 172 0
-149 -166 16 94 -172 0
-149 -166 -17 -95 -173 0
-149 -166 -17 95 173 0
-149 -166 17 -95 173 0
-149 -166 17 95 -173 0
-149 -166 -18 -96 -174 0
-149 -166 -18 96 174 0
-149 -166 18 -96 174 0
-149 -166 18 96 -174 0
-149 -167 -13 -115 -169 0
-149 -167 -13 115 169 0
-149 -167 13 -115 169 0
-149 -167 13 115 -169 0
-149 -167 -14 -116 -170 0
-149 -167 -14 116 170 0
-149 -167 14 -116 170 0
-149 -167 14 116 -170 0
-149 -167 -15 -117 -171 0
-149 -167 -15 117 171 0
-149 -167 15 -117 171 0
-149 -167 15 117 -171 0
-149 -167 -16 -118 -172 0
-149 -167 -16 118 172 0
-149 -167 16 -118 172 0
-149 -167 16 118 -172 0
-149 -167 -17 -119 -173 0
-149 -167 -17 119 173 0
-149 -167 17 -119 173 0
-149 -167 17 119 -173 0
-149 -167 -18 -120 -174 0
-149 -167 -18 120 174 0
-149 -167 18 -120 174 0
-149 -167 18 120 -174 0
-149 -168 -13 -141 -169 0
-149 -168 -13 141 169 0
-149 -168 13 -141 169 0
-149 -168 13 141 -169 0
-149 -168 -14 -142 -170 0
-149 -168 -14 142 170 0
-149 -168 14 -142 170 0
-149 -168 14 142 -170 0
-149 -168 -15 -143 -171 0
-149 -168 -15 143 171 0
-149 -168 15 -143 171 0
-149 -168 15 143 -171 0
-149 -168 -16 -144 -172 0
-149 -168 -16 144 172 0
-149 -168 16 -144 172 0
-149 -168 16 144 -172 0
-149 -168 -17 -145 -173 0
-149 -168 -17 145 173 0
-149 -168 17 -145 173 0
-149 -168 17 145 -173 0
-149 -168 -18 -146 -174 0
-149 -168 -18 146 174 0
-149 -168 18 -146 174 0
-149 -168 18 146 -174 0
-150 -162 -19 -25 -169 0
-150 -162 -19 25 169 0
-150 -162 19 -25 169 0
-150 -162 19 25 -169 0
-150 -162 -20 -26 -170 0
-150 -162 -20 26 170 0
-150 -162 20 -26 170 0
-150 -162 20 26 -170 0
-150 -162 -21 -27 -171 0
-150 -162 -21 27 171 0
-150 -162 21 -27 171 0
-150 -162 21 27 -171 0
-150 -162 -22 -28 -172 0
-150 -162 -22 28 172 0
-150 -162 22 -28 172 0
-150 -162 22 28 -172 0
-150 -162 -23 -29 -173 0
-150 -162 -23 29 173 0
-150 -162 23 -29 173 0
-150 -162 23 29 -173 0
-150 -162 -24 -30 -174 0
-150 -162 -24 30 174 0
-150 -162 24 -30 174 0
-150 -162 24 30 -174 0
-150 -163 -19 -31 -169 0
-150 -163 -19 31 169 0
-150 -163 19 -31 169 0
-150 -163 19 31 -169 0
-150 -163 -20 -32 -170 0
-150 -163 -20 32 170 0
-150 -163 20 -32 170 0
-150 -163 20 32 -170 0
-150 -163 -21 -33 -171 0
-150 -163 -21 33 171 0
-150 -163 21 -33 171 0
-150 -163 21 33 -171 0
-150 -163 -22 -34 -172 0
-150 -163 -22 34 172 0
-150 -163 22 -34 172 0
-150 -163 22 34 -172 0
-150 -163 -23 -35 -173 0
-150 -163 -23 35 173 0
-150 -163 23 -35 173 0
-150 -163 23 35 -173 0
-150 -163 -24 -36 -174 0
-150 -163 -24 36 174 0
-150 -163 24 -36 174 0
-150 -163 24 36 -174 0
-150 -164 -19 -49 -169 0
-150 -164 -19 49 169 0
-150 -164 19 -49 169 0
-150 -164 19 49 -169 0
-150 -164 -20 -50 -170 0
-150 -164 -20 50 170 0
-150 -164 20 -50 170 0
-150 -164 20 50 -170 0
-150 -164 -21 -51 -171 0
-150 -164 -21 51 171 0
-150 -164 21 -51 171 0
-150 -164 21 51 -171 0
-150 -164 -22 -52 -172 0
-150 -164 -22 52 172 0
-150 -164 22 -52 172 0
-150 -164 22 52 -172 0
-150 -164 -23 -53 -173 0
-150 -164 -23 53 173 0
-150 -164 23 -53 173 0
-150 -164 23 53 -173 0
-150 -164 -24 -54 -174 0
-150 -164 -24 54 174 0
-150 -164 24 -54 174 0
-150 -164 24 54 -174 0
-150 -165 -19 -69 -169 0
-150 -165 -19 69 169 0
-150 -165 19 -69 169 0
-150 -165 19 69 -169 0
-150 -165 -20 -70 -170 0
-150 -165 -20 70 170 0
-150 -165 20 -70 170 0
-150 -165 20 70 -170 0
-150 -165 -21 -71 -171 0
-150 -165 -21 71 171 0
-150 -165 21 -71 171 0
-150 -165 21 71 -171 0
-150 -165 -22 -72 -172 0
-150 -165 -22 72 172 0
-150 -165 22 -72 172 0
-150 -165 22 72 -172 0
-150 -165 -23 -73 -173 0
-150 -165 -23 73 173 0
-150 -165 23 -73 173 0
-150 -165 23 73 -173 0
-150 -165 -24 -74 -174 0
-150 -165 -24 74 174 0
-150 -165 24 -74 174 0
-150 -165 24 74 -174 0
-150 -166 -19 -91 -169 0
-150 -166 -19 91 169 0
-150 -166 19 -91 169 0
-150 -166 19 91 -169 0
-150 -166 -20 -92 -170 0
-150 -166 -20 92 170 0
-150 -166 20 -92 170 0
-150 -166 20 92 -170 0
-150 -166 -21 -93 -171 0
-150 -166 -21 93 171 0
-150 -166 21 -93 171 0
-150 -166 21 93 -171 0
-150 -166 -22 -94 -172 0
-150 -166 -22 94 172 0
-150 -166 22 -94 172 0
-150 -166 22 94 -172 0
-150 -166 -23 -95 -173 0
-150 -166 -23 95 173 0
-150 -166 23 -95 173 0
-150 -166 23 95 -173 0
-150 -166 -24 -96 -174 0
-150 -166 -24 96 174 0
-150 -166 24 -96 174 0
-150 -166 24 96 -174 0
-150 -167 -19 -115 -169 0
-150 -167 -19 115 169 0
-150 -167 19 -115 169 0
-150 -167 19 115 -169 0
-150 -167 -20 -116 -170 0
-150 -167 -20 116 170 0
-150 -167 20 -116 170 0
-150 -167 20 116 -170 0
-150 -167 -21 -117 -171 0
-150 -167 -21 117 171 0
-150 -167 21 -117 171 0
-150 -167 21 117 -171 0
-150 -167 -22 -118 -172 0
-150 -167 -22 118 172 0
-150 -167 22 -118 172 0
-150 -167 22 118 -172 0
-150 -167 -23 -119 -173 0
-150 -167 -23 119 173 0
-150 -167 23 -119 173 0
-150 -167 23 119 -173 0
-150 -167 -24 -120 -174 0
-150 -167 -24 120 174 0
-150 -167 24 -120 174 0
-150 -167 24 120 -174 0
-150 -168 -19 -141 -169 0
-150 -168 -19 141 169 0
-150 -168 19 -141 169 0
-150 -168 19 141 -169 0
-150 -168 -20 -142 -170 0
-150 -168 -20 142 170 0
-150 -168 20 -142 170 0
-150 -168 20 142 -170 0
-150 -168 -21 -143 -171 0
-150 -168 -21 143 171 0
-150 -168 21 -143 171 0
-150 -168 21 143 -171 0
-150 -168 -22 -144 -172 0
-150 -168 -22 144 172 0
-150 -168 22 -144 172 0
-150 -168 22 144 -172 0
-150 -168 -23 -145 -173 0
-150 -168 -23 145 173 0
-150 -168 23 -145 173 0
-150 -168 23 145 -173 0
-150 -168 -24 -146 -174 0
-150 -168 -24 146 174 0
-150 -168 24 -146 174 0
-150 -168 24 146 -174 0
-151 -163 -25 -31 -169 0
-151 -163 -25 31 169 0
-151 -163 25 -31 169 0
-151 -163 25 31 -169 0
-151 -163 -26 -32 -170 0
-151 -163 -26 32 170 0
-151 -163 26 -32 170 0
-151 -163 26 32 -170 0
-151 -163 -27 -33 -171 0
-151 -163 -27 33 171 0
-151 -163 27 -33 171 0
-151 -163 27 33 -171 0
-151 -163 -28 -34 -172 0
-151 -163 -28 34 172 0
-151 -163 28 -34 172 0
-151 -163 28 34 -172 0
-151 -163 -29 -35 -173 0
-151 -163 -29 35 173 0
-151 -163 29 -35 173 0
-151 -163 29 35 -173 0
-151 -163 -30 -36 -174 0
-151 -163 -30 36 174 0
-151 -163 30 -36 174 0
-151 -163 30 36 -174 0
-151 -164 -25 -49 -169 0
-151 -164 -25 49 169 0
-151 -164 25 -49 169 0
-151 -164 25 49 -169 0
-151 -164 -26 -50 -170 0
-151 -164 -26 50 170 0
-151 -164 26 -50 170 0
-151 -164 26 50 -170 0
-151 -164 -27 -51 -171 0
-151 -164 -27 51 171 0
-151 -164 27 -51 171 0
-151 -164 27 51 -171 0
-151 -164 -28 -52 -172 0
-151 -164 -28 52 172 0
-151 -164 28 -52 172 0
-151 -164 28 52 -172 0
-151 -164 -29 -53 -173 0
-151 -164 -29 53 173 0
-151 -164 29 -53 173 0
-151 -164 29 53 -173 0
-151 -164 -30 -54 -174 0
-151 -164 -30 54 174 0
-151 -164 30 -54 174 0
-151 -164 30 54 -174 0
-151 -165 -25 -69 -169 0
-151 -165 -25 69 169 0
-151 -165 25 -69 169 0
-151 -165 25 69 -169 0
-151 -165 -26 -70 -170 0
-151 -165 -26 70 170 0
-151 -165 26 -70 170 0
-151 -165 26 70 -170 0
-151 -165 -27 -71 -171 0
-151 -165 -27 71 171 0
-151 -165 27 -71 171 0
-151 -165 27 71 -171 0
-151 -165 -28 -72 -172 0
-151 -165 -28 72 172 0
-151 -165 28 -72 172 0
-151 -165 28 72 -172 0
-151 -165 -29 -73 -173 0
-151 -165 -29 73 173 0
-151 -165 29 -73 173 0
-151 -165 29 73 -173 0
-151 -165 -30 -74 -174 0
-151 -165 -30 74 174 0
-151 -165 30 -74 174 0
-151 -165 30 74 -174 0
-151 -166 -25 -91 -169 0
-151 -166 -25 91 169 0
-151 -166 25 -91 169 0
-151 -166 25 91 -169 0
-151 -166 -26 -92 -170 0
-151 -166 -26 92 170 0
-151 -166 26 -92 170 0
-151 -166 26 92 -170 0
-151 -166 -27 -93 -171 0
-151 -166 -27 93 171 0
-151 -166 27 -93 171 0
-151 -166 27 93 -171 0
-151 -166 -28 -94 -172 0
-151 -166 -28 94 172 0
-151 -166 28 -94 172 0
-151 -166 28 94 -172 0
-151 -166 -29 -95 -173 0
-151 -166 -29 95 173 0
-151 -166 29 -95 173 0
-151 -166 29 95 -173 0
-151 -166 -30 -96 -174 0
-151 -166 -30 96 174 0
-151 -166 30 -96 174 0
-151 -166 30 96 -174 0
-151 -167 -25 -115 -169 0
-151 -167 -25 115 169 0
-151 -167 25 -115 169 0
-151 -167 25 115 -169 0
-151 -167 -26 -116 -170 0
-151 -167 -26 116 170 0
-151 -167 26 -116 170 0
-151 -167 26 116 -170 0
-151 -167 -27 -117 -171 0
-151 -167 -27 117 171 0
-151 -167 27 -117 171 0
-151 -167 27 117 -171 0
-151 -167 -28 -118 -172 0
-151 -167 -28 118 172 0
-151 -167 28 -118 172 0
-151 -167 28 118 -172 0
-151 -167 -29 -119 -173 0
-151 -167 -29 119 173 0
-151 -167 29 -119 173 0
-151 -167 29 119 -173 0
-151 -167 -30 -120 -174 0
-151 -167 -30 120 174 0
-151 -167 30 -120 174 0
-151 -167 30 120 -174 0
-151 -168 -25 -141 -169 0
-151 -168 -25 141 169 0
-151 -168 25 -141 169 0
-151 -168 25 141 -169 0
-151 -168 -26 -142 -170 0
-151 -168 -26 142 170 0
-151 -168 26 -142 170 0
-151 -168 26 142 -170 0
-151 -168 -27 -143 -171 0
-151 -168 -27 143 171 0
-151 -168 27 -143 171 0
-151 -168 27 143 -171 0
-151 -168 -28 -144 -172 0
-151 -168 -28 144 172 0
-151 -168 28 -144 172 0
-151 -168 28 144 -172 0
-151 -168 -29 -145 -173 0
-151 -168 -29 145 173 0
-151 -168 29 -145 173 0
-151 -168 29 145 -173 0
-151 -168 -30 -146 -174 0
-151 -168 -30 146 174 0
-151 -168 30 -146 174 0
-151 -168 30 146 -174 0
-152 -164 -31 -49 -169 0
-152 -164 -31 49 169 0
-152 -164 31 -49 169 0
-152 -164 31 49 -169 0
-152 -164 -32 -50 -170 0
-152 -164 -32 50 170 0
-152 -164 32 -50 170 0
-152 -164 32 50 -170 0
-152 -164 -33 -51 -171 0
-152 -164 -33 51 171 0
-152 -164 33 -51 171 0
-152 -164 33 51 -171 0
-152 -164 -34 -52 -172 0
-152 -164 -34 52 172 0
-152 -164 34 -52 172 0
-152 -164 34 52 -172 0
-152 -164 -35 -53 -173 0
-152 -164 -35 53 173 0
-152 -164 35 -53 173 0
-152 -164 35 53 -173 0
-152 -164 -36 -54 -174 0
-152 -164 -36 54 174 0
-152 -164 36 -54 174 0
-152 -164 36 54 -174 0
-152 -165 -31 -69 -169 0
-152 -165 -31 69 169 0
-152 -165 31 -69 169 0
-152 -165 31 69 -169 0
-152 -165 -32 -70 -170 0
-152 -165 -32 70 170 0
-152 -165 32 -70 170 0
-152 -165 32 70 -170 0
-152 -165 -33 -71 -171 0
-152 -165 -33 71 171 0
-152 -165 33 -71 171 0
-152 -165 33 71 -171 0
-152 -165 -34 -72 -172 0
-152 -165 -34 72 172 0
-152 -165 34 -72 172 0
-152 -165 34 72 -172 0
-152 -165 -35 -73 -173 0
-152 -165 -35 73 173 0
-152 -165 35 -73 173 0
-152 -165 35 73 -173 0
-152 -165 -36 -74 -174 0
-152 -165 -36 74 174 0
-152 -165 36 -74 174 0
-152 -165 36 74 -174 0
-152 -166 -31 -91 -169 0
-152 -166 -31 91 169 0
-152 -166 31 -91 169 0
-152 -166 31 91 -169 0
-152 -166 -32 -92 -170 0
-152 -166 -32 92 170 0
-152 -166 32 -92 170 0
-152 -166 32 92 -170 0
-152 -166 -33 -93 -171 0
-152 -166 -33 93 171 0
-152 -166 33 -93 171 0
-152 -166 33 93 -171 0
-152 -166 -34 -94 -172 0
-152 -166 -34 94 172 0
-152 -166 34 -94 172 0
-152 -166 34 94 -172 0
-152 -166 -35 -95 -173 0
-152 -166 -35 95 173 0
-152 -166 35 -95 173 0
-152 -166 35 95 -173 0
-152 -166 -36 -96 -174 0
-152 -166 -36 96 174 0
-152 -166 36 -96 174 0
-152 -166 36 96 -174 0
-152 -167 -31 -115 -169 0
-152 -167 -31 115 169 0
-152 -167 31 -115 169 0
-152 -167 31 115 -169 0
-152 -167 -32 -116 -170 0
-152 -167 -32 116 170 0
-152 -167 32 -116 170 0
-152 -167 32 116 -170 0
-152 -167 -33 -117 -171 0
-152 -167 -33 117 171 0
-152 -167 33 -117 171 0
-152 -167 33 117 -171 0
-152 -167 -34 -118 -172 0
-152 -167 -34 118 172 0
-152 -167 34 -118 172 0
-152 -167 34 118 -172 0
-152 -167 -35 -119 -173 0
-152 -167 -35 119 173 0
-152 -167 35 -119 173 0
-152 -167 35 119 -173 0
-152 -167 -36 -120 -174 0
-152 -167 -36 120 174 0
-152 -167 36 -120 174 0
-152 -167 36 120 -174 0
-152 -168 -31 -141 -169 0
-152 -168 -31 141 169 0
-152 -168 31 -141 169 0
-152 -168 31 141 -169 0
-152 -168 -32 -142 -170 0
-152 -168 -32 142 170 0
-152 -168 32 -142 170 0
-152 -168 32 142 -170 0
-152 -168 -33 -143 -171 0
-152 -168 -33 143 171 0
-152 -168 33 -143 171 0
-152 -168 33 143 -171 0
-152 -168 -34 -144 -172 0
-152 -168 -34 144 172 0
-152 -168 34 -144 172 0
-152 -168 34 144 -172 0
-152 -168 -35 -145 -173 0
-152 -168 -35 145 173 0
-152 -168 35 -145 173 0
-152 -168 35 145 -173 0
-152 -168 -36 -146 -174 0
-152 -168 -36 146 174 0
-152 -168 36 -146 174 0
-152 -168 36 146 -174 0
-153 -165 -49 -69 -169 0
-153 -165 -49 69 169 0
-153 -165 49 -69 169 0
-153 -165 49 69 -169 0
-153 -165 -50 -70 -170 0
-153 -165 -50 70 170 0
-153 -165 50 -70 170 0
-153 -165 50 70 -170 0
-153 -165 -51 -71 -171 0
-153 -165 -51 71 171 0
-153 -165 51 -71 171 0
-153 -165 51 71 -171 0
-153 -165 -52 -72 -172 0
-153 -165 -52 72 172 0
-153 -165 52 -72 172 0
-153 -165 52 72 -172 0
-153 -165 -53 -73 -173 0
-153 -165 -53 73 173 0
-153 -165 53 -73 173 0
-153 -165 53 73 -173 0
-153 -165 -54 -74 -174 0
-153 -165 -54 74 174 0
-153 -165 54 -74 174 0
-153 -165 54 74 -174 0
-153 -166 -49 -91 -169 0
-153 -166 -49 91 169 0
-153 -166 49 -91 169 0
-153 -166 49 91 -169 0
-153 -166 -50 -92 -170 0
-153 -166 -50 92 170 0
-153 -166 50 -92 170 0
-153 -166 50 92 -170 0
-153 -166 -51 -93 -171 0
-153 -166 -51 93 171 0
-153 -166 51 -93 171 0
-153 -166 51 93 -171 0
-153 -166 -52 -94 -172 0
-153 -166 -52 94 172 0
-153 -166 52 -94 172 0
-153 -166 52 94 -172 0
-153 -166 -53 -95 -173 0
-153 -166 -53 95 173 0
-153 -166 53 -95 173 0
-153 -166 53 95 -173 0
-153 -166 -54 -96 -174 0
-153 -166 -54 96 174 0
-153 -166 54 -96 174 0
-153 -166 54 96 -174 0
-153 -167 -49 -115 -169 0
-153 -167 -49 115 169 0
-153 -167 49 -115 169 0
-153 -167 49 115 -169 0
-153 -167 -50 -116 -170 0
-153 -167 -50 116 170 0
-153 -167 50 -116 170 0
-153 -167 50 116 -170 0
-153 -167 -51 -117 -171 0
-153 -167 -51 117 171 0
-153 -167 51 -117 171 0
-153 -167 51 117 -171 0
-153 -167 -52 -118 -172 0
-153 -167 -52 118 172 0
-153 -167 52 -118 172 0
-153 -167 52 118 -172 0
-153 -167 -53 -119 -173 0
-153 -167 -53 119 173 0
-153 -167 53 -119 173 0
-153 -167 53 119 -173 0
-153 -167 -54 -120 -174 0
-153 -167 -54 120 174 0
-153 -167 54 -120 174 0
-153 -167 54 120 -174 0
-153 -168 -49 -141 -169 0
-153 -168 -49 141 169 0
-153 -168 49 -141 169 0
-153 -168 49 141 -169 0
-153 -168 -50 -142 -170 0
-153 -168 -50 142 170 0
-153 -168 50 -142 170 0
-153 -168 50 142 -170 0
-153 -168 -51 -143 -171 0
-153 -168 -51 143 171 0
-153 -168 51 -143 171 0
-153 -168 51 143 -171 0
-153 -168 -52 -144 -172 0
-153 -168 -52 144 172 0
-153 -168 52 -144 172 0
-153 -168 52 144 -172 0
-153 -168 -53 -145 -173 0
-153 -168 -53 145 173 0
-153 -168 53 -145 173 0
-153 -168 53 145 -173 0
-153 -168 -54 -146 -174 0
-153 -168 -54 146 174 0
-153 -168 54 -146 174 0
-153 -168 54 146 -174 0
-154 -166 -69 -91 -169 0
-154 -166 -69 91 169 0
-154 -166 69 -91 169 0
-154 -166 69 91 -169 0
-154 -166 -70 -92 -170 0
-154 -166 -70 92 170 0
-154 -166 70 -92 170 0
-154 -166 70 92 -170 0
-154 -166 -71 -93 -171 0
-154 -166 -71 93 171 0
-154 -166 71 -93 171 0
-154 -166 71 93 -171 0
-154 -166 -72 -94 -172 0
-154 -166 -72 94 172 0
-154 -166 72 -94 172 0
-154 -166 72 94 -172 0
-154 -166 -73 -95 -173 0
-154 -166 -73 95 173 0
-154 -166 73 -95 173 0
-154 -166 73 95 -173 0
-154 -166 -74 -96 -174 0
-154 -166 -74 96 174 0
-154 -166 74 -96 174 0
-154 -166 74 96 -174 0
-154 -167 -69 -115 -169 0
-154 -167 -69 115 169 0
-154 -167 69 -115 169 0
-154 -167 69 115 -169 0
-154 -167 -70 -116 -170 0
-154 -167 -70 116 170 0
-154 -167 70 -116 170 0
-154 -167 70 116 -170 0
-154 -167 -71 -117 -171 0
-154 -167 -71 117 171 0
-154 -167 71 -117 171 0
-154 -167 71 117 -171 0
-154 -167 -72 -118 -172 0
-154 -167 -72 118 172 0
-154 -167 72 -118 172 0
-154 -167 72 118 -172 0
-154 -167 -73 -119 -173 0
-154 -167 -73 119 173 0
-154 -167 73 -119 173 0
-154 -167 73 119 -173 0
-154 -167 -74 -120 -174 0
-154 -167 -74 120 174 0
-154 -167 74 -120 174 0
-154 -167 74 120 -174 0
-154 -168 -69 -141 -169 0
-154 -168 -69 141 169 0
-154 -168 69 -141 169 0
-154 -168 69 141 -169 0
-154 -168 -70 -142 -170 0
-154 -168 -70 142 170 0
-154 -168 70 -142 170 0
-154 -168 70 142 -170 0
-154 -168 -71 -143 -171 0
-154 -168 -71 143 171 0
-154 -168 71 -143 171 0
-154 -168 71 143 -171 0
-154 -168 -72 -144 -172 0
-154 -168 -72 144 172 0
-154 -168 72 -144 172 0
-154 -168 72 144 -172 0
-154 -168 -73 -145 -173 0
-154 -168 -73 145 173 0
-154 -168 73 -145 173 0
-154 -168 73 145 -173 0
-154 -168 -74 -146 -174 0
-154 -168 -74 146 174 0
-154 -168 74 -146 174 0
-154 -168 74 146 -174 0
-155 -167 -91 -115 -169 0
-155 -167 -91 115 169 0
-155 -167 91 -115 169 0
-155 -167 91 115 -169 0
-155 -167 -92 -116 -170 0
-155 -167 -92 116 170 0
-155 -167 92 -116 170 0
-155 -167 92 116 -170 0
-155 -167 -93 -117 -171 0
-155 -167 -93 117 171 0
-155 -167 93 -117 171 0
-155 -167 93 117 -171 0
-155 -167 -94 -118 -172 0
-155 -167 -94 118 172 0
-155 -167 94 -118 172 0
-155 -167 94 118 -172 0
-155 -167 -95 -119 -173 0
-155 -167 -95 119 173 0
-155 -167 95 -119 173 0
-155 -167 95 119 -173 0
-155 -167 -96 -120 -174 0
-155 -167 -96 120 174 0
-155 -167 96 -120 174 0
-155 -167 96 120 -174 0
-155 -168 -91 -141 -169 0
-155 -168 -91 141 169 0
-155 -168 91 -141 169 0
-155 -168 91 141 -169 0
-155 -168 -92 -142 -170 0
-155 -168 -92 142 170 0
-155 -168 92 -142 170 0
-155 -168 92 142 -170 0
-155 -168 -93 -143 -171 0
-155 -168 -93 143 171 0
-155 -168 93 -143 171 0
-155 -168 93 143 -171 0
-155 -168 -94 -144 -172 0
-155 -168 -94 144 172 0
-155 -168 94 -144 172 0
-155 -168 94 144 -172 0
-155 -168 -95 -145 -173 0
-155 -168 -95 145 173 0
-155 -168 95 -145 173 0
-155 -168 95 145 -173 0
-155 -168 -96 -146 -174 0
-155 -168 -96 146 174 0
-155 -168 96 -146 174 0
-155 -168 96 146 -174 0
-156 -168 -115 -141 -169 0
-156 -168 -115 141 169 0
-156 -168 115 -141 169 0
-156 -168 115 141 -169 0
-156 -168 -116 -142 -170 0
-156 -168 -116 142 170 0
-156 -168 116 -142 170 0
-156 -168 116 142 -170 0
-156 -168 -117 -143 -171 0
-156 -168 -117 143 171 0
-156 -168 117 -143 171 0
-156 -168 117 143 -171 0
-156 -168 -118 -144 -172 0
-156 -168 -118 144 172 0
-156 -168 118 -144 172 0
-156 -168 118 144 -172 0
-156 -168 -119 -145 -173 0
-156 -168 -119 145 173 0
-156 -168 119 -145 173 0
-156 -168 119 145 -173 0
-156 -168 -120 -146 -174 0
-156 -168 -120 146 174 0
-156 -168 120 -146 174 0
-156 -168 120 146 -174 0
169 170 171 172 173 174 0
175 176 177 178 179 180 181 182 183 184 185 186 0
-175 -176 0
-175 -177 0
-175 -178 0
-175 -179 0
-175 -180 0
-175 -181 0
-175 -182 0
-175 -183 0
-175 -184 0
-175 -185 0
-175 -186 0
-176 -177 0
-176 -178 0
-176 -179 0
-176 -180 0
-176 -181 0
-176 -182 0
-176 -183 0
-176 -184 0
-176 -185 0
-176 -186 0
-177 -178 0
-177 -179 0
-177 -180 0
-177 -181 0
-177 -182 0
-177 -183 0
-177 -184 0
-177 -185 0
-177 -186 0
-178 -179 0
-178 -180 0
-178 -181 0
-178 -182 0
-178 -183 0
-178 -184 0
-178 -185 0
-178 -186 0
-179 -180 0
-179 -181 0
-179 -182 0
-179 -183 0
-179 -184 0
-179 -185 0
-179 -186 0
-180 -181 0
-180 -182 0
-180 -183 0
-180 -184 0
-180 -185 0
-180 -186 0
-181 -182 0
-181 -183 0
-181 -184 0
-181 -185 0
-181 -186 0
-182 -183 0
-182 -184 0
-182 -185 0
-182 -186 0
-183 -184 0
-183 -185 0
-183 -186 0
-184 -185 0
-184 -186 0
-185 -186 0
187 188 189 190 191 192 193 194 195 196 197 198 0
-187 -188 0
-187 -189 0
-187 -190 0
-187 -191 0
-187 -192 0
-187 -193 0
-187 -194 0
-187 -195 0
-187 -196 0
-187 -197 0
-187 -198 0
-188 -189 0
-188 -190 0
-188 -191 0
-188 -192 0
-188 -193 0
-188 -194 0
-188 -195 0
-188 -196 0
-188 -197 0
-188 -198 0
-189 -190 0
-189 -191 0
-189 -192 0
-189 -193 0
-189 -194 0
-189 -195 0
-189 -196 0
-189 -197 0
-189 -198 0
-190 -191 0
-190 -192 0
-190 -193 0
-190 -194 0
-190 -195 0
-190 -196 0
-190 -197 0
-190 -198 0
-191 -192 0
-191 -193 0
-191 -194 0
-191 -195 0
-191 -196 0
-191 -197 0
-191 -198 0
-192 -193 0
-192 -194 0
-192 -195 0
-192 -196 0
-192 -197 0
-192 -198 0
-193 -194 0
-193 -195 0
-193 -196 0
-193 -197 0
-193 -198 0
-194 -195 0
-194 -196 0
-194 -197 0
-194 -198 0
-195 -196 0
-195 -197 0
-195 -198 0
-196 -197 0
-196 -198 0
-197 -198 0
-175 -187 0
-176 -187 0
-176 -188 0
-177 -187 0
-177 -188 0
-177 -189 0
-178 -187 0
-178 -188 0
-178 -189 0
-178 -190 0
-179 -187 0
-179 -188 0
-179 -189 0
-179 -190 0
-179 -191 0
-180 -187 0
-180 -188 0
-180 -189 0
-180 -190 0
-180 -191 0
-180 -192 0
-181 -187 0
-181 -188 0
-181 -189 0
-181 -190 0
-181 -191 0
-181 -192 0
-181 -193 0
-182 -187 0
-182 -188 0
-182 -189 0
-182 -190 0
-182 -191 0
-182 -192 0
-182 -193 0
-182 -194 0
-183 -187 0
-183 -188 0
-183 -189 0
-183 -190 0
-183 -191 0
-183 -192 0
-183 -193 0
-183 -194 0
-183 -195 0
-184 -187 0
-184 -188 0
-184 -189 0
-184 -190 0
-184 -191 0
-184 -192 0
-184 -193 0
-184 -194 0
-184 -195 0
-184 -196 0
-185 -187 0
-185 -188 0
-185 -189 0
-185 -190 0
-185 -191 0
-185 -192 0
-185 -193 0
-185 -194 0
-185 -195 0
-185 -196 0
-185 -197 0
-186 -187 0
-186 -188 0
-186 -189 0
-186 -190 0
-186 -191 0
-186 -192 0
-186 -193 0
-186 -194 0
-186 -195 0
-186 -196 0
-186 -197 0
-186 -198 0
-175 -188 -1 -7 -199 0
-175 -188 -1 7 199 0
-175 -188 1 -7 199 0
-175 -188 1 7 -199 0
-175 -188 -2 -8 -200 0
-175 -188 -2 8 200 0
-175 -188 2 -8 200 0
-175 -188 2 8 -200 0
-175 -188 -3 -9 -201 0
-175 -188 -3 9 201 0
-175 -188 3 -9 201 0
-175 -188 3 9 -201 0
-175 -188 -4 -10 -202 0
-175 -188 -4 10 202 0
-175 -188 4 -10 202 0
-175 -188 4 10 -202 0
-175 -188 -5 -11 -203 0
-175 -188 -5 11 203 0
-175 -188 5 -11 203 0
-175 -188 5 11 -203 0
-175 -188 -6 -12 -204 0
-175 -188 -6 12 204 0
-175 -188 6 -12 204 0
-175 -188 6 12 -204 0
-175 -189 -1 -13 -199 0
-175 -189 -1 13 199 0
-175 -189 1 -13 199 0
-175 -189 1 13 -199 0
-175 -189 -2 -14 -200 0
-175 -189 -2 14 200 0
-175 -189 2 -14 200 0
-175 -189 2 14 -200 0
-175 -189 -3 -15 -201 0
-175 -189 -3 15 201 0
-175 -189 3 -15 201 0
-175 -189 3 15 -201 0
-175 -189 -4 -16 -202 0
-175 -189 -4 16 202 0
-175 -189 4 -16 202 0
-175 -189 4 16 -202 0
-175 -189 -5 -17 -203 0
-175 -189 -5 17 203 0
-175 -189 5 -17 203 0
-175 -189 5 17 -203 0
-175 -189 -6 -18 -204 0
-175 -189 -6 18 204 0
-175 -189 6 -18 204 0
-175 -189 6 18 -204 0
-175 -190 -1 -19 -199 0
-175 -190 -1 19 199 0
-175 -190 1 -19 199 0
-175 -190 1 19 -199 0
-175 -190 -2 -20 -200 0
-175 -190 -2 20 200 0
-175 -190 2 -20 200 0
-175 -190 2 20 -200 0
-175 -190 -3 -21 -201 0
-175 -190 -3 21 201 0
-175 -190 3 -21 201 0
-175 -190 3 21 -201 0
-175 -190 -4 -22 -202 0
-175 -190 -4 22 202 0
-175 -190 4 -22 202 0
-175 -190 4 22 -202 0
-175 -190 -5 -23 -203 0
-175 -190 -5 23 203 0
-175 -190 5 -23 203 0
-175 -190 5 23 -203 0
-175 -190 -6 -24 -204 0
-175 -190 -6 24 204 0
-175 -190 6 -24 204 0
-175 -190 6 24 -204 0
-175 -191 -1 -25 -199 0
-175 -191 -1 25 199 0
-175 -191 1 -25 199 0
-175 -191 1 25 -199 0
-175 -191 -2 -26 -200 0
-175 -191 -2 26 200 0
-175 -191 2 -26 200 0
-175 -191 2 26 -200 0
-175 -191 -3 -27 -201 0
-175 -191 -3 27 201 0
-175 -191 3 -27 201 0
-175 -191 3 27 -201 0
-175 -191 -4 -28 -202 0
-175 -191 -4 28 202 0
-175 -191 4 -28 202 0
-175 -191 4 28 -202 0
-175 -191 -5 -29 -203 0
-175 -191 -5 29 203 0
-175 -191 5 -29 203 0
-175 -191 5 29 -203 0
-175 -191 -6 -30 -204 0
-175 -191 -6 30 204 0
-175 -191 6 -30 204 0
-175 -191 6 30 -204 0
-175 -192 -1 -31 -199 0
-175 -192 -1 31 199 0
-175 -192 1 -31 199 0
-175 -192 1 31 -199 0
-175 -192 -2 -32 -200 0
-175 -192 -2 32 200 0
-175 -192 2 -32 200 0
-175 -192 2 32 -200 0
-175 -192 -3 -33 -201 0
-175 -192 -3 33 201 0
-175 -192 3 -33 201 0
-175 -192 3 33 -201 0
-175 -192 -4 -34 -202 0
-175 -192 -4 34 202 0
-175 -192 4 -34 202 0
-175 -192 4 34 -202 0
-175 -192 -5 -35 -203 0
-175 -192 -5 35 203 0
-175 -192 5 -35 203 0
-175 -192 5 35 -203 0
-175 -192 -6 -36 -204 0
-175 -192 -6 36 204 0
-175 -192 6 -36 204 0
-175 -192 6 36 -204 0
-175 -193 -1 -49 -199 0
-175 -193 -1 49 199 0
-175 -193 1 -49 199 0
-175 -193 1 49 -199 0
-175 -193 -2 -50 -200 0
-175 -193 -2 50 200 0
-175 -193 2 -50 200 0
-175 -193 2 50 -200 0
-175 -193 -3 -51 -201 0
-175 -193 -3 51 201 0
-175 -193 3 -51 201 0
-175 -193 3 51 -201 0
-175 -193 -4 -52 -202 0
-175 -193 -4 52 202 0
-175 -193 4 -52 202 0
-175 -193 4 52 -202 0
-175 -193 -5 -53 -203 0
-175 -193 -5 53 203 0
-175 -193 5 -53 203 0
-175 -193 5 53 -203 0
-175 -193 -6 -54 -204 0
-175 -193 -6 54 204 0
-175 -193 6 -54 204 0
-175 -193 6 54 -204 0
-175 -194 -1 -69 -199 0
-175 -194 -1 69 199 0
-175 -194 1 -69 199 0
-175 -194 1 69 -199 0
-175 -194 -2 -70 -200 0
-175 -194 -2 70 200 0
-175 -194 2 -70 200 0
-175 -194 2 70 -200 0
-175 -194 -3 -71 -201 0
-175 -194 -3 71 201 0
-175 -194 3 -71 201 0
-175 -194 3 71 -201 0
-175 -194 -4 -72 -202 0
-175 -194 -4 72 202 0
-175 -194 4 -72 202 0
-175 -194 4 72 -202 0
-175 -194 -5 -73 -203 0
-175 -194 -5 73 203 0
-175 -194 5 -73 203 0
-175 -194 5 73 -203 0
-175 -194 -6 -74 -204 0
-175 -194 -6 74 204 0
-175 -194 6 -74 204 0
-175 -194 6 74 -204 0
-175 -195 -1 -91 -199 0
-175 -195 -1 91 199 0
-175 -195 1 -91 199 0
-175 -195 1 91 -199 0
-175 -195 -2 -92 -200 0
-175 -195 -2 92 200 0
-175 -195 2 -92 200 0
-175 -195 2 92 -200 0
-175 -195 -3 -93 -201 0
-175 -195 -3 93 201 0
-175 -195 3 -93 201 0
-175 -195 3 93 -201 0
-175 -195 -4 -94 -202 0
-175 -195 -4 94 202 0
-175 -195 4 -94 202 0
-175 -195 4 94 -202 0
-175 -195 -5 -95 -203 0
-175 -195 -5 95 203 0
-175 -195 5 -95 203 0
-175 -195 5 95 -203 0
-175 -195 -6 -96 -204 0
-175 -195 -6 96 204 0
-175 -195 6 -96 204 0
-175 -195 6 96 -204 0
-175 -196 -1 -115 -199 0
-175 -196 -1 115 199 0
-175 -196 1 -115 199 0
-175 -196 1 115 -199 0
-175 -196 -2 -116 -200 0
-175 -196 -2 116 200 0
-175 -196 2 -116 200 0
-175 -196 2 116 -200 0
-175 -196 -3 -117 -201 0
-175 -196 -3 117 201 0
-175 -196 3 -117 201 0
-175 -196 3 117 -201 0
-175 -196 -4 -118 -202 0
-175 -196 -4 118 202 0
-175 -196 4 -118 202 0
-175 -196 4 118 -202 0
-175 -196 -5 -119 -203 0
-175 -196 -5 119 203 0
-175 -196 5 -119 203 0
-175 -196 5 119 -203 0
-175 -196 -6 -120 -204 0
-175 -196 -6 120 204 0
-175 -196 6 -120 204 0
-175 -196 6 120 -204 0
-175 -197 -1 -141 -199 0
-175 -197 -1 141 199 0
-175 -197 1 -141 199 0
-175 -197 1 141 -199 0
-175 -197 -2 -142 -200 0
-175 -197 -2 142 200 0
-175 -197 2 -142 200 0
-175 -197 2 142 -200 0
-175 -197 -3 -143 -201 0
-175 -197 -3 143 201 0
-175 -197 3 -143 201 0
-175 -197 3 143 -201 0
-175 -197 -4 -144 -202 0
-175 -197 -4 144 202 0
-175 -197 4 -144 202 0
-175 -197 4 144 -202 0
-175 -197 -5 -145 -203 0
-175 -197 -5 145 203 0
-175 -197 5 -145 203 0
-175 -197 5 145 -203 0
-175 -197 -6 -146 -204 0
-175 -197 -6 146 204 0
-175 -197 6 -146 204 0
-175 -197 6 146 -204 0
-175 -198 -1 -169 -199 0
-175 -198 -1 169 199 0
-175 -198 1 -169 199 0
-175 -198 1 169 -199 0
-175 -198 -2 -170 -200 0
-175 -198 -2 170 200 0
-175 -198 2 -170 200 0
-175 -198 2 170 -200 0
-175 -198 -3 -171 -201 0
-175 -198 -3 171 201 0
-175 -198 3 -171 201 0
-175 -198 3 171 -201 0
-175 -198 -4 -172 -202 0
-175 -198 -4 172 202 0
-175 -198 4 -172 202 0
-175 -198 4 172 -202 0
-175 -198 -5 -173 -203 0
-175 -198 -5 173 203 0
-175 -198 5 -173 203 0
-175 -198 5 173 -203 0
-175 -198 -6 -174 -204 0
-175 -198 -6 174 204 0
-175 -198 6 -174 204 0
-175 -198 6 174 -204 0
-176 -189 -7 -13 -199 0
-176 -189 -7 13 199 0
-176 -189 7 -13 199 0
-176 -189 7 13 -199 0
-176 -189 -8 -14 -200 0
-176 -189 -8 14 200 0
-176 -189 8 -14 200 0
-176 -189 8 14 -200 0
-176 -189 -9 -15 -201 0
-176 -189 -9 15 201 0
-176 -189 9 -15 201 0
-176 -189 9 15 -201 0
-176 -189 -10 -16 -202 0
-176 -189 -10 16 202 0
-176 -189 10 -16 202 0
-176 -189 10 16 -202 0
-176 -189 -11 -17 -203 0
-176 -189 -11 17 203 0
-176 -189 11 -17 203 0
-176 -189 11 17 -203 0
-176 -189 -12 -18 -204 0
-176 -189 -12 18 204 0
-176 -189 12 -18 204 0
-176 -189 12 18 -204 0
-176 -190 -7 -19 -199 0
-176 -190 -7 19 199 0
-176 -190 7 -19 199 0
-176 -190 7 19 -199 0
-176 -190 -8 -20 -200 0
-176 -190 -8 20 200 0
-176 -190 8 -20 200 0
-176 -190 8 20 -200 0
-176 -190 -9 -21 -201 0
-176 -190 -9 21 201 0
-176 -190 9 -21 201 0
-176 -190 9 21 -201 0
-176 -190 -10 -22 -202 0
-176 -190 -10 22 202 0
-176 -190 10 -22 202 0
-176 -190 10 22 -202 0
-176 -190 -11 -23 -203 0
-176 -190 -11 23 203 0
-176 -190 11 -23 203 0
-176 -190 11 23 -203 0
-176 -190 -12 -24 -204 0
-176 -190 -12 24 204 0
-176 -190 12 -24 204 0
-176 -190 12 24 -204 0
-176 -191 -7 -25 -199 0
-176 -191 -7 25 199 0
-176 -191 7 -25 199 0
-176 -191 7 25 -199 0
-176 -191 -8 -26 -200 0
-176 -191 -8 26 200 0
-176 -191 8 -26 200 0
-176 -191 8 26 -200 0
-176 -191 -9 -27 -201 0
-176 -191 -9 27 201 0
-176 -191 9 -27 201 0
-176 -191 9 27 -201 0
-176 -191 -10 -28 -202 0
-176 -191 -10 28 202 0
-176 -191 10 -28 202 0
-176 -191 10 28 -202 0
-176 -191 -11 -29 -203 0
-176 -191 -11 29 203 0
-176 -191 11 -29 203 0
-176 -191 11 29 -203 0
-176 -191 -12 -30 -204 0
-176 -191 -12 30 204 0
-176 -191 12 -30 204 0
-176 -191 12 30 -204 0
-176 -192 -7 -31 -199 0
-176 -192 -7 31 199 0
-176 -192 7 -31 199 0
-176 -192 7 31 -199 0
-176 -192 -8 -32 -200 0
-176 -192 -8 32 200 0
-176 -192 8 -32 200 0
-176 -192 8 32 -200 0
-176 -192 -9 -33 -201 0
-176 -192 -9 33 201 0
-176 -192 9 -33 201 0
-176 -192 9 33 -201 0
-176 -192 -10 -34 -202 0
-176 -192 -10 34 202 0
-176 -192 10 -34 202 0
-176 -192 10 34 -202 0
-176 -192 -11 -35 -203 0
-176 -192 -11 35 203 0
-176 -192 11 -35 203 0
-176 -192 11 35 -203 0
-176 -192 -12 -36 -204 0
-176 -192 -12 36 204 0
-176 -192 12 -36 204 0
-176 -192 12 36 -204 0
-176 -193 -7 -49 -199 0
-176 -193 -7 49 199 0
-176 -193 7 -49 199 0
-176 -193 7 49 -199 0
-176 -193 -8 -50 -200 0
-176 -193 -8 50 200 0
-176 -193 8 -50 200 0
-176 -193 8 50 -200 0
-176 -193 -9 -51 -201 0
-176 -193 -9 51 201 0
-176 -193 9 -51 201 0
-176 -193 9 51 -201 0
-176 -193 -10 -52 -202 0
-176 -193 -10 52 202 0
-176 -193 10 -52 202 0
-176 -193 10 52 -202 0
-176 -193 -11 -53 -203 0
-176 -193 -11 53 203 0
-176 -193 11 -53 203 0
-176 -193 11 53 -203 0
-176 -193 -12 -54 -204 0
-176 -193 -12 54 204 0
-176 -193 12 -54 204 0
-176 -193 12 54 -204 0
-176 -194 -7 -69 -199 0
-176 -194 -7 69 199 0
-176 -194 7 -69 199 0
-176 -194 7 69 -199 0
-176 -194 -8 -70 -200 0
-176 -194 -8 70 200 0
-176 -194 8 -70 200 0
-176 -194 8 70 -200 0
-176 -194 -9 -71 -201 0
-176 -194 -9 71 201 0
-176 -194 9 -71 201 0
-176 -194 9 71 -201 0
-176 -194 -10 -72 -202 0
-176 -194 -10 72 202 0
-176 -194 10 -72 202 0
-176 -194 10 72 -202 0
-176 -194 -11 -73 -203 0
-176 -194 -11 73 203 0
-176 -194 11 -73 203 0
-176 -194 11 73 -203 0
-176 -194 -12 -74 -204 0
-176 -194 -12 74 204 0
-176 -194 12 -74 204 0
-176 -194 12 74 -204 0
-176 -195 -7 -91 -199 0
-176 -195 -7 91 199 0
-176 -195 7 -91 199 0
-176 -195 7 91 -199 0
-176 -195 -8 -92 -200 0
-176 -195 -8 92 200 0
-176 -195 8 -92 200 0
-176 -195 8 92 -200 0
-176 -195 -9 -93 -201 0
-176 -195 -9 93 201 0
-176 -195 9 -93 201 0
-176 -195 9 93 -201 0
-176 -195 -10 -94 -202 0
-176 -195 -10 94 202 0
-176 -195 10 -94 202 0
-176 -195 10 94 -202 0
-176 -195 -11 -95 -203 0
-176 -195 -11 95 203 0
-176 -195 11 -95 203 0
-176 -195 11 95 -203 0
-176 -195 -12 -96 -204 0
-176 -195 -12 96 204 0
-176 -195 12 -96 204 0
-176 -195 12 96 -204 0
-176 -196 -7 -115 -199 0
-176 -196 -7 115 199 0
-176 -196 7 -115 199 0
-176 -196 7 115 -199 0
-176 -196 -8 -116 -200 0
-176 -196 -8 116 200 0
-176 -196 8 -116 200 0
-176 -196 8 116 -200 0
-176 -196 -9 -117 -201 0
-176 -196 -9 117 201 0
-176 -196 9 -117 201 0
-176 -196 9 117 -201 0
-176 -196 -10 -118 -202 0
-176 -196 -10 118 202 0
-176 -196 10 -118 202 0
-176 -196 10 118 -202 0
-176 -196 -11 -119 -203 0
-176 -196 -11 119 203 0
-176 -196 11 -119 203 0
-176 -196 11 119 -203 0
-176 -196 -12 -120 -204 0
-176 -196 -12 120 204 0
-176 -196 12 -120 204 0
-176 -196 12 120 -204 0
-176 -197 -7 -141 -199 0
-176 -197 -7 141 199 0
-176 -197 7 -141 199 0
-176 -197 7 141 -199 0
-176 -197 -8 -142 -200 0
-176 -197 -8 142 200 0
-176 -197 8 -142 200 0
-176 -197 8 142 -200 0
-176 -197 -9 -143 -201 0
-176 -197 -9 143 201 0
-176 -197 9 -143 201 0
-176 -197 9 143 -201 0
-176 -197 -10 -144 -202 0
-176 -197 -10 144 202 0
-176 -197 10 -144 202 0
-176 -197 10 144 -202 0
-176 -197 -11 -145 -203 0
-176 -197 -11 145 203 0
-176 -197 11 -145 203 0
-176 -197 11 145 -203 0
-176 -197 -12 -146 -204 0
-176 -197 -12 146 204 0
-176 -197 12 -146 204 0
-176 -197 12 146 -204 0
-176 -198 -7 -169 -199 0
-176 -198 -7 169 199 0
-176 -198 7 -169 199 0
-176 -198 7 169 -199 0
-176 -198 -8 -170 -200 0
-176 -198 -8 170 200 0
-176 -198 8 -170 200 0
-176 -198 8 170 -200 0
-176 -198 -9 -171 -201 0
-176 -198 -9 171 201 0
-176 -198 9 -171 201 0
-176 -198 9 171 -201 0
-176 -198 -10 -172 -202 0
-176 -198 -10 172 202 0
-176 -198 10 -172 202 0
-176 -198 10 172 -202 0
-176 -198 -11 -173 -203 0
-176 -198 -11 173 203 0
-176 -198 11 -173 203 0
-176 -198 11 173 -203 0
-176 -198 -12 -174 -204 0
-176 -198 -12 174 204 0
-176 -198 12 -174 204 0
-176 -198 12 174 -204 0
-177 -190 -13 -19 -199 0
-177 -190 -13 19 199 0
-177 -190 13 -19 199 0
-177 -190 13 19 -199 0
-177 -190 -14 -20 -200 0
-177 -190 -14 20 200 0
-177 -190 14 -20 200 0
-177 -190 14 20 -200 0
-177 -190 -15 -21 -201 0
-177 -190 -15 21 201 0
-177 -190 15 -21 201 0
-177 -190 15 21 -201 0
-177 -190 -16 -22 -202 0
-177 -190 -16 22 202 0
-177 -190 16 -22 202 0
-177 -190 16 22 -202 0
-177 -190 -17 -23 -203 0
-177 -190 -17 23 203 0
-177 -190 17 -23 203 0
-177 -190 17 23 -203 0
-177 -190 -18 -24 -204 0
-177 -190 -18 24 204 0
-177 -190 18 -24 204 0
-177 -190 18 24 -204 0
-177 -191 -13 -25 -199 0
-177 -191 -13 25 199 0
-177 -191 13 -25 199 0
-177 -191 13 25 -199 0
-177 -191 -14 -26 -200 0
-177 -191 -14 26 200 0
-177 -191 14 -26 200 0
-177 -191 14 26 -200 0
-177 -191 -15 -27 -201 0
-177 -191 -15 27 201 0
-177 -191 15 -27 201 0
-177 -191 15 27 -201 0
-177 -191 -16 -28 -202 0
-177 -191 -16 28 202 0
-177 -191 16 -28 202 0
-177 -191 16 28 -202 0
-177 -191 -17 -29 -203 0
-177 -191 -17 29 203 0
-177 -191 17 -29 203 0
-177 -191 17 29 -203 0
-177 -191 -18 -30 -204 0
-177 -191 -18 30 204 0
-177 -191 18 -30 204 0
-177 -191 18 30 -204 0
-177 -192 -13 -31 -199 0
-177 -192 -13 31 199 0
-177 -192 13 -31 199 0
-177 -192 13 31 -199 0
-177 -192 -14 -32 -200 0
-177 -192 -14 32 200 0
-177 -192 14 -32 200 0
-177 -192 14 32 -200 0
-177 -192 -15 -33 -201 0
-177 -192 -15 33 201 0
-177 -192 15 -33 201 0
-177 -192 15 33 -201 0
-177 -192 -16 -34 -202 0
-177 -192 -16 34 202 0
-177 -192 16 -34 202 0
-177 -192 16 34 -202 0
-177 -192 -17 -35 -203 0
-177 -192 -17 35 203 0
-177 -192 17 -35 203 0
-177 -192 17 35 -203 0
-177 -192 -18 -36 -204 0
-177 -192 -18 36 204 0
-177 -192 18 -36 204 0
-177 -192 18 36 -204 0
-177 -193 -13 -49 -199 0
-177 -193 -13 49 199 0
-177 -193 13 -49 199 0
-177 -193 13 49 -199 0
-177 -193 -14 -50 -200 0
-177 -193 -14 50 200 0
-177 -193 14 -50 200 0
-177 -193 14 50 -200 0
-177 -193 -15 -51 -201 0
-177 -193 -15 51 201 0
-177 -193 15 -51 201 0
-177 -193 15 51 -201 0
-177 -193 -16 -52 -202 0
-177 -193 -16 52 202 0
-177 -193 16 -52 202 0
-177 -193 16 52 -202 0
-177 -193 -17 -53 -203 0
-177 -193 -17 53 203 0
-177 -193 17 -53 203 0
-177 -193 17 53 -203 0
-177 -193 -18 -54 -204 0
-177 -193 -18 54 204 0
-177 -193 18 -54 204 0
-177 -193 18 54 -204 0
-177 -194 -13 -69 -199 0
-177 -194 -13 69 199 0
-177 -194 13 -69 199 0
-177 -194 13 69 -199 0
-177 -194 -14 -70 -200 0
-177 -194 -14 70 200 0
-177 -194 14 -70 200 0
-177 -194 14 70 -200 0
-177 -194 -15 -71 -201 0
-177 -194 -15 71 201 0
-177 -194 15 -71 201 0
-177 -194 15 71 -201 0
-177 -194 -16 -72 -202 0
-177 -194 -16 72 202 0
-177 -194 16 -72 202 0
-177 -194 16 72 -202 0
-177 -194 -17 -73 -203 0
-177 -194 -17 73 203 0
-177 -194 17 -73 203 0
-177 -194 17 73 -203 0
-177 -194 -18 -74 -204 0
-177 -194 -18 74 204 0
-177 -194 18 -74 204 0
-177 -194 18 74 -204 0
-177 -195 -13 -91 -199 0
-177 -195 -13 91 199 0
-177 -195 13 -91 199 0
-177 -195 13 91 -199 0
-177 -195 -14 -92 -200 0
-177 -195 -14 92 200 0
-177 -195 14 -92 200 0
-177 -195 14 92 -200 0
-177 -195 -15 -93 -201 0
-177 -195 -15 93 201 0
-177 -195 15 -93 201 0
-177 -195 15 93 -201 0
-177 -195 -16 -94 -202 0
-177 -195 -16 94 202 0
-177 -195 16 -94 202 0
-177 -195 16 94 -202 0
-177 -195 -17 -95 -203 0
-177 -195 -17 95 203 0
-177 -195 17 -95 203 0
-177 -195 17 95 -203 0
-177 -195 -18 -96 -204 0
-177 -195 -18 96 204 0
-177 -195 18 -96 204 0
-177 -195 18 96 -204 0
-177 -196 -13 -115 -199 0
-177 -196 -13 115 199 0
-177 -196 13 -115 199 0
-177 -196 13 115 -199 0
-177 -196 -14 -116 -200 0
-177 -196 -14 116 200 0
-177 -196 14 -116 200 0
-177 -196 14 116 -200 0
-177 -196 -15 -117 -201 0
-177 -196 -15 117 201 0
-177 -196 15 -117 201 0
-177 -196 15 117 -201 0
-177 -196 -16 -118 -202 0
-177 -196 -16 118 202 0
-177 -196 16 -118 202 0
-177 -196 16 118 -202 0
-177 -196 -17 -119 -203 0
-177 -196 -17 119 203 0
-177 -196 17 -119 203 0
-177 -196 17 119 -203 0
-177 -196 -18 -120 -204 0
-177 -196 -18 120 204 0
-177 -196 18 -120 204 0
-177 -196 18 120 -204 0
-177 -197 -13 -141 -199 0
-177 -197 -13 141 199 0
-177 -197 13 -141 199 0
-177 -197 13 141 -199 0
-177 -197 -14 -142 -200 0
-177 -197 -14 142 200 0
-177 -197 14 -142 200 0
-177 -197 14 142 -200 0
-177 -197 -15 -143 -201 0
-177 -197 -15 143 201 0
-177 -197 15 -143 201 0
-177 -197 15 143 -201 0
-177 -197 -16 -144 -202 0
-177 -197 -16 144 202 0
-177 -197 16 -144 202 0
-177 -197 16 144 -202 0
-177 -197 -17 -145 -203 0
-177 -197 -17 145 203 0
-177 -197 17 -145 203 0
-177 -197 17 145 -203 0
-177 -197 -18 -146 -204 0
-177 -197 -18 146 204 0
-177 -197 18 -146 204 0
-177 -197 18 146 -204 0
-177 -198 -13 -169 -199 0
-177 -198 -13 169 199 0
-177 -198 13 -169 199 0
-177 -198 13 169 -199 0
-177 -198 -14 -170 -200 0
-177 -198 -14 170 200 0
-177 -198 14 -170 200 0
-177 -198 14 170 -200 0
-177 -198 -15 -171 -201 0
-177 -198 -15 171 201 0
-177 -198 15 -171 201 0
-177 -198 15 171 -201 0
-177 -198 -16 -172 -202 0
-177 -198 -16 172 202 0
-177 -198 16 -172 202 0
-177 -198 16 172 -202 0
-177 -198 -17 -173 -203 0
-177 -198 -17 173 203 0
-177 -198 17 -173 203 0
-177 -198 17 173 -203 0
-177 -198 -18 -174 -204 0
-177 -198 -18 174 204 0
-177 -198 18 -174 204 0
-177 -198 18 174 -204 0
-178 -191 -19 -25 -199 0
-178 -191 -19 25 199 0
-178 -191 19 -25 199 0
-178 -191 19 25 -199 0
-178 -191 -20 -26 -200 0
-178 -191 -20 26 200 0
-178 -191 20 -26 200 0
-178 -191 20 26 -200 0
-178 -191 -21 -27 -201 0
-178 -191 -21 27 201 0
-178 -191 21 -27 201 0
-178 -191 21 27 -201 0
-178 -191 -22 -28 -202 0
-178 -191 -22 28 202 0
-178 -191 22 -28 202 0
-178 -191 22 28 -202 0
-178 -191 -23 -29 -203 0
-178 -191 -23 29 203 0
-178 -191 23 -29 203 0
-178 -191 23 29 -203 0
-178 -191 -24 -30 -204 0
-178 -191 -24 30 204 0
-178 -191 24 -30 204 0
-178 -191 24 30 -204 0
-178 -192 -19 -31 -199 0
-178 -192 -19 31 199 0
-178 -192 19 -31 199 0
-178 -192 19 31 -199 0
-178 -192 -20 -32 -200 0
-178 -192 -20 32 200 0
-178 -192 20 -32 200 0
-178 -192 20 32 -200 0
-178 -192 -21 -33 -201 0
-178 -192 -21 33 201 0
-178 -192 21 -33 201 0
-178 -192 21 33 -201 0
-178 -192 -22 -34 -202 0
-178 -192 -22 34 202 0
-178 -192 22 -34 202 0
-178 -192 22 34 -202 0
-178 -192 -23 -35 -203 0
-178 -192 -23 35 203 0
-178 -192 23 -35 203 0
-178 -192 23 35 -203 0
-178 -192 -24 -36 -204 0
-178 -192 -24 36 204 0
-178 -192 24 -36 204 0
-178 -192 24 36 -204 0
-178 -193 -19 -49 -199 0
-178 -193 -19 49 199 0
-178 -193 19 -49 199 0
-178 -193 19 49 -199 0
-178 -193 -20 -50 -200 0
-178 -193 -20 50 200 0
-178 -193 20 -50 200 0
-178 -193 20 50 -200 0
-178 -193 -21 -51 -201 0
-178 -193 -21 51 201 0
-178 -193 21 -51 201 0
-178 -193 21 51 -201 0
-178 -193 -22 -52 -202 0
-178 -193 -22 52 202 0
-178 -193 22 -52 202 0
-178 -193 22 52 -202 0
-178 -193 -23 -53 -203 0
-178 -193 -23 53 203 0
-178 -193 23 -53 203 0
-178 -193 23 53 -203 0
-178 -193 -24 -54 -204 0
-178 -193 -24 54 204 0
-178 -193 24 -54 204 0
-178 -193 24 54 -204 0
-178 -194 -19 -69 -199 0
-178 -194 -19 69 199 0
-178 -194 19 -69 199 0
-178 -194 19 69 -199 0
-178 -194 -20 -70 -200 0
-178 -194 -20 70 200 0
-178 -194 20 -70 200 0
-178 -194 20 70 -200 0
-178 -194 -21 -71 -201 0
-178 -194 -21 71 201 0
-178 -194 21 -71 201 0
-178 -194 21 71 -201 0
-178 -194 -22 -72 -202 0
-178 -194 -22 72 202 0
-178 -194 22 -72 202 0
-178 -194 22 72 -202 0
-178 -194 -23 -73 -203 0
-178 -194 -23 73 203 0
-178 -194 23 -73 203 0
-178 -194 23 73 -203 0
-178 -194 -24 -74 -204 0
-178 -194 -24 74 204 0
-178 -194 24 -74 204 0
-178 -194 24 74 -204 0
-178 -195 -19 -91 -199 0
-178 -195 -19 91 199 0
-178 -195 19 -91 199 0
-178 -195 19 91 -199 0
-178 -195 -20 -92 -200 0
-178 -195 -20 92 200 0
-178 -195 20 -92 200 0
-178 -195 20 92 -200 0
-178 -195 -21 -93 -201 0
-178 -195 -21 93 201 0
-178 -195 21 -93 201 0
-178 -195 21 93 -201 0
-178 -195 -22 -94 -202 0
-178 -195 -22 94 202 0
-178 -195 22 -94 202 0
-178 -195 22 94 -202 0
-178 -195 -23 -95 -203 0
-178 -195 -23 95 203 0
-178 -195 23 -95 203 0
-178 -195 23 95 -203 0
-178 -195 -24 -96 -204 0
-178 -195 -24 96 204 0
-178 -195 24 -96 204 0
-178 -195 24 96 -204 0
-178 -196 -19 -115 -199 0
-178 -196 -19 115 199 0
-178 -196 19 -115 199 0
-178 -196 19 115 -199 0
-178 -196 -20 -116 -200 0
-178 -196 -20 116 200 0
-178 -196 20 -116 200 0
-178 -196 20 116 -200 0
-178 -196 -21 -117 -201 0
-178 -196 -21 117 201 0
-178 -196 21 -117 201 0
-178 -196 21 117 -201 0
-178 -196 -22 -118 -202 0
-178 -196 -22 118 202 0
-178 -196 22 -118 202 0
-178 -196 22 118 -202 0
-178 -196 -23 -119 -203 0
-178 -196 -23 119 203 0
-178 -196 23 -119 203 0
-178 -196 23 119 -203 0
-178 -196 -24 -120 -204 0
-178 -196 -24 120 204 0
-178 -196 24 -120 204 0
-178 -196 24 120 -204 0
-178 -197 -19 -141 -199 0
-178 -197 -19 141 199 0
-178 -197 19 -141 199 0
-178 -197 19 141 -199 0
-178 -197 -20 -142 -200 0
-178 -197 -20 142 200 0
-178 -197 20 -142 200 0
-178 -197 20 142 -200 0
-178 -197 -21 -143 -201 0
-178 -197 -21 143 201 0
-178 -197 21 -143 201 0
-178 -197 21 143 -201 0
-178 -197 -22 -144 -202 0
-178 -197 -22 144 202 0
-178 -197 22 -144 202 0
-178 -197 22 144 -202 0
-178 -197 -23 -145 -203 0
-178 -197 -23 145 203 0
-178 -197 23 -145 203 0
-178 -197 23 145 -203 0
-178 -197 -24 -146 -204 0
-178 -197 -24 146 204 0
-178 -197 24 -146 204 0
-178 -197 24 146 -204 0
-178 -198 -19 -169 -199 0
-178 -198 -19 169 199 0
-178 -198 19 -169 199 0
-178 -198 19 169 -199 0
-178 -198 -20 -170 -200 0
-178 -198 -20 170 200 0
-178 -198 20 -170 200 0
-178 -198 20 170 -200 0
-178 -198 -21 -171 -201 0
-178 -198 -21 171 201 0
-178 -198 21 -171 201 0
-178 -198 21 171 -201 0
-178 -198 -22 -172 -202 0
-178 -198 -22 172 202 0
-178 -198 22 -172 202 0
-178 -198 22 172 -202 0
-178 -198 -23 -173 -203 0
-178 -198 -23 173 203 0
-178 -198 23 -173 203 0
-178 -198 23 173 -203 0
-178 -198 -24 -174 -204 0
-178 -198 -24 174 204 0
-178 -198 24 -174 204 0
-178 -198 24 174 -204 0
-179 -192 -25 -31 -199 0
-179 -192 -25 31 199 0
-179 -192 25 -31 199 0
-179 -192 25 31 -199 0
-179 -192 -26 -32 -200 0
-179 -192 -26 32 200 0
-179 -192 26 -32 200 0
-179 -192 26 32 -200 0
-179 -192 -27 -33 -201 0
-179 -192 -27 33 201 0
-179 -192 27 -33 201 0
-179 -192 27 33 -201 0
-179 -192 -28 -34 -202 0
-179 -192 -28 34 202 0
-179 -192 28 -34 202 0
-179 -192 28 34 -202 0
-179 -192 -29 -35 -203 0
-179 -192 -29 35 203 0
-179 -192 29 -35 203 0
-179 -192 29 35 -203 0
-179 -192 -30 -36 -204 0
-179 -192 -30 36 204 0
-179 -192 30 -36 204 0
-179 -192 30 36 -204 0
-179 -193 -25 -49 -199 0
-179 -193 -25 49 199 0
-179 -193 25 -49 199 0
-179 -193 25 49 -199 0
-179 -193 -26 -50 -200 0
-179 -193 -26 50 200 0
-179 -193 26 -50 200 0
-179 -193 26 50 -200 0
-179 -193 -27 -51 -201 0
-179 -193 -27 51 201 0
-179 -193 27 -51 201 0
-179 -193 27 51 -201 0
-179 -193 -28 -52 -202 0
-179 -193 -28 52 202 0
-179 -193 28 -52 202 0
-179 -193 28 52 -202 0
-179 -193 -29 -53 -203 0
-179 -193 -29 53 203 0
-179 -193 29 -53 203 0
-179 -193 29 53 -203 0
-179 -193 -30 -54 -204 0
-179 -193 -30 54 204 0
-179 -193 30 -54 204 0
-179 -193 30 54 -204 0
-179 -194 -25 -69 -199 0
-179 -194 -25 69 199 0
-179 -194 25 -69 199 0
-179 -194 25 69 -199 0
-179 -194 -26 -70 -200 0
-179 -194 -26 70 200 0
-179 -194 26 -70 200 0
-179 -194 26 70 -200 0
-179 -194 -27 -71 -201 0
-179 -194 -27 71 201 0
-179 -194 27 -71 201 0
-179 -194 27 71 -201 0
-179 -194 -28 -72 -202 0
-179 -194 -28 72 202 0
-179 -194 28 -72 202 0
-179 -194 28 72 -202 0
-179 -194 -29 -73 -203 0
-179 -194 -29 73 203 0
-179 -194 29 -73 203 0
-179 -194 29 73 -203 0
-179 -194 -30 -74 -204 0
-179 -194 -30 74 204 0
-179 -194 30 -74 204 0
-179 -194 30 74 -204 0
-179 -195 -25 -91 -199 0
-179 -195 -25 91 199 0
-179 -195 25 -91 199 0
-179 -195 25 91 -199 0
-179 -195 -26 -92 -200 0
-179 -195 -26 92 200 0
-179 -195 26 -92 200 0
-179 -195 26 92 -200 0
-179 -195 -27 -93 -201 0
-179 -195 -27 93 201 0
-179 -195 27 -93 201 0
-179 -195 27 93 -201 0
-179 -195 -28 -94 -202 0
-179 -195 -28 94 202 0
-179 -195 28 -94 202 0
-179 -195 28 94 -202 0
-179 -195 -29 -95 -203 0
-179 -195 -29 95 203 0
-179 -195 29 -95 203 0
-179 -195 29 95 -203 0
-179 -195 -30 -96 -204 0
-179 -195 -30 96 204 0
-179 -195 30 -96 204 0
-179 -195 30 96 -204 0
-179 -196 -25 -115 -199 0
-179 -196 -25 115 199 0
-179 -196 25 -115 199 0
-179 -196 25 115 -199 0
-179 -196 -26 -116 -200 0
-179 -196 -26 116 200 0
-179 -196 26 -116 200 0
-179 -196 26 116 -200 0
-179 -196 -27 -117 -201 0
-179 -196 -27 117 201 0
-179 -196 27 -117 201 0
-179 -196 27 117 -201 0
-179 -196 -28 -118 -202 0
-179 -196 -28 118 202 0
-179 -196 28 -118 202 0
-179 -196 28 118 -202 0
-179 -196 -29 -119 -203 0
-179 -196 -29 119 203 0
-179 -196 29 -119 203 0
-179 -196 29 119 -203 0
-179 -196 -30 -120 -204 0
-179 -196 -30 120 204 0
-179 -196 30 -120 204 0
-179 -196 30 120 -204 0
-179 -197 -25 -141 -199 0
-179 -197 -25 141 199 0
-179 -197 25 -141 199 0
-179 -197 25 141 -199 0
-179 -197 -26 -142 -200 0
-179 -197 -26 142 200 0
-179 -197 26 -142 200 0
-179 -197 26 142 -200 0
-179 -197 -27 -143 -201 0
-179 -197 -27 143 201 0
-179 -197 27 -143 201 0
-179 -197 27 143 -201 0
-179 -197 -28 -144 -202 0
-179 -197 -28 144 202 0
-179 -197 28 -144 202 0
-179 -197 28 144 -202 0
-179 -197 -29 -145 -203 0
-179 -197 -29 145 203 0
-179 -197 29 -145 203 0
-179 -197 29 145 -203 0
-179 -197 -30 -146 -204 0
-179 -197 -30 146 204 0
-179 -197 30 -146 204 0
-179 -197 30 146 -204 0
-179 -198 -25 -169 -199 0
-179 -198 -25 169 199 0
-179 -198 25 -169 199 0
-179 -198 25 169 -199 0
-179 -198 -26 -170 -200 0
-179 -198 -26 170 200 0
-179 -198 26 -170 200 0
-179 -198 26 170 -200 0
-179 -198 -27 -171 -201 0
-179 -198 -27 171 201 0
-179 -198 27 -171 201 0
-179 -198 27 171 -201 0
-179 -198 -28 -172 -202 0
-179 -198 -28 172 202 0
-179 -198 28 -172 202 0
-179 -198 28 172 -202 0
-179 -198 -29 -173 -203 0
-179 -198 -29 173 203 0
-179 -198 29 -173 203 0
-179 -198 29 173 -203 0
-179 -198 -30 -174 -204 0
-179 -198 -30 174 204 0
-179 -198 30 -174 204 0
-179 -198 30 174 -204 0
-180 -193 -31 -49 -199 0
-180 -193 -31 49 199 0
-180 -193 31 -49 199 0
-180 -193 31 49 -199 0
-180 -193 -32 -50 -200 0
-180 -193 -32 50 200 0
-180 -193 32 -50 200 0
-180 -193 32 50 -200 0
-180 -193 -33 -51 -201 0
-180 -193 -33 51 201 0
-180 -193 33 -51 201 0
-180 -193 33 51 -201 0
-180 -193 -34 -52 -202 0
-180 -193 -34 52 202 0
-180 -193 34 -52 202 0
-180 -193 34 52 -202 0
-180 -193 -35 -53 -203 0
-180 -193 -35 53 203 0
-180 -193 35 -53 203 0
-180 -193 35 53 -203 0
-180 -193 -36 -54 -204 0
-180 -193 -36 54 204 0
-180 -193 36 -54 204 0
-180 -193 36 54 -204 0
-180 -194 -31 -69 -199 0
-180 -194 -31 69 199 0
-180 -194 31 -69 199 0
-180 -194 31 69 -199 0
-180 -194 -32 -70 -200 0
-180 -194 -32 70 200 0
-180 -194 32 -70 200 0
-180 -194 32 70 -200 0
-180 -194 -33 -71 -201 0
-180 -194 -33 71 201 0
-180 -194 33 -71 201 0
-180 -194 33 71 -201 0
-180 -194 -34 -72 -202 0
-180 -194 -34 72 202 0
-180 -194 34 -72 202 0
-180 -194 34 72 -202 0
-180 -194 -35 -73 -203 0
-180 -194 -35 73 203 0
-180 -194 35 -73 203 0
-180 -194 35 73 -203 0
-180 -194 -36 -74 -204 0
-180 -194 -36 74 204 0
-180 -194 36 -74 204 0
-180 -194 36 74 -204 0
-180 -195 -31 -91 -199 0
-180 -195 -31 91 199 0
-180 -195 31 -91 199 0
-180 -195 31 91 -199 0
-180 -195 -32 -92 -200 0
-180 -195 -32 92 200 0
-180 -195 32 -92 200 0
-180 -195 32 92 -200 0
-180 -195 -33 -93 -201 0
-180 -195 -33 93 201 0
-180 -195 33 -93 201 0
-180 -195 33 93 -201 0
-180 -195 -34 -94 -202 0
-180 -195 -34 94 202 0
-180 -195 34 -94 202 0
-180 -195 34 94 -202 0
-180 -195 -35 -95 -203 0
-180 -195 -35 95 203 0
-180 -195 35 -95 203 0
-180 -195 35 95 -203 0
-180 -195 -36 -96 -204 0
-180 -195 -36 96 204 0
-180 -195 36 -96 204 0
-180 -195 36 96 -204 0
-180 -196 -31 -115 -199 0
-180 -196 -31 115 199 0
-180 -196 31 -115 199 0
-180 -196 31 115 -199 0
-180 -196 -32 -116 -200 0
-180 -196 -32 116 200 0
-180 -196 32 -116 200 0
-180 -196 32 116 -200 0
-180 -196 -33 -117 -201 0
-180 -196 -33 117 201 0
-180 -196 33 -117 201 0
-180 -196 33 117 -201 0
-180 -196 -34 -118 -202 0
-180 -196 -34 118 202 0
-180 -196 34 -118 202 0
-180 -196 34 118 -202 0
-180 -196 -35 -119 -203 0
-180 -196 -35 119 203 0
-180 -196 35 -119 203 0
-180 -196 35 119 -203 0
-180 -196 -36 -120 -204 0
-180 -196 -36 120 204 0
-180 -196 36 -120 204 0
-180 -196 36 120 -204 0
-180 -197 -31 -141 -199 0
-180 -197 -31 141 199 0
-180 -197 31 -141 199 0
-180 -197 31 141 -199 0
-180 -197 -32 -142 -200 0
-180 -197 -32 142 200 0
-180 -197 32 -142 200 0
-180 -197 32 142 -200 0
-180 -197 -33 -143 -201 0
-180 -197 -33 143 201 0
-180 -197 33 -143 201 0
-180 -197 33 143 -201 0
-180 -197 -34 -144 -202 0
-180 -197 -34 144 202 0
-180 -197 34 -144 202 0
-180 -197 34 144 -202 0
-180 -197 -35 -145 -203 0
-180 -197 -35 145 203 0
-180 -197 35 -145 203 0
-180 -197 35 145 -203 0
-180 -197 -36 -146 -204 0
-180 -197 -36 146 204 0
-180 -197 36 -146 204 0
-180 -197 36 146 -204 0
-180 -198 -31 -169 -199 0
-180 -198 -31 169 199 0
-180 -198 31 -169 199 0
-180 -198 31 169 -199 0
-180 -198 -32 -170 -200 0
-180 -198 -32 170 200 0
-180 -198 32 -170 200 0
-180 -198 32 170 -200 0
-180 -198 -33 -171 -201 0
-180 -198 -33 171 201 0
-180 -198 33 -171 201 0
-180 -198 33 171 -201 0
-180 -198 -34 -172 -202 0
-180 -198 -34 172 202 0
-180 -198 34 -172 202 0
-180 -198 34 172 -202 0
-180 -198 -35 -173 -203 0
-180 -198 -35 173 203 0
-180 -198 35 -173 203 0
-180 -198 35 173 -203 0
-180 -198 -36 -174 -204 0
-180 -198 -36 174 204 0
-180 -198 36 -174 204 0
-180 -198 36 174 -204 0
-181 -194 -49 -69 -199 0
-181 -194 -49 69 199 0
-181 -194 49 -69 199 0
-181 -194 49 69 -199 0
-181 -194 -50 -70 -200 0
-181 -194 -50 70 200 0
-181 -194 50 -70 200 0
-181 -194 50 70 -200 0
-181 -194 -51 -71 -201 0
-181 -194 -51 71 201 0
-181 -194 51 -71 201 0
-181 -194 51 71 -201 0
-181 -194 -52 -72 -202 0
-181 -194 -52 72 202 0
-181 -194 52 -72 202 0
-181 -194 52 72 -202 0
-181 -194 -53 -73 -203 0
-181 -194 -53 73 203 0
-181 -194 53 -73 203 0
-181 -194 53 73 -203 0
-181 -194 -54 -74 -204 0
-181 -194 -54 74 204 0
-181 -194 54 -74 204 0
-181 -194 54 74 -204 0
-181 -195 -49 -91 -199 0
-181 -195 -49 91 199 0
-181 -195 49 -91 199 0
-181 -195 49 91 -199 0
-181 -195 -50 -92 -200 0
-181 -195 -50 92 200 0
-181 -195 50 -92 200 0
-181 -195 50 92 -200 0
-181 -195 -51 -93 -201 0
-181 -195 -51 93 201 0
-181 -195 51 -93 201 0
-181 -195 51 93 -201 0
-181 -195 -52 -94 -202 0
-181 -195 -52 94 202 0
-181 -195 52 -94 202 0
-181 -195 52 94 -202 0
-181 -195 -53 -95 -203 0
-181 -195 -53 95 203 0
-181 -195 53 -95 203 0
-181 -195 53 95 -203 0
-181 -195 -54 -96 -204 0
-181 -195 -54 96 204 0
-181 -195 54 -96 204 0
-181 -195 54 96 -204 0
-181 -196 -49 -115 -199 0
-181 -196 -49 115 199 0
-181 -196 49 -115 199 0
-181 -196 49 115 -199 0
-181 -196 -50 -116 -200 0
-181 -196 -50 116 200 0
-181 -196 50 -116 200 0
-181 -196 50 116 -200 0
-181 -196 -51 -117 -201 0
-181 -196 -51 117 201 0
-181 -196 51 -117 201 0
-181 -196 51 117 -201 0
-181 -196 -52 -118 -202 0
-181 -196 -52 118 202 0
-181 -196 52 -118 202 0
-181 -196 52 118 -202 0
-181 -196 -53 -119 -203 0
-181 -196 -53 119 203 0
-181 -196 53 -119 203 0
-181 -196 53 119 -203 0
-181 -196 -54 -120 -204 0
-181 -196 -54 120 204 0
-181 -196 54 -120 204 0
-181 -196 54 120 -204 0
-181 -197 -49 -141 -199 0
-181 -197 -49 141 199 0
-181 -197 49 -141 199 0
-181 -197 49 141 -199 0
-181 -197 -50 -142 -200 0
-181 -197 -50 142 200 0
-181 -197 50 -142 200 0
-181 -197 50 142 -200 0
-181 -197 -51 -143 -201 0
-181 -197 -51 143 201 0
-181 -197 51 -143 201 0
-181 -197 51 143 -201 0
-181 -197 -52 -144 -202 0
-181 -197 -52 144 202 0
-181 -197 52 -144 202 0
-181 -197 52 144 -202 0
-181 -197 -53 -145 -203 0
-181 -197 -53 145 203 0
-181 -197 53 -145 203 0
-181 -197 53 145 -203 0
-181 -197 -54 -146 -204 0
-181 -197 -54 146 204 0
-181 -197 54 -146 204 0
-181 -197 54 146 -204 0
-181 -198 -49 -169 -199 0
-181 -198 -49 169 199 0
-181 -198 49 -169 199 0
-181 -198 49 169 -199 0
-181 -198 -50 -170 -200 0
-181 -198 -50 170 200 0
-181 -198 50 -170 200 0
-181 -198 50 170 -200 0
-181 -198 -51 -171 -201 0
-181 -198 -51 171 201 0
-181 -198 51 -171 201 0
-181 -198 51 171 -201 0
-181 -198 -52 -172 -202 0
-181 -198 -52 172 202 0
-181 -198 52 -172 202 0
-181 -198 52 172 -202 0
-181 -198 -53 -173 -203 0
-181 -198 -53 173 203 0
-181 -198 53 -173 203 0
-181 -198 53 173 -203 0
-181 -198 -54 -174 -204 0
-181 -198 -54 174 204 0
-181 -198 54 -174 204 0
-181 -198 54 174 -204 0
-182 -195 -69 -91 -199 0
-182 -195 -69 91 199 0
-182 -195 69 -91 199 0
-182 -195 69 91 -199 0
-182 -195 -70 -92 -200 0
-182 -195 -70 92 200 0
-182 -195 70 -92 200 0
-182 -195 70 92 -200 0
-182 -195 -71 -93 -201 0
-182 -195 -71 93 201 0
-182 -195 71 -93 201 0
-182 -195 71 93 -201 0
-182 -195 -72 -94 -202 0
-182 -195 -72 94 202 0
-182 -195 72 -94 202 0
-182 -195 72 94 -202 0
-182 -195 -73 -95 -203 0
-182 -195 -73 95 203 0
-182 -195 73 -95 203 0
-182 -195 73 95 -203 0
-182 -195 -74 -96 -204 0
-182 -195 -74 96 204 0
-182 -195 74 -96 204 0
-182 -195 74 96 -204 0
-182 -196 -69 -115 -199 0
-182 -196 -69 115 199 0
-182 -196 69 -115 199 0
-182 -196 69 115 -199 0
-182 -196 -70 -116 -200 0
-182 -196 -70 116 200 0
-182 -196 70 -116 200 0
-182 -196 70 116 -200 0
-182 -196 -71 -117 -201 0
-182 -196 -71 117 201 0
-182 -196 71 -117 201 0
-182 -196 71 117 -201 0
-182 -196 -72 -118 -202 0
-182 -196 -72 118 202 0
-182 -196 72 -118 202 0
-182 -196 72 118 -202 0
-182 -196 -73 -119 -203 0
-182 -196 -73 119 203 0
-182 -196 73 -119 203 0
-182 -196 73 119 -203 0
-182 -196 -74 -120 -204 0
-182 -196 -74 120 204 0
-182 -196 74 -120 204 0
-182 -196 74 120 -204 0
-182 -197 -69 -141 -199 0
-182 -197 -69 141 199 0
-182 -197 69 -141 199 0
-182 -197 69 141 -199 0
-182 -197 -70 -142 -200 0
-182 -197 -70 142 200 0
-182 -197 70 -142 200 0
-182 -197 70 142 -200 0
-182 -197 -71 -143 -201 0
-182 -197 -71 143 201 0
-182 -197 71 -143 201 0
-182 -197 71 143 -201 0
-182 -197 -72 -144 -202 0
-182 -197 -72 144 202 0
-182 -197 72 -144 202 0
-182 -197 72 144 -202 0
-182 -197 -73 -145 -203 0
-182 -197 -73 145 203 0
-182 -197 73 -145 203 0
-182 -197 73 145 -203 0
-182 -197 -74 -146 -204 0
-182 -197 -74 146 204 0
-182 -197 74 -146 204 0
-182 -197 74 146 -204 0
-182 -198 -69 -169 -199 0
-182 -198 -69 169 199 0
-182 -198 69 -169 199 0
-182 -198 69 169 -199 0
-182 -198 -70 -170 -200 0
-182 -198 -70 170 200 0
-182 -198 70 -170 200 0
-182 -198 70 170 -200 0
-182 -198 -71 -171 -201 0
-182 -198 -71 171 201 0
-182 -198 71 -171 201 0
-182 -198 71 171 -201 0
-182 -198 -72 -172 -202 0
-182 -198 -72 172 202 0
-182 -198 72 -172 202 0
-182 -198 72 172 -202 0
-182 -198 -73 -173 -203 0
-182 -198 -73 173 203 0
-182 -198 73 -173 203 0
-182 -198 73 173 -203 0
-182 -198 -74 -174 -204 0
-182 -198 -74 174 204 0
-182 -198 74 -174 204 0
-182 -198 74 174 -204 0
-183 -196 -91 -115 -199 0
-183 -196 -91 115 199 0
-183 -196 91 -115 199 0
-183 -196 91 115 -199 0
-183 -196 -92 -116 -200 0
-183 -196 -92 116 200 0
-183 -196 92 -116 200 0
-183 -196 92 116 -200 0
-183 -196 -93 -117 -201 0
-183 -196 -93 117 201 0
-183 -196 93 -117 201 0
-183 -196 93 117 -201 0
-183 -196 -94 -118 -202 0
-183 -196 -94 118 202 0
-183 -196 94 -118 202 0
-183 -196 94 118 -202 0
-183 -196 -95 -119 -203 0
-183 -196 -95 119 203 0
-183 -196 95 -119 203 0
-183 -196 95 119 -203 0
-183 -196 -96 -120 -204 0
-183 -196 -96 120 204 0
-183 -196 96 -120 204 0
-183 -196 96 120 -204 0
-183 -197 -91 -141 -199 0
-183 -197 -91 141 199 0
-183 -197 91 -141 199 0
-183 -197 91 141 -199 0
-183 -197 -92 -142 -200 0
-183 -197 -92 142 200 0
-183 -197 92 -142 200 0
-183 -197 92 142 -200 0
-183 -197 -93 -143 -201 0
-183 -197 -93 143 201 0
-183 -197 93 -143 201 0
-183 -197 93 143 -201 0
-183 -197 -94 -144 -202 0
-183 -197 -94 144 202 0
-183 -197 94 -144 202 0
-183 -197 94 144 -202 0
-183 -197 -95 -145 -203 0
-183 -197 -95 145 203 0
-183 -197 95 -145 203 0
-183 -197 95 145 -203 0
-183 -197 -96 -146 -204 0
-183 -197 -96 146 204 0
-183 -197 96 -146 204 0
-183 -197 96 146 -204 0
-183 -198 -91 -169 -199 0
-183 -198 -91 169 199 0
-183 -198 91 -169 199 0
-183 -198 91 169 -199 0
-183 -198 -92 -170 -200 0
-183 -198 -92 170 200 0
-183 -198 92 -170 200 0
-183 -198 92 170 -200 0
-183 -198 -93 -171 -201 0
-183 -198 -93 171 201 0
-183 -198 93 -171 201 0
-183 -198 93 171 -201 0
-183 -198 -94 -172 -202 0
-183 -198 -94 172 202 0
-183 -198 94 -172 202 0
-183 -198 94 172 -202 0
-183 -198 -95 -173 -203 0
-183 -198 -95 173 203 0
-183 -198 95 -173 203 0
-183 -198 95 173 -203 0
-183 -198 -96 -174 -204 0
-183 -198 -96 174 204 0
-183 -198 96 -174 204 0
-183 -198 96 174 -204 0
-184 -197 -115 -141 -199 0
-184 -197 -115 141 199 0
-184 -197 115 -141 199 0
-184 -197 115 141 -199 0
-184 -197 -116 -142 -200 0
-184 -197 -116 142 200 0
-184 -197 116 -142 200 0
-184 -197 116 142 -200 0
-184 -197 -117 -143 -201 0
-184 -197 -117 143 201 0
-184 -197 117 -143 201 0
-184 -197 117 143 -201 0
-184 -197 -118 -144 -202 0
-184 -197 -118 144 202 0
-184 -197 118 -144 202 0
-184 -197 118 144 -202 0
-184 -197 -119 -145 -203 0
-184 -197 -119 145 203 0
-184 -197 119 -145 203 0
-184 -197 119 145 -203 0
-184 -197 -120 -146 -204 0
-184 -197 -120 146 204 0
-184 -197 120 -146 204 0
-184 -197 120 146 -204 0
-184 -198 -115 -169 -199 0
-184 -198 -115 169 199 0
-184 -198 115 -169 199 0
-184 -198 115 169 -199 0
-184 -198 -116 -170 -200 0
-184 -198 -116 170 200 0
-184 -198 116 -170 200 0
-184 -198 116 170 -200 0
-184 -198 -117 -171 -201 0
-184 -198 -117 171 201 0
-184 -198 117 -171 201 0
-184 -198 117 171 -201 0
-184 -198 -118 -172 -202 0
-184 -198 -118 172 202 0
-184 -198 118 -172 202 0
-184 -198 118 172 -202 0
-184 -198 -119 -173 -203 0
-184 -198 -119 173 203 0
-184 -198 119 -173 203 0
-184 -198 119 173 -203 0
-184 -198 -120 -174 -204 0
-184 -198 -120 174 204 0
-184 -198 120 -174 204 0
-184 -198 120 174 -204 0
-185 -198 -141 -169 -199 0
-185 -198 -141 169 199 0
-185 -198 141 -169 199 0
-185 -198 141 169 -199 0
-185 -198 -142 -170 -200 0
-185 -198 -142 170 200 0
-185 -198 142 -170 200 0
-185 -198 142 170 -200 0
-185 -198 -143 -171 -201 0
-185 -198 -143 171 201 0
-185 -198 143 -171 201 0
-185 -198 143 171 -201 0
-185 -198 -144 -172 -202 0
-185 -198 -144 172 202 0
-185 -198 144 -172 202 0
-185 -198 144 172 -202 0
-185 -198 -145 -173 -203 0
-185 -198 -145 173 203 0
-185 -198 145 -173 203 0
-185 -198 145 173 -203 0
-185 -198 -146 -174 -204 0
-185 -198 -146 174 204 0
-185 -198 146 -174 204 0
-185 -198 146 174 -204 0
199 200 201 202 203 204 0
-205 49 1 0
-205 -49 -1 0
205 -49 1 0
205 49 -1 0
-206 50 2 0
-206 -50 -2 0
206 -50 2 0
206 50 -2 0
-207 51 3 0
-207 -51 -3 0
207 -51 3 0
207 51 -3 0
-208 52 4 0
-208 -52 -4 0
208 -52 4 0
208 52 -4 0
-209 53 5 0
-209 -53 -5 0
209 -53 5 0
209 53 -5 0
-210 54 6 0
-210 -54 -6 0
210 -54 6 0
210 54 -6 0
205 206 207 208 209 210 0
-211 49 7 0
-211 -49 -7 0
211 -49 7 0
211 49 -7 0
-212 50 8 0
-212 -50 -8 0
212 -50 8 0
212 50 -8 0
-213 51 9 0
-213 -51 -9 0
213 -51 9 0
213 51 -9 0
-214 52 10 0
-214 -52 -10 0
214 -52 10 0
214 52 -10 0
-215 53 11 0
-215 -53 -11 0
215 -53 11 0
215 53 -11 0
-216 54 12 0
-216 -54 -12 0
216 -54 12 0
216 54 -12 0
211 212 213 214 215 216 0
-217 49 13 0
-217 -49 -13 0
217 -49 13 0
217 49 -13 0
-218 50 14 0
-218 -50 -14 0
218 -50 14 0
218 50 -14 0
-219 51 15 0
-219 -51 -15 0
219 -51 15 0
219 51 -15 0
-220 52 16 0
-220 -52 -16 0
220 -52 16 0
220 52 -16 0
-221 53 17 0
-221 -53 -17 0
221 -53 17 0
221 53 -17 0
-222 54 18 0
-222 -54 -18 0
222 -54 18 0
222 54 -18 0
217 218 219 220 221 222 0
-223 49 19 0
-223 -49 -19 0
223 -49 19 0
223 49 -19 0
-224 50 20 0
-224 -50 -20 0
224 -50 20 0
224 50 -20 0
-225 51 21 0
-225 -51 -21 0
225 -51 21 0
225 51 -21 0
-226 52 22 0
-226 -52 -22 0
226 -52 22 0
226 52 -22 0
-227 53 23 0
-227 -53 -23 0
227 -53 23 0
227 53 -23 0
-228 54 24 0
-228 -54 -24 0
228 -54 24 0
228 54 -24 0
223 224 225 226 227 228 0
-229 49 25 0
-229 -49 -25 0
229 -49 25 0
229 49 -25 0
-230 50 26 0
-230 -50 -26 0
230 -50 26 0
230 50 -26 0
-231 51 27 0
-231 -51 -27 0
231 -51 27 0
231 51 -27 0
-232 52 28 0
-232 -52 -28 0
232 -52 28 0
232 52 -28 0
-233 53 29 0
-233 -53 -29 0
233 -53 29 0
233 53 -29 0
-234 54 30 0
-234 -54 -30 0
234 -54 30 0
234 54 -30 0
229 230 231 232 233 234 0
-235 49 31 0
-235 -49 -31 0
235 -49 31 0
235 49 -31 0
-236 50 32 0
-236 -50 -32 0
236 -50 32 0
236 50 -32 0
-237 51 33 0
-237 -51 -33 0
237 -51 33 0
237 51 -33 0
-238 52 34 0
-238 -52 -34 0
238 -52 34 0
238 52 -34 0
-239 53 35 0
-239 -53 -35 0
239 -53 35 0
239 53 -35 0
-240 54 36 0
-240 -54 -36 0
240 -54 36 0
240 54 -36 0
235 236 237 238 239 240 0
-241 69 1 0
-241 -69 -1 0
241 -69 1 0
241 69 -1 0
-242 70 2 0
-242 -70 -2 0
242 -70 2 0
242 70 -2 0
-243 71 3 0
-243 -71 -3 0
243 -71 3 0
243 71 -3 0
-244 72 4 0
-244 -72 -4 0
244 -72 4 0
244 72 -4 0
-245 73 5 0
-245 -73 -5 0
245 -73 5 0
245 73 -5 0
-246 74 6 0
-246 -74 -6 0
246 -74 6 0
246 74 -6 0
241 242 243 244 245 246 0
-247 69 7 0
-247 -69 -7 0
247 -69 7 0
247 69 -7 0
-248 70 8 0
-248 -70 -8 0
248 -70 8 0
248 70 -8 0
-249 71 9 0
-249 -71 -9 0
249 -71 9 0
249 71 -9 0
-250 72 10 0
-250 -72 -10 0
250 -72 10 0
250 72 -10 0
-251 73 11 0
-251 -73 -11 0
251 -73 11 0
251 73 -11 0
-252 74 12 0
-252 -74 -12 0
252 -74 12 0
252 74 -12 0
247 248 249 250 251 252 0
-253 69 13 0
-253 -69 -13 0
253 -69 13 0
253 69 -13 0
-254 70 14 0
-254 -70 -14 0
254 -70 14 0
254 70 -14 0
-255 71 15 0
-255 -71 -15 0
255 -71 15 0
255 71 -15 0
-256 72 16 0
-256 -72 -16 0
256 -72 16 0
256 72 -16 0
-257 73 17 0
-257 -73 -17 0
257 -73 17 0
257 73 -17 0
-258 74 18 0
-258 -74 -18 0
258 -74 18 0
258 74 -18 0
253 254 255 256 257 258 0
-259 69 19 0
-259 -69 -19 0
259 -69 19 0
259 69 -19 0
-260 70 20 0
-260 -70 -20 0
260 -70 20 0
260 70 -20 0
-261 71 21 0
-261 -71 -21 0
261 -71 21 0
261 71 -21 0
-262 72 22 0
-262 -72 -22 0
262 -72 22 0
262 72 -22 0
-263 73 23 0
-263 -73 -23 0
263 -73 23 0
263 73 -23 0
-264 74 24 0
-264 -74 -24 0
264 -74 24 0
264 74 -24 0
259 260 261 262 263 264 0
-265 69 25 0
-265 -69 -25 0
265 -69 25 0
265 69 -25 0
-266 70 26 0
-266 -70 -26 0
266 -70 26 0
266 70 -26 0
-267 71 27 0
-267 -71 -27 0
267 -71 27 0
267 71 -27 0
-268 72 28 0
-268 -72 -28 0
268 -72 28 0
268 72 -28 0
-269 73 29 0
-269 -73 -29 0
269 -73 29 0
269 73 -29 0
-270 74 30 0
-270 -74 -30 0
270 -74 30 0
270 74 -30 0
265 266 267 268 269 270 0
-271 69 31 0
-271 -69 -31 0
271 -69 31 0
271 69 -31 0
-272 70 32 0
-272 -70 -32 0
272 -70 32 0
272 70 -32 0
-273 71 33 0
-273 -71 -33 0
273 -71 33 0
273 71 -33 0
-274 72 34 0
-274 -72 -34 0
274 -72 34 0
274 72 -34 0
-275 73 35 0
-275 -73 -35 0
275 -73 35 0
275 73 -35 0
-276 74 36 0
-276 -74 -36 0
276 -74 36 0
276 74 -36 0
271 272 273 274 275 276 0
-277 69 49 0
-277 -69 -49 0
277 -69 49 0
277 69 -49 0
-278 70 50 0
-278 -70 -50 0
278 -70 50 0
278 70 -50 0
-279 71 51 0
-279 -71 -51 0
279 -71 51 0
279 71 -51 0
-280 72 52 0
-280 -72 -52 0
280 -72 52 0
280 72 -52 0
-281 73 53 0
-281 -73 -53 0
281 -73 53 0
281 73 -53 0
-282 74 54 0
-282 -74 -54 0
282 -74 54 0
282 74 -54 0
277 278 279 280 281 282 0
-283 91 1 0
-283 -91 -1 0
283 -91 1 0
283 91 -1 0
-284 92 2 0
-284 -92 -2 0
284 -92 2 0
284 92 -2 0
-285 93 3 0
-285 -93 -3 0
285 -93 3 0
285 93 -3 0
-286 94 4 0
-286 -94 -4 0
286 -94 4 0
286 94 -4 0
-287 95 5 0
-287 -95 -5 0
287 -95 5 0
287 95 -5 0
-288 96 6 0
-288 -96 -6 0
288 -96 6 0
288 96 -6 0
283 284 285 286 287 288 0
-289 91 7 0
-289 -91 -7 0
289 -91 7 0
289 91 -7 0
-290 92 8 0
-290 -92 -8 0
290 -92 8 0
290 92 -8 0
-291 93 9 0
-291 -93 -9 0
291 -93 9 0
291 93 -9 0
-292 94 10 0
-292 -94 -10 0
292 -94 10 0
292 94 -10 0
-293 95 11 0
-293 -95 -11 0
293 -95 11 0
293 95 -11 0
-294 96 12 0
-294 -96 -12 0
294 -96 12 0
294 96 -12 0
289 290 291 292 293 294 0
-295 91 13 0
-295 -91 -13 0
295 -91 13 0
295 91 -13 0
-296 92 14 0
-296 -92 -14 0
296 -92 14 0
296 92 -14 0
-297 93 15 0
-297 -93 -15 0
297 -93 15 0
297 93 -15 0
-298 94 16 0
-298 -94 -16 0
298 -94 16 0
298 94 -16 0
-299 95 17 0
-299 -95 -17 0
299 -95 17 0
299 95 -17 0
-300 96 18 0
-300 -96 -18 0
300 -96 18 0
300 96 -18 0
295 296 297 298 299 300 0
-301 91 19 0
-301 -91 -19 0
301 -91 19 0
301 91 -19 0
-302 92 20 0
-302 -92 -20 0
302 -92 20 0
302 92 -20 0
-303 93 21 0
-303 -93 -21 0
303 -93 21 0
303 93 -21 0
-304 94 22 0
-304 -94 -22 0
304 -94 22 0
304 94 -22 0
-305 95 23 0
-305 -95 -23 0
305 -95 23 0
305 95 -23 0
-306 96 24 0
-306 -96 -24 0
306 -96 24 0
306 96 -24 0
301 302 303 304 305 306 0
-307 91 25 0
-307 -91 -25 0
307 -91 25 0
307 91 -25 0
-308 92 26 0
-308 -92 -26 0
308 -92 26 0
308 92 -26 0
-309 93 27 0
-309 -93 -27 0
309 -93 27 0
309 93 -27 0
-310 94 28 0
-310 -94 -28 0
310 -94 28 0
310 94 -28 0
-311 95 29 0
-311 -95 -29 0
311 -95 29 0
311 95 -29 0
-312 96 30 0
-312 -96 -30 0
312 -96 30 0
312 96 -30 0
307 308 309 310 311 312 0
-313 91 31 0
-313 -91 -31 0
313 -91 31 0
313 91 -31 0
-314 92 32 0
-314 -92 -32 0
314 -92 32 0
314 92 -32 0
-315 93 33 0
-315 -93 -33 0
315 -93 33 0
315 93 -33 0
-316 94 34 0
-316 -94 -34 0
316 -94 34 0
316 94 -34 0
-317 95 35 0
-317 -95 -35 0
317 -95 35 0
317 95 -35 0
-318 96 36 0
-318 -96 -36 0
318 -96 36 0
318 96 -36 0
313 314 315 316 317 318 0
-319 91 49 0
-319 -91 -49 0
319 -91 49 0
319 91 -49 0
-320 92 50 0
-320 -92 -50 0
320 -92 50 0
320 92 -50 0
-321 93 51 0
-321 -93 -51 0
321 -93 51 0
321 93 -51 0
-322 94 52 0
-322 -94 -52 0
322 -94 52 0
322 94 -52 0
-323 95 53 0
-323 -95 -53 0
323 -95 53 0
323 95 -53 0
-324 96 54 0
-324 -96 -54 0
324 -96 54 0
324 96 -54 0
319 320 321 322 323 324 0
-325 91 69 0
-325 -91 -69 0
325 -91 69 0
325 91 -69 0
-326 92 70 0
-326 -92 -70 0
326 -92 70 0
326 92 -70 0
-327 93 71 0
-327 -93 -71 0
327 -93 71 0
327 93 -71 0
-328 94 72 0
-328 -94 -72 0
328 -94 72 0
328 94 -72 0
-329 95 73 0
-329 -95 -73 0
329 -95 73 0
329 95 -73 0
-330 96 74 0
-330 -96 -74 0
330 -96 74 0
330 96 -74 0
325 326 327 328 329 330 0
-331 115 1 0
-331 -115 -1 0
331 -115 1 0
331 115 -1 0
-332 116 2 0
-332 -116 -2 0
332 -116 2 0
332 116 -2 0
-333 117 3 0
-333 -117 -3 0
333 -117 3 0
333 117 -3 0
-334 118 4 0
-334 -118 -4 0
334 -118 4 0
334 118 -4 0
-335 119 5 0
-335 -119 -5 0
335 -119 5 0
335 119 -5 0
-336 120 6 0
-336 -120 -6 0
336 -120 6 0
336 120 -6 0
331 332 333 334 335 336 0
-337 115 7 0
-337 -115 -7 0
337 -115 7 0
337 115 -7 0
-338 116 8 0
-338 -116 -8 0
338 -116 8 0
338 116 -8 0
-339 117 9 0
-339 -117 -9 0
339 -117 9 0
339 117 -9 0
-340 118 10 0
-340 -118 -10 0
340 -118 10 0
340 118 -10 0
-341 119 11 0
-341 -119 -11 0
341 -119 11 0
341 119 -11 0
-342 120 12 0
-342 -120 -12 0
342 -120 12 0
342 120 -12 0
337 338 339 340 341 342 0
-343 115 13 0
-343 -115 -13 0
343 -115 13 0
343 115 -13 0
-344 116 14 0
-344 -116 -14 0
344 -116 14 0
344 116 -14 0
-345 117 15 0
-345 -117 -15 0
345 -117 15 0
345 117 -15 0
-346 118 16 0
-346 -118 -16 0
346 -118 16 0
346 118 -16 0
-347 119 17 0
-347 -119 -17 0
347 -119 17 0
347 119 -17 0
-348 120 18 0
-348 -120 -18 0
348 -120 18 0
348 120 -18 0
343 344 345 346 347 348 0
-349 115 19 0
-349 -115 -19 0
349 -115 19 0
349 115 -19 0
-350 116 20 0
-350 -116 -20 0
350 -116 20 0
350 116 -20 0
-351 117 21 0
-351 -117 -21 0
351 -117 21 0
351 117 -21 0
-352 118 22 0
-352 -118 -22 0
352 -118 22 0
352 118 -22 0
-353 119 23 0
-353 -119 -23 0
353 -119 23 0
353 119 -23 0
-354 120 24 0
-354 -120 -24 0
354 -120 24 0
354 120 -24 0
349 350 351 352 353 354 0
-355 115 25 0
-355 -115 -25 0
355 -115 25 0
355 115 -25 0
-356 116 26 0
-356 -116 -26 0
356 -116 26 0
356 116 -26 0
-357 117 27 0
-357 -117 -27 0
357 -117 27 0
357 117 -27 0
-358 118 28 0
-358 -118 -28 0
358 -118 28 0
358 118 -28 0
-359 119 29 0
-359 -119 -29 0
359 -119 29 0
359 119 -29 0
-360 120 30 0
-360 -120 -30 0
360 -120 30 0
360 120 -30 0
355 356 357 358 359 360 0
-361 115 31 0
-361 -115 -31 0
361 -115 31 0
361 115 -31 0
-362 116 32 0
-362 -116 -32 0
362 -116 32 0
362 116 -32 0
-363 117 33 0
-363 -117 -33 0
363 -117 33 0
363 117 -33 0
-364 118 34 0
-364 -118 -34 0
364 -118 34 0
364 118 -34 0
-365 119 35 0
-365 -119 -35 0
365 -119 35 0
365 119 -35 0
-366 120 36 0
-366 -120 -36 0
366 -120 36 0
366 120 -36 0
361 362 363 364 365 366 0
-367 115 49 0
-367 -115 -49 0
367 -115 49 0
367 115 -49 0
-368 116 50 0
-368 -116 -50 0
368 -116 50 0
368 116 -50 0
-369 117 51 0
-369 -117 -51 0
369 -117 51 0
369 117 -51 0
-370 118 52 0
-370 -118 -52 0
370 -118 52 0
370 118 -52 0
-371 119 53 0
-371 -119 -53 0
371 -119 53 0
371 119 -53 0
-372 120 54 0
-372 -120 -54 0
372 -120 54 0
372 120 -54 0
367 368 369 370 371 372 0
-373 115 69 0
-373 -115 -69 0
373 -115 69 0
373 115 -69 0
-374 116 70 0
-374 -116 -70 0
374 -116 70 0
374 116 -70 0
-375 117 71 0
-375 -117 -71 0
375 -117 71 0
375 117 -71 0
-376 118 72 0
-376 -118 -72 0
376 -118 72 0
376 118 -72 0
-377 119 73 0
-377 -119 -73 0
377 -119 73 0
377 119 -73 0
-378 120 74 0
-378 -120 -74 0
378 -120 74 0
378 120 -74 0
373 374 375 376 377 378 0
-379 115 91 0
-379 -115 -91 0
379 -115 91 0
379 115 -91 0
-380 116 92 0
-380 -116 -92 0
380 -116 92 0
380 116 -92 0
-381 117 93 0
-381 -117 -93 0
381 -117 93 0
381 117 -93 0
-382 118 94 0
-382 -118 -94 0
382 -118 94 0
382 118 -94 0
-383 119 95 0
-383 -119 -95 0
383 -119 95 0
383 119 -95 0
-384 120 96 0
-384 -120 -96 0
384 -120 96 0
384 120 -96 0
379 380 381 382 383 384 0
-385 141 1 0
-385 -141 -1 0
385 -141 1 0
385 141 -1 0
-386 142 2 0
-386 -142 -2 0
386 -142 2 0
386 142 -2 0
-387 143 3 0
-387 -143 -3 0
387 -143 3 0
387 143 -3 0
-388 144 4 0
-388 -144 -4 0
388 -144 4 0
388 144 -4 0
-389 145 5 0
-389 -145 -5 0
389 -145 5 0
389 145 -5 0
-390 146 6 0
-390 -146 -6 0
390 -146 6 0
390 146 -6 0
385 386 387 388 389 390 0
-391 141 7 0
-391 -141 -7 0
391 -141 7 0
391 141 -7 0
-392 142 8 0
-392 -142 -8 0
392 -142 8 0
392 142 -8 0
-393 143 9 0
-393 -143 -9 0
393 -143 9 0
393 143 -9 0
-394 144 10 0
-394 -144 -10 0
394 -144 10 0
394 144 -10 0
-395 145 11 0
-395 -145 -11 0
395 -145 11 0
395 145 -11 0
-396 146 12 0
-396 -146 -12 0
396 -146 12 0
396 146 -12 0
391 392 393 394 395 396 0
-397 141 13 0
-397 -141 -13 0
397 -141 13 0
397 141 -13 0
-398 142 14 0
-398 -142 -14 0
398 -142 14 0
398 142 -14 0
-399 143 15 0
-399 -143 -15 0
399 -143 15 0
399 143 -15 0
-400 144 16 0
-400 -144 -16 0
400 -144 16 0
400 144 -16 0
-401 145 17 0
-401 -145 -17 0
401 -145 17 0
401 145 -17 0
-402 146 18 0
-402 -146 -18 0
402 -146 18 0
402 146 -18 0
397 398 399 400 401 402 0
-403 141 19 0
-403 -141 -19 0
403 -141 19 0
403 141 -19 0
-404 142 20 0
-404 -142 -20 0
404 -142 20 0
404 142 -20 0
-405 143 21 0
-405 -143 -21 0
405 -143 21 0
405 143 -21 0
-406 144 22 0
-406 -144 -22 0
406 -144 22 0
406 144 -22 0
-407 145 23 0
-407 -145 -23 0
407 -145 23 0
407 145 -23 0
-408 146 24 0
-408 -146 -24 0
408 -146 24 0
408 146 -24 0
403 404 405 406 407 408 0
-409 141 25 0
-409 -141 -25 0
409 -141 25 0
409 141 -25 0
-410 142 26 0
-410 -142 -26 0
410 -142 26 0
410 142 -26 0
-411 143 27 0
-411 -143 -27 0
411 -143 27 0
411 143 -27 0
-412 144 28 0
-412 -144 -28 0
412 -144 28 0
412 144 -28 0
-413 145 29 0
-413 -145 -29 0
413 -145 29 0
413 145 -29 0
-414 146 30 0
-414 -146 -30 0
414 -146 30 0
414 146 -30 0
409 410 411 412 413 414 0
-415 141 31 0
-415 -141 -31 0
415 -141 31 0
415 141 -31 0
-416 142 32 0
-416 -142 -32 0
416 -142 32 0
416 142 -32 0
-417 143 33 0
-417 -143 -33 0
417 -143 33 0
417 143 -33 0
-418 144 34 0
-418 -144 -34 0
418 -144 34 0
418 144 -34 0
-419 145 35 0
-419 -145 -35 0
419 -145 35 0
419 145 -35 0
-420 146 36 0
-420 -146 -36 0
420 -146 36 0
420 146 -36 0
415 416 417 418 419 420 0
-421 141 49 0
-421 -141 -49 0
421 -141 49 0
421 141 -49 0
-422 142 50 0
-422 -142 -50 0
422 -142 50 0
422 142 -50 0
-423 143 51 0
-423 -143 -51 0
423 -143 51 0
423 143 -51 0
-424 144 52 0
-424 -144 -52 0
424 -144 52 0
424 144 -52 0
-425 145 53 0
-425 -145 -53 0
425 -145 53 0
425 145 -53 0
-426 146 54 0
-426 -146 -54 0
426 -146 54 0
426 146 -54 0
421 422 423 424 425 426 0
-427 141 69 0
-427 -141 -69 0
427 -141 69 0
427 141 -69 0
-428 142 70 0
-428 -142 -70 0
428 -142 70 0
428 142 -70 0
-429 143 71 0
-429 -143 -71 0
429 -143 71 0
429 143 -71 0
-430 144 72 0
-430 -144 -72 0
430 -144 72 0
430 144 -72 0
-431 145 73 0
-431 -145 -73 0
431 -145 73 0
431 145 -73 0
-432 146 74 0
-432 -146 -74 0
432 -146 74 0
432 146 -74 0
427 428 429 430 431 432 0
-433 141 91 0
-433 -141 -91 0
433 -141 91 0
433 141 -91 0
-434 142 92 0
-434 -142 -92 0
434 -142 92 0
434 142 -92 0
-435 143 93 0
-435 -143 -93 0
435 -143 93 0
435 143 -93 0
-436 144 94 0
-436 -144 -94 0
436 -144 94 0
436 144 -94 0
-437 145 95 0
-437 -145 -95 0
437 -145 95 0
437 145 -95 0
-438 146 96 0
-438 -146 -96 0
438 -146 96 0
438 146 -96 0
433 434 435 436 437 438 0
-439 141 115 0
-439 -141 -115 0
439 -141 115 0
439 141 -115 0
-440 142 116 0
-440 -142 -116 0
440 -142 116 0
440 142 -116 0
-441 143 117 0
-441 -143 -117 0
441 -143 117 0
441 143 -117 0
-442 144 118 0
-442 -144 -118 0
442 -144 118 0
442 144 -118 0
-443 145 119 0
-443 -145 -119 0
443 -145 119 0
443 145 -119 0
-444 146 120 0
-444 -146 -120 0
444 -146 120 0
444 146 -120 0
439 440 441 442 443 444 0
-445 169 1 0
-445 -169 -1 0
445 -169 1 0
445 169 -1 0
-446 170 2 0
-446 -170 -2 0
446 -170 2 0
446 170 -2 0
-447 171 3 0
-447 -171 -3 0
447 -171 3 0
447 171 -3 0
-448 172 4 0
-448 -172 -4 0
448 -172 4 0
448 172 -4 0
-449 173 5 0
-449 -173 -5 0
449 -173 5 0
449 173 -5 0
-450 174 6 0
-450 -174 -6 0
450 -174 6 0
450 174 -6 0
445 446 447 448 449 450 0
-451 169 7 0
-451 -169 -7 0
451 -169 7 0
451 169 -7 0
-452 170 8 0
-452 -170 -8 0
452 -170 8 0
452 170 -8 0
-453 171 9 0
-453 -171 -9 0
453 -171 9 0
453 171 -9 0
-454 172 10 0
-454 -172 -10 0
454 -172 10 0
454 172 -10 0
-455 173 11 0
-455 -173 -11 0
455 -173 11 0
455 173 -11 0
-456 174 12 0
-456 -174 -12 0
456 -174 12 0
456 174 -12 0
451 452 453 454 455 456 0
-457 169 13 0
-457 -169 -13 0
457 -169 13 0
457 169 -13 0
-458 170 14 0
-458 -170 -14 0
458 -170 14 0
458 170 -14 0
-459 171 15 0
-459 -171 -15 0
459 -171 15 0
459 171 -15 0
-460 172 16 0
-460 -172 -16 0
460 -172 16 0
460 172 -16 0
-461 173 17 0
-461 -173 -17 0
461 -173 17 0
461 173 -17 0
-462 174 18 0
-462 -174 -18 0
462 -174 18 0
462 174 -18 0
457 458 459 460 461 462 0
-463 169 19 0
-463 -169 -19 0
463 -169 19 0
463 169 -19 0
-464 170 20 0
-464 -170 -20 0
464 -170 20 0
464 170 -20 0
-465 171 21 0
-465 -171 -21 0
465 -171 21 0
465 171 -21 0
-466 172 22 0
-466 -172 -22 0
466 -172 22 0
466 172 -22 0
-467 173 23 0
-467 -173 -23 0
467 -173 23 0
467 173 -23 0
-468 174 24 0
-468 -174 -24 0
468 -174 24 0
468 174 -24 0
463 464 465 466 467 468 0
-469 169 25 0
-469 -169 -25 0
469 -169 25 0
469 169 -25 0
-470 170 26 0
-470 -170 -26 0
470 -170 26 0
470 170 -26 0
-471 171 27 0
-471 -171 -27 0
471 -171 27 0
471 171 -27 0
-472 172 28 0
-472 -172 -28 0
472 -172 28 0
472 172 -28 0
-473 173 29 0
-473 -173 -29 0
473 -173 29 0
473 173 -29 0
-474 174 30 0
-474 -174 -30 0
474 -174 30 0
474 174 -30 0
469 470 471 472 473 474 0
-475 169 31 0
-475 -169 -31 0
475 -169 31 0
475 169 -31 0
-476 170 32 0
-476 -170 -32 0
476 -170 32 0
476 170 -32 0
-477 171 33 0
-477 -171 -33 0
477 -171 33 0
477 171 -33 0
-478 172 34 0
-478 -172 -34 0
478 -172 34 0
478 172 -34 0
-479 173 35 0
-479 -173 -35 0
479 -173 35 0
479 173 -35 0
-480 174 36 0
-480 -174 -36 0
480 -174 36 0
480 174 -36 0
475 476 477 478 479 480 0
-481 169 49 0
-481 -169 -49 0
481 -169 49 0
481 169 -49 0
-482 170 50 0
-482 -170 -50 0
482 -170 50 0
482 170 -50 0
-483 171 51 0
-483 -171 -51 0
483 -171 51 0
483 171 -51 0
-484 172 52 0
-484 -172 -52 0
484 -172 52 0
484 172 -52 0
-485 173 53 0
-485 -173 -53 0
485 -173 53 0
485 173 -53 0
-486 174 54 0
-486 -174 -54 0
486 -174 54 0
486 174 -54 0
481 482 483 484 485 486 0
-487 169 69 0
-487 -169 -69 0
487 -169 69 0
487 169 -69 0
-488 170 70 0
-488 -170 -70 0
488 -170 70 0
488 170 -70 0
-489 171 71 0
-489 -171 -71 0
489 -171 71 0
489 171 -71 0
-490 172 72 0
-490 -172 -72 0
490 -172 72 0
490 172 -72 0
-491 173 73 0
-491 -173 -73 0
491 -173 73 0
491 173 -73 0
-492 174 74 0
-492 -174 -74 0
492 -174 74 0
492 174 -74 0
487 488 489 490 491 492 0
-493 169 91 0
-493 -169 -91 0
493 -169 91 0
493 169 -91 0
-494 170 92 0
-494 -170 -92 0
494 -170 92 0
494 170 -92 0
-495 171 93 0
-495 -171 -93 0
495 -171 93 0
495 171 -93 0
-496 172 94 0
-496 -172 -94 0
496 -172 94 0
496 172 -94 0
-497 173 95 0
-497 -173 -95 0
497 -173 95 0
497 173 -95 0
-498 174 96 0
-498 -174 -96 0
498 -174 96 0
498 174 -96 0
493 494 495 496 497 498 0
-499 169 115 0
-499 -169 -115 0
499 -169 115 0
499 169 -115 0
-500 170 116 0
-500 -170 -116 0
500 -170 116 0
500 170 -116 0
-501 171 117 0
-501 -171 -117 0
501 -171 117 0
501 171 -117 0
-502 172 118 0
-502 -172 -118 0
502 -172 118 0
502 172 -118 0
-503 173 119 0
-503 -173 -119 0
503 -173 119 0
503 173 -119 0
-504 174 120 0
-504 -174 -120 0
504 -174 120 0
504 174 -120 0
499 500 501 502 503 504 0
-505 169 141 0
-505 -169 -141 0
505 -169 141 0
505 169 -141 0
-506 170 142 0
-506 -170 -142 0
506 -170 142 0
506 170 -142 0
-507 171 143 0
-507 -171 -143 0
507 -171 143 0
507 171 -143 0
-508 172 144 0
-508 -172 -144 0
508 -172 144 0
508 172 -144 0
-509 173 145 0
-509 -173 -145 0
509 -173 145 0
509 173 -145 0
-510 174 146 0
-510 -174 -146 0
510 -174 146 0
510 174 -146 0
505 506 507 508 509 510 0
-511 199 1 0
-511 -199 -1 0
511 -199 1 0
511 199 -1 0
-512 200 2 0
-512 -200 -2 0
512 -200 2 0
512 200 -2 0
-513 201 3 0
-513 -201 -3 0
513 -201 3 0
513 201 -3 0
-514 202 4 0
-514 -202 -4 0
514 -202 4 0
514 202 -4 0
-515 203 5 0
-515 -203 -5 0
515 -203 5 0
515 203 -5 0
-516 204 6 0
-516 -204 -6 0
516 -204 6 0
516 204 -6 0
511 512 513 514 515 516 0
-517 199 7 0
-517 -199 -7 0
517 -199 7 0
517 199 -7 0
-518 200 8 0
-518 -200 -8 0
518 -200 8 0
518 200 -8 0
-519 201 9 0
-519 -201 -9 0
519 -201 9 0
519 201 -9 0
-520 202 10 0
-520 -202 -10 0
520 -202 10 0
520 202 -10 0
-521 203 11 0
-521 -203 -11 0
521 -203 11 0
521 203 -11 0
-522 204 12 0
-522 -204 -12 0
522 -204 12 0
522 204 -12 0
517 518 519 520 521 522 0
-523 199 13 0
-523 -199 -13 0
523 -199 13 0
523 199 -13 0
-524 200 14 0
-524 -200 -14 0
524 -200 14 0
524 200 -14 0
-525 201 15 0
-525 -201 -15 0
525 -201 15 0
525 201 -15 0
-526 202 16 0
-526 -202 -16 0
526 -202 16 0
526 202 -16 0
-527 203 17 0
-527 -203 -17 0
527 -203 17 0
527 203 -17 0
-528 204 18 0
-528 -204 -18 0
528 -204 18 0
528 204 -18 0
523 524 525 526 527 528 0
-529 199 19 0
-529 -199 -19 0
529 -199 19 0
529 199 -19 0
-530 200 20 0
-530 -200 -20 0
530 -200 20 0
530 200 -20 0
-531 201 21 0
-531 -201 -21 0
531 -201 21 0
531 201 -21 0
-532 202 22 0
-532 -202 -22 0
532 -202 22 0
532 202 -22 0
-533 203 23 0
-533 -203 -23 0
533 -203 23 0
533 203 -23 0
-534 204 24 0
-534 -204 -24 0
534 -204 24 0
534 204 -24 0
529 530 531 532 533 534 0
-535 199 25 0
-535 -199 -25 0
535 -199 25 0
535 199 -25 0
-536 200 26 0
-536 -200 -26 0
536 -200 26 0
536 200 -26 0
-537 201 27 0
-537 -201 -27 0
537 -201 27 0
537 201 -27 0
-538 202 28 0
-538 -202 -28 0
538 -202 28 0
538 202 -28 0
-539 203 29 0
-539 -203 -29 0
539 -203 29 0
539 203 -29 0
-540 204 30 0
-540 -204 -30 0
540 -204 30 0
540 204 -30 0
535 536 537 538 539 540 0
-541 199 31 0
-541 -199 -31 0
541 -199 31 0
541 199 -31 0
-542 200 32 0
-542 -200 -32 0
542 -200 32 0
542 200 -32 0
-543 201 33 0
-543 -201 -33 0
543 -201 33 0
543 201 -33 0
-544 202 34 0
-544 -202 -34 0
544 -202 34 0
544 202 -34 0
-545 203 35 0
-545 -203 -35 0
545 -203 35 0
545 203 -35 0
-546 204 36 0
-546 -204 -36 0
546 -204 36 0
546 204 -36 0
541 542 543 544 545 546 0
-547 199 49 0
-547 -199 -49 0
547 -199 49 0
547 199 -49 0
-548 200 50 0
-548 -200 -50 0
548 -200 50 0
548 200 -50 0
-549 201 51 0
-549 -201 -51 0
549 -201 51 0
549 201 -51 0
-550 202 52 0
-550 -202 -52 0
550 -202 52 0
550 202 -52 0
-551 203 53 0
-551 -203 -53 0
551 -203 53 0
551 203 -53 0
-552 204 54 0
-552 -204 -54 0
552 -204 54 0
552 204 -54 0
547 548 549 550 551 552 0
-553 199 69 0
-553 -199 -69 0
553 -199 69 0
553 199 -69 0
-554 200 70 0
-554 -200 -70 0
554 -200 70 0
554 200 -70 0
-555 201 71 0
-555 -201 -71 0
555 -201 71 0
555 201 -71 0
-556 202 72 0
-556 -202 -72 0
556 -202 72 0
556 202 -72 0
-557 203 73 0
-557 -203 -73 0
557 -203 73 0
557 203 -73 0
-558 204 74 0
-558 -204 -74 0
558 -204 74 0
558 204 -74 0
553 554 555 556 557 558 0
-559 199 91 0
-559 -199 -91 0
559 -199 91 0
559 199 -91 0
-560 200 92 0
-560 -200 -92 0
560 -200 92 0
560 200 -92 0
-561 201 93 0
-561 -201 -93 0
561 -201 93 0
561 201 -93 0
-562 202 94 0
-562 -202 -94 0
562 -202 94 0
562 202 -94 0
-563 203 95 0
-563 -203 -95 0
563 -203 95 0
563 203 -95 0
-564 204 96 0
-564 -204 -96 0
564 -204 96 0
564 204 -96 0
559 560 561 562 563 564 0
-565 199 115 0
-565 -199 -115 0
565 -199 115 0
565 199 -115 0
-566 200 116 0
-566 -200 -116 0
566 -200 116 0
566 200 -116 0
-567 201 117 0
-567 -201 -117 0
567 -201 117 0
567 201 -117 0
-568 202 118 0
-568 -202 -118 0
568 -202 118 0
568 202 -118 0
-569 203 119 0
-569 -203 -119 0
569 -203 119 0
569 203 -119 0
-570 204 120 0
-570 -204 -120 0
570 -204 120 0
570 204 -120 0
565 566 567 568 569 570 0
-571 199 141 0
-571 -199 -141 0
571 -199 141 0
571 199 -141 0
-572 200 142 0
-572 -200 -142 0
572 -200 142 0
572 200 -142 0
-573 201 143 0
-573 -201 -143 0
573 -201 143 0
573 201 -143 0
-574 202 144 0
-574 -202 -144 0
574 -202 144 0
574 202 -144 0
-575 203 145 0
-575 -203 -145 0
575 -203 145 0
575 203 -145 0
-576 204 146 0
-576 -204 -146 0
576 -204 146 0
576 204 -146 0
571 572 573 574 575 576 0
-577 199 169 0
-577 -199 -169 0
577 -199 169 0
577 199 -169 0
-578 200 170 0
-578 -200 -170 0
578 -200 170 0
578 200 -170 0
-579 201 171 0
-579 -201 -171 0
579 -201 171 0
579 201 -171 0
-580 202 172 0
-580 -202 -172 0
580 -202 172 0
580 202 -172 0
-581 203 173 0
-581 -203 -173 0
581 -203 173 0
581 203 -173 0
-582 204 174 0
-582 -204 -174 0
582 -204 174 0
582 204 -174 0
577 578 579 580 581 582 0
583 584 585 586 587 588 589 590 591 592 593 594 595 0
-583 1 0
-583 -2 0
-583 3 0
-583 -4 0
-583 5 0
-583 -6 0
-584 7 0
-584 -8 0
-584 9 0
-584 -10 0
-584 11 0
-584 -12 0
-585 13 0
-585 -14 0
-585 15 0
-585 -16 0
-585 17 0
-585 -18 0
-586 19 0
-586 -20 0
-586 21 0
-586 -22 0
-586 23 0
-586 -24 0
-587 25 0
-587 -26 0
-587 27 0
-587 -28 0
-587 29 0
-587 -30 0
-588 31 0
-588 -32 0
-588 33 0
-588 -34 0
-588 35 0
-588 -36 0
-589 49 0
-589 -50 0
-589 51 0
-589 -52 0
-589 53 0
-589 -54 0
-590 69 0
-590 -70 0
-590 71 0
-590 -72 0
-590 73 0
-590 -74 0
-591 91 0
-591 -92 0
-591 93 0
-591 -94 0
-591 95 0
-591 -96 0
-592 115 0
-592 -116 0
-592 117 0
-592 -118 0
-592 119 0
-592 -120 0
-593 141 0
-593 -142 0
-593 143 0
-593 -144 0
-593 145 0
-593 -146 0
-594 169 0
-594 -170 0
-594 171 0
-594 -172 0
-594 173 0
-594 -174 0
-595 199 0
-595 -200 0
-595 201 0
-595 -202 0
-595 203 0
-595 -204 0
596 597 598 599 600 601 602 603 604 605 606 607 608 0
-596 -1 0
-596 -2 0
-596 -3 0
-596 4 0
-596 -5 0
-596 -6 0
-597 -7 0
-597 -8 0
-597 -9 0
-597 10 0
-597 -11 0
-597 -12 0
-598 -13 0
-598 -14 0
-598 -15 0
-598 16 0
-598 -17 0
-598 -18 0
-599 -19 0
-599 -20 0
-599 -21 0
-599 22 0
-599 -23 0
-599 -24 0
-600 -25 0
-600 -26 0
-600 -27 0
-600 28 0
-600 -29 0
-600 -30 0
-601 -31 0
-601 -32 0
-601 -33 0
-601 34 0
-601 -35 0
-601 -36 0
-602 -49 0
-602 -50 0
-602 -51 0
-602 52 0
-602 -53 0
-602 -54 0
-603 -69 0
-603 -70 0
-603 -71 0
-603 72 0
-603 -73 0
-603 -74 0
-604 -91 0
-604 -92 0
-604 -93 0
-604 94 0
-604 -95 0
-604 -96 0
-605 -115 0
-605 -116 0
-605 -117 0
-605 118 0
-605 -119 0
-605 -120 0
-606 -141 0
-606 -142 0
-606 -143 0
-606 144 0
-606 -145 0
-606 -146 0
-607 -169 0
-607 -170 0
-607 -171 0
-607 172 0
-607 -173 0
-607 -174 0
-608 -199 0
-608 -200 0
-608 -201 0
-608 202 0
-608 -203 0
-608 -204 0
609 610 611 612 613 614 615 616 617 618 619 620 621 0
-609 -1 0
-609 2 0
-609 -3 0
-609 4 0
-609 5 0
-609 6 0
-610 -7 0
-610 8 0
-610 -9 0
-610 10 0
-610 11 0
-610 12 0
-611 -13 0
-611 14 0
-611 -15 0
-611 16 0
-611 17 0
-611 18 0
-612 -19 0
-612 20 0
-612 -21 0
-612 22 0
-612 23 0
-612 24 0
-613 -25 0
-613 26 0
-613 -27 0
-613 28 0
-613 29 0
-613 30 0
-614 -31 0
-614 32 0
-614 -33 0
-614 34 0
-614 35 0
-614 36 0
-615 -49 0
-615 50 0
-615 -51 0
-615 52 0
-615 53 0
-615 54 0
-616 -69 0
-616 70 0
-616 -71 0
-616 72 0
-616 73 0
-616 74 0
-617 -91 0
-617 92 0
-617 -93 0
-617 94 0
-617 95 0
-617 96 0
-618 -115 0
-618 116 0
-618 -117 0
-618 118 0
-618 119 0
-618 120 0
-619 -141 0
-619 142 0
-619 -143 0
-619 144 0
-619 145 0
-619 146 0
-620 -169 0
-620 170 0
-620 -171 0
-620 172 0
-620 173 0
-620 174 0
-621 -199 0
-621 200 0
-621 -201 0
-621 202 0
-621 203 0
-621 204 0
622 623 624 625 626 627 628 629 630 631 632 633 634 0
-622 1 0
-622 2 0
-622 3 0
-622 -4 0
-622 -5 0
-622 -6 0
-623 7 0
-623 8 0
-623 9 0
-623 -10 0
-623 -11 0
-623 -12 0
-624 13 0
-624 14 0
-624 15 0
-624 -16 0
-624 -17 0
-624 -18 0
-625 19 0
-625 20 0
-625 21 0
-625 -22 0
-625 -23 0
-625 -24 0
-626 25 0
-626 26 0
-626 27 0
-626 -28 0
-626 -29 0
-626 -30 0
-627 31 0
-627 32 0
-627 33 0
-627 -34 0
-627 -35 0
-627 -36 0
-628 49 0
-628 50 0
-628 51 0
-628 -52 0
-628 -53 0
-628 -54 0
-629 69 0
-629 70 0
-629 71 0
-629 -72 0
-629 -73 0
-629 -74 0
-630 91 0
-630 92 0
-630 93 0
-630 -94 0
-630 -95 0
-630 -96 0
-631 115 0
-631 116 0
-631 117 0
-631 -118 0
-631 -119 0
-631 -120 0
-632 141 0
-632 142 0
-632 143 0
-632 -144 0
-632 -145 0
-632 -146 0
-633 169 0
-633 170 0
-633 171 0
-633 -172 0
-633 -173 0
-633 -174 0
-634 199 0
-634 200 0
-634 201 0
-634 -202 0
-634 -203 0
-634 -204 0
635 636 637 638 639 640 641 642 643 644 645 646 647 0
-635 -1 0
-635 -2 0
-635 3 0
-635 -4 0
-635 5 0
-635 6 0
-636 -7 0
-636 -8 0
-636 9 0
-636 -10 0
-636 11 0
-636 12 0
-637 -13 0
-637 -14 0
-637 15 0
-637 -16 0
-637 17 0
-637 18 0
-638 -19 0
-638 -20 0
-638 21 0
-638 -22 0
-638 23 0
-638 24 0
-639 -25 0
-639 -26 0
-639 27 0
-639 -28 0
-639 29 0
-639 30 0
-640 -31 0
-640 -32 0
-640 33 0
-640 -34 0
-640 35 0
-640 36 0
-641 -49 0
-641 -50 0
-641 51 0
-641 -52 0
-641 53 0
-641 54 0
-642 -69 0
-642 -70 0
-642 71 0
-642 -72 0
-642 73 0
-642 74 0
-643 -91 0
-643 -92 0
-643 93 0
-643 -94 0
-643 95 0
-643 96 0
-644 -115 0
-644 -116 0
-644 117 0
-644 -118 0
-644 119 0
-644 120 0
-645 -141 0
-645 -142 0
-645 143 0
-645 -144 0
-645 145 0
-645 146 0
-646 -169 0
-646 -170 0
-646 171 0
-646 -172 0
-646 173 0
-646 174 0
-647 -199 0
-647 -200 0
-647 201 0
-647 -202 0
-647 203 0
-647 204 0
648 649 650 651 652 653 654 655 656 657 658 659 660 0
-648 -1 0
-648 2 0
-648 -3 0
-648 -4 0
-648 -5 0
-648 6 0
-649 -7 0
-649 8 0
-649 -9 0
-649 -10 0
-649 -11 0
-649 12 0
-650 -13 0
-650 14 0
-650 -15 0
-650 -16 0
-650 -17 0
-650 18 0
-651 -19 0
-651 20 0
-651 -21 0
-651 -22 0
-651 -23 0
-651 24 0
-652 -25 0
-652 26 0
-652 -27 0
-652 -28 0
-652 -29 0
-652 30 0
-653 -31 0
-653 32 0
-653 -33 0
-653 -34 0
-653 -35 0
-653 36 0
-654 -49 0
-654 50 0
-654 -51 0
-654 -52 0
-654 -53 0
-654 54 0
-655 -69 0
-655 70 0
-655 -71 0
-655 -72 0
-655 -73 0
-655 74 0
-656 -91 0
-656 92 0
-656 -93 0
-656 -94 0
-656 -95 0
-656 96 0
-657 -115 0
-657 116 0
-657 -117 0
-657 -118 0
-657 -119 0
-657 120 0
-658 -141 0
-658 142 0
-658 -143 0
-658 -144 0
-658 -145 0
-658 146 0
-659 -169 0
-659 170 0
-659 -171 0
-659 -172 0
-659 -173 0
-659 174 0
-660 -199 0
-660 200 0
-660 -201 0
-660 -202 0
-660 -203 0
-660 204 0
