p cnf 1256 24244
1 0
-2 0
-3 0
-4 0
-5 0
-6 0
-7 0
-8 0
9 0
-10 0
-11 0
-12 0
-13 0
-14 0
-15 0
-16 0
17 0
-18 0
-19 0
-20 0
-21 0
-22 0
-23 0
-24 0
25 0
-26 0
-27 0
-28 0
-29 0
-30 0
-31 0
-32 0
33 0
-34 0
-35 0
-36 0
-37 0
-38 0
-39 0
-40 0
41 0
-42 0
-43 0
-44 0
-45 0
-46 0
-47 0
-48 0
49 0
50 51 52 53 54 55 56 0
-50 -51 0
-50 -52 0
-50 -53 0
-50 -54 0
-50 -55 0
-50 -56 0
-51 -52 0
-51 -53 0
-51 -54 0
-51 -55 0
-51 -56 0
-52 -53 0
-52 -54 0
-52 -55 0
-52 -56 0
-53 -54 0
-53 -55 0
-53 -56 0
-54 -55 0
-54 -56 0
-55 -56 0
57 58 59 60 61 62 63 0
-57 -58 0
-57 -59 0
-57 -60 0
-57 -61 0
-57 -62 0
-57 -63 0
-58 -59 0
-58 -60 0
-58 -61 0
-58 -62 0
-58 -63 0
-59 -60 0
-59 -61 0
-59 -62 0
-59 -63 0
-60 -61 0
-60 -62 0
-60 -63 0
-61 -62 0
-61 -63 0
-62 -63 0
-50 -57 0
-51 -57 0
-51 -58 0
-52 -57 0
-52 -58 0
-52 -59 0
-53 -57 0
-53 -58 0
-53 -59 0
-53 -60 0
-54 -57 0
-54 -58 0
-54 -59 0
-54 -60 0
-54 -61 0
-55 -57 0
-55 -58 0
-55 -59 0
-55 -60 0
-55 -61 0
-55 -62 0
-56 -57 0
-56 -58 0
-56 -59 0
-56 -60 0
-56 -61 0
-56 -62 0
-56 -63 0
-50 -58 -1 -8 -64 0
-50 -58 -1 8 64 0
-50 -58 1 -8 64 0
-50 -58 1 8 -64 0
-50 -58 -2 -9 -65 0
-50 -58 -2 9 65 0
-50 -58 2 -9 65 0
-50 -58 2 9 -65 0
-50 -58 -3 -10 -66 0
-50 -58 -3 10 66 0
-50 -58 3 -10 66 0
-50 -58 3 10 -66 0
-50 -58 -4 -11 -67 0
-50 -58 -4 11 67 0
-50 -58 4 -11 67 0
-50 -58 4 11 -67 0
-50 -58 -5 -12 -68 0
-50 -58 -5 12 68 0
-50 -58 5 -12 68 0
-50 -58 5 12 -68 0
-50 -58 -6 -13 -69 0
-50 -58 -6 13 69 0
-50 -58 6 -13 69 0
-50 -58 6 13 -69 0
-50 -58 -7 -14 -70 0
-50 -58 -7 14 70 0
-50 -58 7 -14 70 0
-50 -58 7 14 -70 0
-50 -59 -1 -15 -64 0
-50 -59 -1 15 64 0
-50 -59 1 -15 64 0
-50 -59 1 15 -64 0
-50 -59 -2 -16 -65 0
-50 -59 -2 16 65 0
-50 -59 2 -16 65 0
-50 -59 2 16 -65 0
-50 -59 -3 -17 -66 0
-50 -59 -3 17 66 0
-50 -59 3 -17 66 0
-50 -59 3 17 -66 0
-50 -59 -4 -18 -67 0
-50 -59 -4 18 67 0
-50 -59 4 -18 67 0
-50 -59 4 18 -67 0
-50 -59 -5 -19 -68 0
-50 -59 -5 19 68 0
-50 -59 5 -19 68 0
-50 -59 5 19 -68 0
-50 -59 -6 -20 -69 0
-50 -59 -6 20 69 0
-50 -59 6 -20 69 0
-50 -59 6 20 -69 0
-50 -59 -7 -21 -70 0
-50 -59 -7 21 70 0
-50 -59 7 -21 70 0
-50 -59 7 21 -70 0
-50 -60 -1 -22 -64 0
-50 -60 -1 22 64 0
-50 -60 1 -22 64 0
-50 -60 1 22 -64 0
-50 -60 -2 -23 -65 0
-50 -60 -2 23 65 0
-50 -60 2 -23 65 0
-50 -60 2 23 -65 0
-50 -60 -3 -24 -66 0
-50 -60 -3 24 66 0
-50 -60 3 -24 66 0
-50 -60 3 24 -66 0
-50 -60 -4 -25 -67 0
-50 -60 -4 25 67 0
-50 -60 4 -25 67 0
-50 -60 4 25 -67 0
-50 -60 -5 -26 -68 0
-50 -60 -5 26 68 0
-50 -60 5 -26 68 0
-50 -60 5 26 -68 0
-50 -60 -6 -27 -69 0
-50 -60 -6 27 69 0
-50 -60 6 -27 69 0
-50 -60 6 27 -69 0
-50 -60 -7 -28 -70 0
-50 -60 -7 28 70 0
-50 -60 7 -28 70 0
-50 -60 7 28 -70 0
-50 -61 -1 -29 -64 0
-50 -61 -1 29 64 0
-50 -61 1 -29 64 0
-50 -61 1 29 -64 0
-50 -61 -2 -30 -65 0
-50 -61 -2 30 65 0
-50 -61 2 -30 65 0
-50 -61 2 30 -65 0
-50 -61 -3 -31 -66 0
-50 -61 -3 31 66 0
-50 -61 3 -31 66 0
-50 -61 3 31 -66 0
-50 -61 -4 -32 -67 0
-50 -61 -4 32 67 0
-50 -61 4 -32 67 0
-50 -61 4 32 -67 0
-50 -61 -5 -33 -68 0
-50 -61 -5 33 68 0
-50 -61 5 -33 68 0
-50 -61 5 33 -68 0
-50 -61 -6 -34 -69 0
-50 -61 -6 34 69 0
-50 -61 6 -34 69 0
-50 -61 6 34 -69 0
-50 -61 -7 -35 -70 0
-50 -61 -7 35 70 0
-50 -61 7 -35 70 0
-50 -61 7 35 -70 0
-50 -62 -1 -36 -64 0
-50 -62 -1 36 64 0
-50 -62 1 -36 64 0
-50 -62 1 36 -64 0
-50 -62 -2 -37 -65 0
-50 -62 -2 37 65 0
-50 -62 2 -37 65 0
-50 -62 2 37 -65 0
-50 -62 -3 -38 -66 0
-50 -62 -3 38 66 0
-50 -62 3 -38 66 0
-50 -62 3 38 -66 0
-50 -62 -4 -39 -67 0
-50 -62 -4 39 67 0
-50 -62 4 -39 67 0
-50 -62 4 39 -67 0
-50 -62 -5 -40 -68 0
-50 -62 -5 40 68 0
-50 -62 5 -40 68 0
-50 -62 5 40 -68 0
-50 -62 -6 -41 -69 0
-50 -62 -6 41 69 0
-50 -62 6 -41 69 0
-50 -62 6 41 -69 0
-50 -62 -7 -42 -70 0
-50 -62 -7 42 70 0
-50 -62 7 -42 70 0
-50 -62 7 42 -70 0
-50 -63 -1 -43 -64 0
-50 -63 -1 43 64 0
-50 -63 1 -43 64 0
-50 -63 1 43 -64 0
-50 -63 -2 -44 -65 0
-50 -63 -2 44 65 0
-50 -63 2 -44 65 0
-50 -63 2 44 -65 0
-50 -63 -3 -45 -66 0
-50 -63 -3 45 66 0
-50 -63 3 -45 66 0
-50 -63 3 45 -66 0
-50 -63 -4 -46 -67 0
-50 -63 -4 46 67 0
-50 -63 4 -46 67 0
-50 -63 4 46 -67 0
-50 -63 -5 -47 -68 0
-50 -63 -5 47 68 0
-50 -63 5 -47 68 0
-50 -63 5 47 -68 0
-50 -63 -6 -48 -69 0
-50 -63 -6 48 69 0
-50 -63 6 -48 69 0
-50 -63 6 48 -69 0
-50 -63 -7 -49 -70 0
-50 -63 -7 49 70 0
-50 -63 7 -49 70 0
-50 -63 7 49 -70 0
-51 -59 -8 -15 -64 0
-51 -59 -8 15 64 0
-51 -59 8 -15 64 0
-51 -59 8 15 -64 0
-51 -59 -9 -16 -65 0
-51 -59 -9 16 65 0
-51 -59 9 -16 65 0
-51 -59 9 16 -65 0
-51 -59 -10 -17 -66 0
-51 -59 -10 17 66 0
-51 -59 10 -17 66 0
-51 -59 10 17 -66 0
-51 -59 -11 -18 -67 0
-51 -59 -11 18 67 0
-51 -59 11 -18 67 0
-51 -59 11 18 -67 0
-51 -59 -12 -19 -68 0
-51 -59 -12 19 68 0
-51 -59 12 -19 68 0
-51 -59 12 19 -68 0
-51 -59 -13 -20 -69 0
-51 -59 -13 20 69 0
-51 -59 13 -20 69 0
-51 -59 13 20 -69 0
-51 -59 -14 -21 -70 0
-51 -59 -14 21 70 0
-51 -59 14 -21 70 0
-51 -59 14 21 -70 0
-51 -60 -8 -22 -64 0
-51 -60 -8 22 64 0
-51 -60 8 -22 64 0
-51 -60 8 22 -64 0
-51 -60 -9 -23 -65 0
-51 -60 -9 23 65 0
-51 -60 9 -23 65 0
-51 -60 9 23 -65 0
-51 -60 -10 -24 -66 0
-51 -60 -10 24 66 0
-51 -60 10 -24 66 0
-51 -60 10 24 -66 0
-51 -60 -11 -25 -67 0
-51 -60 -11 25 67 0
-51 -60 11 -25 67 0
-51 -60 11 25 -67 0
-51 -60 -12 -26 -68 0
-51 -60 -12 26 68 0
-51 -60 12 -26 68 0
-51 -60 12 26 -68 0
-51 -60 -13 -27 -69 0
-51 -60 -13 27 69 0
-51 -60 13 -27 69 0
-51 -60 13 27 -69 0
-51 -60 -14 -28 -70 0
-51 -60 -14 28 70 0
-51 -60 14 -28 70 0
-51 -60 14 28 -70 0
-51 -61 -8 -29 -64 0
-51 -61 -8 29 64 0
-51 -61 8 -29 64 0
-51 -61 8 29 -64 0
-51 -61 -9 -30 -65 0
-51 -61 -9 30 65 0
-51 -61 9 -30 65 0
-51 -61 9 30 -65 0
-51 -61 -10 -31 -66 0
-51 -61 -10 31 66 0
-51 -61 10 -31 66 0
-51 -61 10 31 -66 0
-51 -61 -11 -32 -67 0
-51 -61 -11 32 67 0
-51 -61 11 -32 67 0
-51 -61 11 32 -67 0
-51 -61 -12 -33 -68 0
-51 -61 -12 33 68 0
-51 -61 12 -33 68 0
-51 -61 12 33 -68 0
-51 -61 -13 -34 -69 0
-51 -61 -13 34 69 0
-51 -61 13 -34 69 0
-51 -61 13 34 -69 0
-51 -61 -14 -35 -70 0
-51 -61 -14 35 70 0
-51 -61 14 -35 70 0
-51 -61 14 35 -70 0
-51 -62 -8 -36 -64 0
-51 -62 -8 36 64 0
-51 -62 8 -36 64 0
-51 -62 8 36 -64 0
-51 -62 -9 -37 -65 0
-51 -62 -9 37 65 0
-51 -62 9 -37 65 0
-51 -62 9 37 -65 0
-51 -62 -10 -38 -66 0
-51 -62 -10 38 66 0
-51 -62 10 -38 66 0
-51 -62 10 38 -66 0
-51 -62 -11 -39 -67 0
-51 -62 -11 39 67 0
-51 -62 11 -39 67 0
-51 -62 11 39 -67 0
-51 -62 -12 -40 -68 0
-51 -62 -12 40 68 0
-51 -62 12 -40 68 0
-51 -62 12 40 -68 0
-51 -62 -13 -41 -69 0
-51 -62 -13 41 69 0
-51 -62 13 -41 69 0
-51 -62 13 41 -69 0
-51 -62 -14 -42 -70 0
-51 -62 -14 42 70 0
-51 -62 14 -42 70 0
-51 -62 14 42 -70 0
-51 -63 -8 -43 -64 0
-51 -63 -8 43 64 0
-51 -63 8 -43 64 0
-51 -63 8 43 -64 0
-51 -63 -9 -44 -65 0
-51 -63 -9 44 65 0
-51 -63 9 -44 65 0
-51 -63 9 44 -65 0
-51 -63 -10 -45 -66 0
-51 -63 -10 45 66 0
-51 -63 10 -45 66 0
-51 -63 10 45 -66 0
-51 -63 -11 -46 -67 0
-51 -63 -11 46 67 0
-51 -63 11 -46 67 0
-51 -63 11 46 -67 0
-51 -63 -12 -47 -68 0
-51 -63 -12 47 68 0
-51 -63 12 -47 68 0
-51 -63 12 47 -68 0
-51 -63 -13 -48 -69 0
-51 -63 -13 48 69 0
-51 -63 13 -48 69 0
-51 -63 13 48 -69 0
-51 -63 -14 -49 -70 0
-51 -63 -14 49 70 0
-51 -63 14 -49 70 0
-51 -63 14 49 -70 0
-52 -60 -15 -22 -64 0
-52 -60 -15 22 64 0
-52 -60 15 -22 64 0
-52 -60 15 22 -64 0
-52 -60 -16 -23 -65 0
-52 -60 -16 23 65 0
-52 -60 16 -23 65 0
-52 -60 16 23 -65 0
-52 -60 -17 -24 -66 0
-52 -60 -17 24 66 0
-52 -60 17 -24 66 0
-52 -60 17 24 -66 0
-52 -60 -18 -25 -67 0
-52 -60 -18 25 67 0
-52 -60 18 -25 67 0
-52 -60 18 25 -67 0
-52 -60 -19 -26 -68 0
-52 -60 -19 26 68 0
-52 -60 19 -26 68 0
-52 -60 19 26 -68 0
-52 -60 -20 -27 -69 0
-52 -60 -20 27 69 0
-52 -60 20 -27 69 0
-52 -60 20 27 -69 0
-52 -60 -21 -28 -70 0
-52 -60 -21 28 70 0
-52 -60 21 -28 70 0
-52 -60 21 28 -70 0
-52 -61 -15 -29 -64 0
-52 -61 -15 29 64 0
-52 -61 15 -29 64 0
-52 -61 15 29 -64 0
-52 -61 -16 -30 -65 0
-52 -61 -16 30 65 0
-52 -61 16 -30 65 0
-52 -61 16 30 -65 0
-52 -61 -17 -31 -66 0
-52 -61 -17 31 66 0
-52 -61 17 -31 66 0
-52 -61 17 31 -66 0
-52 -61 -18 -32 -67 0
-52 -61 -18 32 67 0
-52 -61 18 -32 67 0
-52 -61 18 32 -67 0
-52 -61 -19 -33 -68 0
-52 -61 -19 33 68 0
-52 -61 19 -33 68 0
-52 -61 19 33 -68 0
-52 -61 -20 -34 -69 0
-52 -61 -20 34 69 0
-52 -61 20 -34 69 0
-52 -61 20 34 -69 0
-52 -61 -21 -35 -70 0
-52 -61 -21 35 70 0
-52 -61 21 -35 70 0
-52 -61 21 35 -70 0
-52 -62 -15 -36 -64 0
-52 -62 -15 36 64 0
-52 -62 15 -36 64 0
-52 -62 15 36 -64 0
-52 -62 -16 -37 -65 0
-52 -62 -16 37 65 0
-52 -62 16 -37 65 0
-52 -62 16 37 -65 0
-52 -62 -17 -38 -66 0
-52 -62 -17 38 66 0
-52 -62 17 -38 66 0
-52 -62 17 38 -66 0
-52 -62 -18 -39 -67 0
-52 -62 -18 39 67 0
-52 -62 18 -39 67 0
-52 -62 18 39 -67 0
-52 -62 -19 -40 -68 0
-52 -62 -19 40 68 0
-52 -62 19 -40 68 0
-52 -62 19 40 -68 0
-52 -62 -20 -41 -69 0
-52 -62 -20 41 69 0
-52 -62 20 -41 69 0
-52 -62 20 41 -69 0
-52 -62 -21 -42 -70 0
-52 -62 -21 42 70 0
-52 -62 21 -42 70 0
-52 -62 21 42 -70 0
-52 -63 -15 -43 -64 0
-52 -63 -15 43 64 0
-52 -63 15 -43 64 0
-52 -63 15 43 -64 0
-52 -63 -16 -44 -65 0
-52 -63 -16 44 65 0
-52 -63 16 -44 65 0
-52 -63 16 44 -65 0
-52 -63 -17 -45 -66 0
-52 -63 -17 45 66 0
-52 -63 17 -45 66 0
-52 -63 17 45 -66 0
-52 -63 -18 -46 -67 0
-52 -63 -18 46 67 0
-52 -63 18 -46 67 0
-52 -63 18 46 -67 0
-52 -63 -19 -47 -68 0
-52 -63 -19 47 68 0
-52 -63 19 -47 68 0
-52 -63 19 47 -68 0
-52 -63 -20 -48 -69 0
-52 -63 -20 48 69 0
-52 -63 20 -48 69 0
-52 -63 20 48 -69 0
-52 -63 -21 -49 -70 0
-52 -63 -21 49 70 0
-52 -63 21 -49 70 0
-52 -63 21 49 -70 0
-53 -61 -22 -29 -64 0
-53 -61 -22 29 64 0
-53 -61 22 -29 64 0
-53 -61 22 29 -64 0
-53 -61 -23 -30 -65 0
-53 -61 -23 30 65 0
-53 -61 23 -30 65 0
-53 -61 23 30 -65 0
-53 -61 -24 -31 -66 0
-53 -61 -24 31 66 0
-53 -61 24 -31 66 0
-53 -61 24 31 -66 0
-53 -61 -25 -32 -67 0
-53 -61 -25 32 67 0
-53 -61 25 -32 67 0
-53 -61 25 32 -67 0
-53 -61 -26 -33 -68 0
-53 -61 -26 33 68 0
-53 -61 26 -33 68 0
-53 -61 26 33 -68 0
-53 -61 -27 -34 -69 0
-53 -61 -27 34 69 0
-53 -61 27 -34 69 0
-53 -61 27 34 -69 0
-53 -61 -28 -35 -70 0
-53 -61 -28 35 70 0
-53 -61 28 -35 70 0
-53 -61 28 35 -70 0
-53 -62 -22 -36 -64 0
-53 -62 -22 36 64 0
-53 -62 22 -36 64 0
-53 -62 22 36 -64 0
-53 -62 -23 -37 -65 0
-53 -62 -23 37 65 0
-53 -62 23 -37 65 0
-53 -62 23 37 -65 0
-53 -62 -24 -38 -66 0
-53 -62 -24 38 66 0
-53 -62 24 -38 66 0
-53 -62 24 38 -66 0
-53 -62 -25 -39 -67 0
-53 -62 -25 39 67 0
-53 -62 25 -39 67 0
-53 -62 25 39 -67 0
-53 -62 -26 -40 -68 0
-53 -62 -26 40 68 0
-53 -62 26 -40 68 0
-53 -62 26 40 -68 0
-53 -62 -27 -41 -69 0
-53 -62 -27 41 69 0
-53 -62 27 -41 69 0
-53 -62 27 41 -69 0
-53 -62 -28 -42 -70 0
-53 -62 -28 42 70 0
-53 -62 28 -42 70 0
-53 -62 28 42 -70 0
-53 -63 -22 -43 -64 0
-53 -63 -22 43 64 0
-53 -63 22 -43 64 0
-53 -63 22 43 -64 0
-53 -63 -23 -44 -65 0
-53 -63 -23 44 65 0
-53 -63 23 -44 65 0
-53 -63 23 44 -65 0
-53 -63 -24 -45 -66 0
-53 -63 -24 45 66 0
-53 -63 24 -45 66 0
-53 -63 24 45 -66 0
-53 -63 -25 -46 -67 0
-53 -63 -25 46 67 0
-53 -63 25 -46 67 0
-53 -63 25 46 -67 0
-53 -63 -26 -47 -68 0
-53 -63 -26 47 68 0
-53 -63 26 -47 68 0
-53 -63 26 47 -68 0
-53 -63 -27 -48 -69 0
-53 -63 -27 48 69 0
-53 -63 27 -48 69 0
-53 -63 27 48 -69 0
-53 -63 -28 -49 -70 0
-53 -63 -28 49 70 0
-53 -63 28 -49 70 0
-53 -63 28 49 -70 0
-54 -62 -29 -36 -64 0
-54 -62 -29 36 64 0
-54 -62 29 -36 64 0
-54 -62 29 36 -64 0
-54 -62 -30 -37 -65 0
-54 -62 -30 37 65 0
-54 -62 30 -37 65 0
-54 -62 30 37 -65 0
-54 -62 -31 -38 -66 0
-54 -62 -31 38 66 0
-54 -62 31 -38 66 0
-54 -62 31 38 -66 0
-54 -62 -32 -39 -67 0
-54 -62 -32 39 67 0
-54 -62 32 -39 67 0
-54 -62 32 39 -67 0
-54 -62 -33 -40 -68 0
-54 -62 -33 40 68 0
-54 -62 33 -40 68 0
-54 -62 33 40 -68 0
-54 -62 -34 -41 -69 0
-54 -62 -34 41 69 0
-54 -62 34 -41 69 0
-54 -62 34 41 -69 0
-54 -62 -35 -42 -70 0
-54 -62 -35 42 70 0
-54 -62 35 -42 70 0
-54 -62 35 42 -70 0
-54 -63 -29 -43 -64 0
-54 -63 -29 43 64 0
-54 -63 29 -43 64 0
-54 -63 29 43 -64 0
-54 -63 -30 -44 -65 0
-54 -63 -30 44 65 0
-54 -63 30 -44 65 0
-54 -63 30 44 -65 0
-54 -63 -31 -45 -66 0
-54 -63 -31 45 66 0
-54 -63 31 -45 66 0
-54 -63 31 45 -66 0
-54 -63 -32 -46 -67 0
-54 -63 -32 46 67 0
-54 -63 32 -46 67 0
-54 -63 32 46 -67 0
-54 -63 -33 -47 -68 0
-54 -63 -33 47 68 0
-54 -63 33 -47 68 0
-54 -63 33 47 -68 0
-54 -63 -34 -48 -69 0
-54 -63 -34 48 69 0
-54 -63 34 -48 69 0
-54 -63 34 48 -69 0
-54 -63 -35 -49 -70 0
-54 -63 -35 49 70 0
-54 -63 35 -49 70 0
-54 -63 35 49 -70 0
-55 -63 -36 -43 -64 0
-55 -63 -36 43 64 0
-55 -63 36 -43 64 0
-55 -63 36 43 -64 0
-55 -63 -37 -44 -65 0
-55 -63 -37 44 65 0
-55 -63 37 -44 65 0
-55 -63 37 44 -65 0
-55 -63 -38 -45 -66 0
-55 -63 -38 45 66 0
-55 -63 38 -45 66 0
-55 -63 38 45 -66 0
-55 -63 -39 -46 -67 0
-55 -63 -39 46 67 0
-55 -63 39 -46 67 0
-55 -63 39 46 -67 0
-55 -63 -40 -47 -68 0
-55 -63 -40 47 68 0
-55 -63 40 -47 68 0
-55 -63 40 47 -68 0
-55 -63 -41 -48 -69 0
-55 -63 -41 48 69 0
-55 -63 41 -48 69 0
-55 -63 41 48 -69 0
-55 -63 -42 -49 -70 0
-55 -63 -42 49 70 0
-55 -63 42 -49 70 0
-55 -63 42 49 -70 0
64 65 66 67 68 69 70 0
71 72 73 74 75 76 77 78 0
-71 -72 0
-71 -73 0
-71 -74 0
-71 -75 0
-71 -76 0
-71 -77 0
-71 -78 0
-72 -73 0
-72 -74 0
-72 -75 0
-72 -76 0
-72 -77 0
-72 -78 0
-73 -74 0
-73 -75 0
-73 -76 0
-73 -77 0
-73 -78 0
-74 -75 0
-74 -76 0
-74 -77 0
-74 -78 0
-75 -76 0
-75 -77 0
-75 -78 0
-76 -77 0
-76 -78 0
-77 -78 0
79 80 81 82 83 84 85 86 0
-79 -80 0
-79 -81 0
-79 -82 0
-79 -83 0
-79 -84 0
-79 -85 0
-79 -86 0
-80 -81 0
-80 -82 0
-80 -83 0
-80 -84 0
-80 -85 0
-80 -86 0
-81 -82 0
-81 -83 0
-81 -84 0
-81 -85 0
-81 -86 0
-82 -83 0
-82 -84 0
-82 -85 0
-82 -86 0
-83 -84 0
-83 -85 0
-83 -86 0
-84 -85 0
-84 -86 0
-85 -86 0
-71 -79 0
-72 -79 0
-72 -80 0
-73 -79 0
-73 -80 0
-73 -81 0
-74 -79 0
-74 -80 0
-74 -81 0
-74 -82 0
-75 -79 0
-75 -80 0
-75 -81 0
-75 -82 0
-75 -83 0
-76 -79 0
-76 -80 0
-76 -81 0
-76 -82 0
-76 -83 0
-76 -84 0
-77 -79 0
-77 -80 0
-77 -81 0
-77 -82 0
-77 -83 0
-77 -84 0
-77 -85 0
-78 -79 0
-78 -80 0
-78 -81 0
-78 -82 0
-78 -83 0
-78 -84 0
-78 -85 0
-78 -86 0
-71 -80 -1 -8 -87 0
-71 -80 -1 8 87 0
-71 -80 1 -8 87 0
-71 -80 1 8 -87 0
-71 -80 -2 -9 -88 0
-71 -80 -2 9 88 0
-71 -80 2 -9 88 0
-71 -80 2 9 -88 0
-71 -80 -3 -10 -89 0
-71 -80 -3 10 89 0
-71 -80 3 -10 89 0
-71 -80 3 10 -89 0
-71 -80 -4 -11 -90 0
-71 -80 -4 11 90 0
-71 -80 4 -11 90 0
-71 -80 4 11 -90 0
-71 -80 -5 -12 -91 0
-71 -80 -5 12 91 0
-71 -80 5 -12 91 0
-71 -80 5 12 -91 0
-71 -80 -6 -13 -92 0
-71 -80 -6 13 92 0
-71 -80 6 -13 92 0
-71 -80 6 13 -92 0
-71 -80 -7 -14 -93 0
-71 -80 -7 14 93 0
-71 -80 7 -14 93 0
-71 -80 7 14 -93 0
-71 -81 -1 -15 -87 0
-71 -81 -1 15 87 0
-71 -81 1 -15 87 0
-71 -81 1 15 -87 0
-71 -81 -2 -16 -88 0
-71 -81 -2 16 88 0
-71 -81 2 -16 88 0
-71 -81 2 16 -88 0
-71 -81 -3 -17 -89 0
-71 -81 -3 17 89 0
-71 -81 3 -17 89 0
-71 -81 3 17 -89 0
-71 -81 -4 -18 -90 0
-71 -81 -4 18 90 0
-71 -81 4 -18 90 0
-71 -81 4 18 -90 0
-71 -81 -5 -19 -91 0
-71 -81 -5 19 91 0
-71 -81 5 -19 91 0
-71 -81 5 19 -91 0
-71 -81 -6 -20 -92 0
-71 -81 -6 20 92 0
-71 -81 6 -20 92 0
-71 -81 6 20 -92 0
-71 -81 -7 -21 -93 0
-71 -81 -7 21 93 0
-71 -81 7 -21 93 0
-71 -81 7 21 -93 0
-71 -82 -1 -22 -87 0
-71 -82 -1 22 87 0
-71 -82 1 -22 87 0
-71 -82 1 22 -87 0
-71 -82 -2 -23 -88 0
-71 -82 -2 23 88 0
-71 -82 2 -23 88 0
-71 -82 2 23 -88 0
-71 -82 -3 -24 -89 0
-71 -82 -3 24 89 0
-71 -82 3 -24 89 0
-71 -82 3 24 -89 0
-71 -82 -4 -25 -90 0
-71 -82 -4 25 90 0
-71 -82 4 -25 90 0
-71 -82 4 25 -90 0
-71 -82 -5 -26 -91 0
-71 -82 -5 26 91 0
-71 -82 5 -26 91 0
-71 -82 5 26 -91 0
-71 -82 -6 -27 -92 0
-71 -82 -6 27 92 0
-71 -82 6 -27 92 0
-71 -82 6 27 -92 0
-71 -82 -7 -28 -93 0
-71 -82 -7 28 93 0
-71 -82 7 -28 93 0
-71 -82 7 28 -93 0
-71 -83 -1 -29 -87 0
-71 -83 -1 29 87 0
-71 -83 1 -29 87 0
-71 -83 1 29 -87 0
-71 -83 -2 -30 -88 0
-71 -83 -2 30 88 0
-71 -83 2 -30 88 0
-71 -83 2 30 -88 0
-71 -83 -3 -31 -89 0
-71 -83 -3 31 89 0
-71 -83 3 -31 89 0
-71 -83 3 31 -89 0
-71 -83 -4 -32 -90 0
-71 -83 -4 32 90 0
-71 -83 4 -32 90 0
-71 -83 4 32 -90 0
-71 -83 -5 -33 -91 0
-71 -83 -5 33 91 0
-71 -83 5 -33 91 0
-71 -83 5 33 -91 0
-71 -83 -6 -34 -92 0
-71 -83 -6 34 92 0
-71 -83 6 -34 92 0
-71 -83 6 34 -92 0
-71 -83 -7 -35 -93 0
-71 -83 -7 35 93 0
-71 -83 7 -35 93 0
-71 -83 7 35 -93 0
-71 -84 -1 -36 -87 0
-71 -84 -1 36 87 0
-71 -84 1 -36 87 0
-71 -84 1 36 -87 0
-71 -84 -2 -37 -88 0
-71 -84 -2 37 88 0
-71 -84 2 -37 88 0
-71 -84 2 37 -88 0
-71 -84 -3 -38 -89 0
-71 -84 -3 38 89 0
-71 -84 3 -38 89 0
-71 -84 3 38 -89 0
-71 -84 -4 -39 -90 0
-71 -84 -4 39 90 0
-71 -84 4 -39 90 0
-71 -84 4 39 -90 0
-71 -84 -5 -40 -91 0
-71 -84 -5 40 91 0
-71 -84 5 -40 91 0
-71 -84 5 40 -91 0
-71 -84 -6 -41 -92 0
-71 -84 -6 41 92 0
-71 -84 6 -41 92 0
-71 -84 6 41 -92 0
-71 -84 -7 -42 -93 0
-71 -84 -7 42 93 0
-71 -84 7 -42 93 0
-71 -84 7 42 -93 0
-71 -85 -1 -43 -87 0
-71 -85 -1 43 87 0
-71 -85 1 -43 87 0
-71 -85 1 43 -87 0
-71 -85 -2 -44 -88 0
-71 -85 -2 44 88 0
-71 -85 2 -44 88 0
-71 -85 2 44 -88 0
-71 -85 -3 -45 -89 0
-71 -85 -3 45 89 0
-71 -85 3 -45 89 0
-71 -85 3 45 -89 0
-71 -85 -4 -46 -90 0
-71 -85 -4 46 90 0
-71 -85 4 -46 90 0
-71 -85 4 46 -90 0
-71 -85 -5 -47 -91 0
-71 -85 -5 47 91 0
-71 -85 5 -47 91 0
-71 -85 5 47 -91 0
-71 -85 -6 -48 -92 0
-71 -85 -6 48 92 0
-71 -85 6 -48 92 0
-71 -85 6 48 -92 0
-71 -85 -7 -49 -93 0
-71 -85 -7 49 93 0
-71 -85 7 -49 93 0
-71 -85 7 49 -93 0
-71 -86 -1 -64 -87 0
-71 -86 -1 64 87 0
-71 -86 1 -64 87 0
-71 -86 1 64 -87 0
-71 -86 -2 -65 -88 0
-71 -86 -2 65 88 0
-71 -86 2 -65 88 0
-71 -86 2 65 -88 0
-71 -86 -3 -66 -89 0
-71 -86 -3 66 89 0
-71 -86 3 -66 89 0
-71 -86 3 66 -89 0
-71 -86 -4 -67 -90 0
-71 -86 -4 67 90 0
-71 -86 4 -67 90 0
-71 -86 4 67 -90 0
-71 -86 -5 -68 -91 0
-71 -86 -5 68 91 0
-71 -86 5 -68 91 0
-71 -86 5 68 -91 0
-71 -86 -6 -69 -92 0
-71 -86 -6 69 92 0
-71 -86 6 -69 92 0
-71 -86 6 69 -92 0
-71 -86 -7 -70 -93 0
-71 -86 -7 70 93 0
-71 -86 7 -70 93 0
-71 -86 7 70 -93 0
-72 -81 -8 -15 -87 0
-72 -81 -8 15 87 0
-72 -81 8 -15 87 0
-72 -81 8 15 -87 0
-72 -81 -9 -16 -88 0
-72 -81 -9 16 88 0
-72 -81 9 -16 88 0
-72 -81 9 16 -88 0
-72 -81 -10 -17 -89 0
-72 -81 -10 17 89 0
-72 -81 10 -17 89 0
-72 -81 10 17 -89 0
-72 -81 -11 -18 -90 0
-72 -81 -11 18 90 0
-72 -81 11 -18 90 0
-72 -81 11 18 -90 0
-72 -81 -12 -19 -91 0
-72 -81 -12 19 91 0
-72 -81 12 -19 91 0
-72 -81 12 19 -91 0
-72 -81 -13 -20 -92 0
-72 -81 -13 20 92 0
-72 -81 13 -20 92 0
-72 -81 13 20 -92 0
-72 -81 -14 -21 -93 0
-72 -81 -14 21 93 0
-72 -81 14 -21 93 0
-72 -81 14 21 -93 0
-72 -82 -8 -22 -87 0
-72 -82 -8 22 87 0
-72 -82 8 -22 87 0
-72 -82 8 22 -87 0
-72 -82 -9 -23 -88 0
-72 -82 -9 23 88 0
-72 -82 9 -23 88 0
-72 -82 9 23 -88 0
-72 -82 -10 -24 -89 0
-72 -82 -10 24 89 0
-72 -82 10 -24 89 0
-72 -82 10 24 -89 0
-72 -82 -11 -25 -90 0
-72 -82 -11 25 90 0
-72 -82 11 -25 90 0
-72 -82 11 25 -90 0
-72 -82 -12 -26 -91 0
-72 -82 -12 26 91 0
-72 -82 12 -26 91 0
-72 -82 12 26 -91 0
-72 -82 -13 -27 -92 0
-72 -82 -13 27 92 0
-72 -82 13 -27 92 0
-72 -82 13 27 -92 0
-72 -82 -14 -28 -93 0
-72 -82 -14 28 93 0
-72 -82 14 -28 93 0
-72 -82 14 28 -93 0
-72 -83 -8 -29 -87 0
-72 -83 -8 29 87 0
-72 -83 8 -29 87 0
-72 -83 8 29 -87 0
-72 -83 -9 -30 -88 0
-72 -83 -9 30 88 0
-72 -83 9 -30 88 0
-72 -83 9 30 -88 0
-72 -83 -10 -31 -89 0
-72 -83 -10 31 89 0
-72 -83 10 -31 89 0
-72 -83 10 31 -89 0
-72 -83 -11 -32 -90 0
-72 -83 -11 32 90 0
-72 -83 11 -32 90 0
-72 -83 11 32 -90 0
-72 -83 -12 -33 -91 0
-72 -83 -12 33 91 0
-72 -83 12 -33 91 0
-72 -83 12 33 -91 0
-72 -83 -13 -34 -92 0
-72 -83 -13 34 92 0
-72 -83 13 -34 92 0
-72 -83 13 34 -92 0
-72 -83 -14 -35 -93 0
-72 -83 -14 35 93 0
-72 -83 14 -35 93 0
-72 -83 14 35 -93 0
-72 -84 -8 -36 -87 0
-72 -84 -8 36 87 0
-72 -84 8 -36 87 0
-72 -84 8 36 -87 0
-72 -84 -9 -37 -88 0
-72 -84 -9 37 88 0
-72 -84 9 -37 88 0
-72 -84 9 37 -88 0
-72 -84 -10 -38 -89 0
-72 -84 -10 38 89 0
-72 -84 10 -38 89 0
-72 -84 10 38 -89 0
-72 -84 -11 -39 -90 0
-72 -84 -11 39 90 0
-72 -84 11 -39 90 0
-72 -84 11 39 -90 0
-72 -84 -12 -40 -91 0
-72 -84 -12 40 91 0
-72 -84 12 -40 91 0
-72 -84 12 40 -91 0
-72 -84 -13 -41 -92 0
-72 -84 -13 41 92 0
-72 -84 13 -41 92 0
-72 -84 13 41 -92 0
-72 -84 -14 -42 -93 0
-72 -84 -14 42 93 0
-72 -84 14 -42 93 0
-72 -84 14 42 -93 0
-72 -85 -8 -43 -87 0
-72 -85 -8 43 87 0
-72 -85 8 -43 87 0
-72 -85 8 43 -87 0
-72 -85 -9 -44 -88 0
-72 -85 -9 44 88 0
-72 -85 9 -44 88 0
-72 -85 9 44 -88 0
-72 -85 -10 -45 -89 0
-72 -85 -10 45 89 0
-72 -85 10 -45 89 0
-72 -85 10 45 -89 0
-72 -85 -11 -46 -90 0
-72 -85 -11 46 90 0
-72 -85 11 -46 90 0
-72 -85 11 46 -90 0
-72 -85 -12 -47 -91 0
-72 -85 -12 47 91 0
-72 -85 12 -47 91 0
-72 -85 12 47 -91 0
-72 -85 -13 -48 -92 0
-72 -85 -13 48 92 0
-72 -85 13 -48 92 0
-72 -85 13 48 -92 0
-72 -85 -14 -49 -93 0
-72 -85 -14 49 93 0
-72 -85 14 -49 93 0
-72 -85 14 49 -93 0
-72 -86 -8 -64 -87 0
-72 -86 -8 64 87 0
-72 -86 8 -64 87 0
-72 -86 8 64 -87 0
-72 -86 -9 -65 -88 0
-72 -86 -9 65 88 0
-72 -86 9 -65 88 0
-72 -86 9 65 -88 0
-72 -86 -10 -66 -89 0
-72 -86 -10 66 89 0
-72 -86 10 -66 89 0
-72 -86 10 66 -89 0
-72 -86 -11 -67 -90 0
-72 -86 -11 67 90 0
-72 -86 11 -67 90 0
-72 -86 11 67 -90 0
-72 -86 -12 -68 -91 0
-72 -86 -12 68 91 0
-72 -86 12 -68 91 0
-72 -86 12 68 -91 0
-72 -86 -13 -69 -92 0
-72 -86 -13 69 92 0
-72 -86 13 -69 92 0
-72 -86 13 69 -92 0
-72 -86 -14 -70 -93 0
-72 -86 -14 70 93 0
-72 -86 14 -70 93 0
-72 -86 14 70 -93 0
-73 -82 -15 -22 -87 0
-73 -82 -15 22 87 0
-73 -82 15 -22 87 0
-73 -82 15 22 -87 0
-73 -82 -16 -23 -88 0
-73 -82 -16 23 88 0
-73 -82 16 -23 88 0
-73 -82 16 23 -88 0
-73 -82 -17 -24 -89 0
-73 -82 -17 24 89 0
-73 -82 17 -24 89 0
-73 -82 17 24 -89 0
-73 -82 -18 -25 -90 0
-73 -82 -18 25 90 0
-73 -82 18 -25 90 0
-73 -82 18 25 -90 0
-73 -82 -19 -26 -91 0
-73 -82 -19 26 91 0
-73 -82 19 -26 91 0
-73 -82 19 26 -91 0
-73 -82 -20 -27 -92 0
-73 -82 -20 27 92 0
-73 -82 20 -27 92 0
-73 -82 20 27 -92 0
-73 -82 -21 -28 -93 0
-73 -82 -21 28 93 0
-73 -82 21 -28 93 0
-73 -82 21 28 -93 0
-73 -83 -15 -29 -87 0
-73 -83 -15 29 87 0
-73 -83 15 -29 87 0
-73 -83 15 29 -87 0
-73 -83 -16 -30 -88 0
-73 -83 -16 30 88 0
-73 -83 16 -30 88 0
-73 -83 16 30 -88 0
-73 -83 -17 -31 -89 0
-73 -83 -17 31 89 0
-73 -83 17 -31 89 0
-73 -83 17 31 -89 0
-73 -83 -18 -32 -90 0
-73 -83 -18 32 90 0
-73 -83 18 -32 90 0
-73 -83 18 32 -90 0
-73 -83 -19 -33 -91 0
-73 -83 -19 33 91 0
-73 -83 19 -33 91 0
-73 -83 19 33 -91 0
-73 -83 -20 -34 -92 0
-73 -83 -20 34 92 0
-73 -83 20 -34 92 0
-73 -83 20 34 -92 0
-73 -83 -21 -35 -93 0
-73 -83 -21 35 93 0
-73 -83 21 -35 93 0
-73 -83 21 35 -93 0
-73 -84 -15 -36 -87 0
-73 -84 -15 36 87 0
-73 -84 15 -36 87 0
-73 -84 15 36 -87 0
-73 -84 -16 -37 -88 0
-73 -84 -16 37 88 0
-73 -84 16 -37 88 0
-73 -84 16 37 -88 0
-73 -84 -17 -38 -89 0
-73 -84 -17 38 89 0
-73 -84 17 -38 89 0
-73 -84 17 38 -89 0
-73 -84 -18 -39 -90 0
-73 -84 -18 39 90 0
-73 -84 18 -39 90 0
-73 -84 18 39 -90 0
-73 -84 -19 -40 -91 0
-73 -84 -19 40 91 0
-73 -84 19 -40 91 0
-73 -84 19 40 -91 0
-73 -84 -20 -41 -92 0
-73 -84 -20 41 92 0
-73 -84 20 -41 92 0
-73 -84 20 41 -92 0
-73 -84 -21 -42 -93 0
-73 -84 -21 42 93 0
-73 -84 21 -42 93 0
-73 -84 21 42 -93 0
-73 -85 -15 -43 -87 0
-73 -85 -15 43 87 0
-73 -85 15 -43 87 0
-73 -85 15 43 -87 0
-73 -85 -16 -44 -88 0
-73 -85 -16 44 88 0
-73 -85 16 -44 88 0
-73 -85 16 44 -88 0
-73 -85 -17 -45 -89 0
-73 -85 -17 45 89 0
-73 -85 17 -45 89 0
-73 -85 17 45 -89 0
-73 -85 -18 -46 -90 0
-73 -85 -18 46 90 0
-73 -85 18 -46 90 0
-73 -85 18 46 -90 0
-73 -85 -19 -47 -91 0
-73 -85 -19 47 91 0
-73 -85 19 -47 91 0
-73 -85 19 47 -91 0
-73 -85 -20 -48 -92 0
-73 -85 -20 48 92 0
-73 -85 20 -48 92 0
-73 -85 20 48 -92 0
-73 -85 -21 -49 -93 0
-73 -85 -21 49 93 0
-73 -85 21 -49 93 0
-73 -85 21 49 -93 0
-73 -86 -15 -64 -87 0
-73 -86 -15 64 87 0
-73 -86 15 -64 87 0
-73 -86 15 64 -87 0
-73 -86 -16 -65 -88 0
-73 -86 -16 65 88 0
-73 -86 16 -65 88 0
-73 -86 16 65 -88 0
-73 -86 -17 -66 -89 0
-73 -86 -17 66 89 0
-73 -86 17 -66 89 0
-73 -86 17 66 -89 0
-73 -86 -18 -67 -90 0
-73 -86 -18 67 90 0
-73 -86 18 -67 90 0
-73 -86 18 67 -90 0
-73 -86 -19 -68 -91 0
-73 -86 -19 68 91 0
-73 -86 19 -68 91 0
-73 -86 19 68 -91 0
-73 -86 -20 -69 -92 0
-73 -86 -20 69 92 0
-73 -86 20 -69 92 0
-73 -86 20 69 -92 0
-73 -86 -21 -70 -93 0
-73 -86 -21 70 93 0
-73 -86 21 -70 93 0
-73 -86 21 70 -93 0
-74 -83 -22 -29 -87 0
-74 -83 -22 29 87 0
-74 -83 22 -29 87 0
-74 -83 22 29 -87 0
-74 -83 -23 -30 -88 0
-74 -83 -23 30 88 0
-74 -83 23 -30 88 0
-74 -83 23 30 -88 0
-74 -83 -24 -31 -89 0
-74 -83 -24 31 89 0
-74 -83 24 -31 89 0
-74 -83 24 31 -89 0
-74 -83 -25 -32 -90 0
-74 -83 -25 32 90 0
-74 -83 25 -32 90 0
-74 -83 25 32 -90 0
-74 -83 -26 -33 -91 0
-74 -83 -26 33 91 0
-74 -83 26 -33 91 0
-74 -83 26 33 -91 0
-74 -83 -27 -34 -92 0
-74 -83 -27 34 92 0
-74 -83 27 -34 92 0
-74 -83 27 34 -92 0
-74 -83 -28 -35 -93 0
-74 -83 -28 35 93 0
-74 -83 28 -35 93 0
-74 -83 28 35 -93 0
-74 -84 -22 -36 -87 0
-74 -84 -22 36 87 0
-74 -84 22 -36 87 0
-74 -84 22 36 -87 0
-74 -84 -23 -37 -88 0
-74 -84 -23 37 88 0
-74 -84 23 -37 88 0
-74 -84 23 37 -88 0
-74 -84 -24 -38 -89 0
-74 -84 -24 38 89 0
-74 -84 24 -38 89 0
-74 -84 24 38 -89 0
-74 -84 -25 -39 -90 0
-74 -84 -25 39 90 0
-74 -84 25 -39 90 0
-74 -84 25 39 -90 0
-74 -84 -26 -40 -91 0
-74 -84 -26 40 91 0
-74 -84 26 -40 91 0
-74 -84 26 40 -91 0
-74 -84 -27 -41 -92 0
-74 -84 -27 41 92 0
-74 -84 27 -41 92 0
-74 -84 27 41 -92 0
-74 -84 -28 -42 -93 0
-74 -84 -28 42 93 0
-74 -84 28 -42 93 0
-74 -84 28 42 -93 0
-74 -85 -22 -43 -87 0
-74 -85 -22 43 87 0
-74 -85 22 -43 87 0
-74 -85 22 43 -87 0
-74 -85 -23 -44 -88 0
-74 -85 -23 44 88 0
-74 -85 23 -44 88 0
-74 -85 23 44 -88 0
-74 -85 -24 -45 -89 0
-74 -85 -24 45 89 0
-74 -85 24 -45 89 0
-74 -85 24 45 -89 0
-74 -85 -25 -46 -90 0
-74 -85 -25 46 90 0
-74 -85 25 -46 90 0
-74 -85 25 46 -90 0
-74 -85 -26 -47 -91 0
-74 -85 -26 47 91 0
-74 -85 26 -47 91 0
-74 -85 26 47 -91 0
-74 -85 -27 -48 -92 0
-74 -85 -27 48 92 0
-74 -85 27 -48 92 0
-74 -85 27 48 -92 0
-74 -85 -28 -49 -93 0
-74 -85 -28 49 93 0
-74 -85 28 -49 93 0
-74 -85 28 49 -93 0
-74 -86 -22 -64 -87 0
-74 -86 -22 64 87 0
-74 -86 22 -64 87 0
-74 -86 22 64 -87 0
-74 -86 -23 -65 -88 0
-74 -86 -23 65 88 0
-74 -86 23 -65 88 0
-74 -86 23 65 -88 0
-74 -86 -24 -66 -89 0
-74 -86 -24 66 89 0
-74 -86 24 -66 89 0
-74 -86 24 66 -89 0
-74 -86 -25 -67 -90 0
-74 -86 -25 67 90 0
-74 -86 25 -67 90 0
-74 -86 25 67 -90 0
-74 -86 -26 -68 -91 0
-74 -86 -26 68 91 0
-74 -86 26 -68 91 0
-74 -86 26 68 -91 0
-74 -86 -27 -69 -92 0
-74 -86 -27 69 92 0
-74 -86 27 -69 92 0
-74 -86 27 69 -92 0
-74 -86 -28 -70 -93 0
-74 -86 -28 70 93 0
-74 -86 28 -70 93 0
-74 -86 28 70 -93 0
-75 -84 -29 -36 -87 0
-75 -84 -29 36 87 0
-75 -84 29 -36 87 0
-75 -84 29 36 -87 0
-75 -84 -30 -37 -88 0
-75 -84 -30 37 88 0
-75 -84 30 -37 88 0
-75 -84 30 37 -88 0
-75 -84 -31 -38 -89 0
-75 -84 -31 38 89 0
-75 -84 31 -38 89 0
-75 -84 31 38 -89 0
-75 -84 -32 -39 -90 0
-75 -84 -32 39 90 0
-75 -84 32 -39 90 0
-75 -84 32 39 -90 0
-75 -84 -33 -40 -91 0
-75 -84 -33 40 91 0
-75 -84 33 -40 91 0
-75 -84 33 40 -91 0
-75 -84 -34 -41 -92 0
-75 -84 -34 41 92 0
-75 -84 34 -41 92 0
-75 -84 34 41 -92 0
-75 -84 -35 -42 -93 0
-75 -84 -35 42 93 0
-75 -84 35 -42 93 0
-75 -84 35 42 -93 0
-75 -85 -29 -43 -87 0
-75 -85 -29 43 87 0
-75 -85 29 -43 87 0
-75 -85 29 43 -87 0
-75 -85 -30 -44 -88 0
-75 -85 -30 44 88 0
-75 -85 30 -44 88 0
-75 -85 30 44 -88 0
-75 -85 -31 -45 -89 0
-75 -85 -31 45 89 0
-75 -85 31 -45 89 0
-75 -85 31 45 -89 0
-75 -85 -32 -46 -90 0
-75 -85 -32 46 90 0
-75 -85 32 -46 90 0
-75 -85 32 46 -90 0
-75 -85 -33 -47 -91 0
-75 -85 -33 47 91 0
-75 -85 33 -47 91 0
-75 -85 33 47 -91 0
-75 -85 -34 -48 -92 0
-75 -85 -34 48 92 0
-75 -85 34 -48 92 0
-75 -85 34 48 -92 0
-75 -85 -35 -49 -93 0
-75 -85 -35 49 93 0
-75 -85 35 -49 93 0
-75 -85 35 49 -93 0
-75 -86 -29 -64 -87 0
-75 -86 -29 64 87 0
-75 -86 29 -64 87 0
-75 -86 29 64 -87 0
-75 -86 -30 -65 -88 0
-75 -86 -30 65 88 0
-75 -86 30 -65 88 0
-75 -86 30 65 -88 0
-75 -86 -31 -66 -89 0
-75 -86 -31 66 89 0
-75 -86 31 -66 89 0
-75 -86 31 66 -89 0
-75 -86 -32 -67 -90 0
-75 -86 -32 67 90 0
-75 -86 32 -67 90 0
-75 -86 32 67 -90 0
-75 -86 -33 -68 -91 0
-75 -86 -33 68 91 0
-75 -86 33 -68 91 0
-75 -86 33 68 -91 0
-75 -86 -34 -69 -92 0
-75 -86 -34 69 92 0
-75 -86 34 -69 92 0
-75 -86 34 69 -92 0
-75 -86 -35 -70 -93 0
-75 -86 -35 70 93 0
-75 -86 35 -70 93 0
-75 -86 35 70 -93 0
-76 -85 -36 -43 -87 0
-76 -85 -36 43 87 0
-76 -85 36 -43 87 0
-76 -85 36 43 -87 0
-76 -85 -37 -44 -88 0
-76 -85 -37 44 88 0
-76 -85 37 -44 88 0
-76 -85 37 44 -88 0
-76 -85 -38 -45 -89 0
-76 -85 -38 45 89 0
-76 -85 38 -45 89 0
-76 -85 38 45 -89 0
-76 -85 -39 -46 -90 0
-76 -85 -39 46 90 0
-76 -85 39 -46 90 0
-76 -85 39 46 -90 0
-76 -85 -40 -47 -91 0
-76 -85 -40 47 91 0
-76 -85 40 -47 91 0
-76 -85 40 47 -91 0
-76 -85 -41 -48 -92 0
-76 -85 -41 48 92 0
-76 -85 41 -48 92 0
-76 -85 41 48 -92 0
-76 -85 -42 -49 -93 0
-76 -85 -42 49 93 0
-76 -85 42 -49 93 0
-76 -85 42 49 -93 0
-76 -86 -36 -64 -87 0
-76 -86 -36 64 87 0
-76 -86 36 -64 87 0
-76 -86 36 64 -87 0
-76 -86 -37 -65 -88 0
-76 -86 -37 65 88 0
-76 -86 37 -65 88 0
-76 -86 37 65 -88 0
-76 -86 -38 -66 -89 0
-76 -86 -38 66 89 0
-76 -86 38 -66 89 0
-76 -86 38 66 -89 0
-76 -86 -39 -67 -90 0
-76 -86 -39 67 90 0
-76 -86 39 -67 90 0
-76 -86 39 67 -90 0
-76 -86 -40 -68 -91 0
-76 -86 -40 68 91 0
-76 -86 40 -68 91 0
-76 -86 40 68 -91 0
-76 -86 -41 -69 -92 0
-76 -86 -41 69 92 0
-76 -86 41 -69 92 0
-76 -86 41 69 -92 0
-76 -86 -42 -70 -93 0
-76 -86 -42 70 93 0
-76 -86 42 -70 93 0
-76 -86 42 70 -93 0
-77 -86 -43 -64 -87 0
-77 -86 -43 64 87 0
-77 -86 43 -64 87 0
-77 -86 43 64 -87 0
-77 -86 -44 -65 -88 0
-77 -86 -44 65 88 0
-77 -86 44 -65 88 0
-77 -86 44 65 -88 0
-77 -86 -45 -66 -89 0
-77 -86 -45 66 89 0
-77 -86 45 -66 89 0
-77 -86 45 66 -89 0
-77 -86 -46 -67 -90 0
-77 -86 -46 67 90 0
-77 -86 46 -67 90 0
-77 -86 46 67 -90 0
-77 -86 -47 -68 -91 0
-77 -86 -47 68 91 0
-77 -86 47 -68 91 0
-77 -86 47 68 -91 0
-77 -86 -48 -69 -92 0
-77 -86 -48 69 92 0
-77 -86 48 -69 92 0
-77 -86 48 69 -92 0
-77 -86 -49 -70 -93 0
-77 -86 -49 70 93 0
-77 -86 49 -70 93 0
-77 -86 49 70 -93 0
87 88 89 90 91 92 93 0
94 95 96 97 98 99 100 101 102 0
-94 -95 0
-94 -96 0
-94 -97 0
-94 -98 0
-94 -99 0
-94 -100 0
-94 -101 0
-94 -102 0
-95 -96 0
-95 -97 0
-95 -98 0
-95 -99 0
-95 -100 0
-95 -101 0
-95 -102 0
-96 -97 0
-96 -98 0
-96 -99 0
-96 -100 0
-96 -101 0
-96 -102 0
-97 -98 0
-97 -99 0
-97 -100 0
-97 -101 0
-97 -102 0
-98 -99 0
-98 -100 0
-98 -101 0
-98 -102 0
-99 -100 0
-99 -101 0
-99 -102 0
-100 -101 0
-100 -102 0
-101 -102 0
103 104 105 106 107 108 109 110 111 0
-103 -104 0
-103 -105 0
-103 -106 0
-103 -107 0
-103 -108 0
-103 -109 0
-103 -110 0
-103 -111 0
-104 -105 0
-104 -106 0
-104 -107 0
-104 -108 0
-104 -109 0
-104 -110 0
-104 -111 0
-105 -106 0
-105 -107 0
-105 -108 0
-105 -109 0
-105 -110 0
-105 -111 0
-106 -107 0
-106 -108 0
-106 -109 0
-106 -110 0
-106 -111 0
-107 -108 0
-107 -109 0
-107 -110 0
-107 -111 0
-108 -109 0
-108 -110 0
-108 -111 0
-109 -110 0
-109 -111 0
-110 -111 0
-94 -103 0
-95 -103 0
-95 -104 0
-96 -103 0
-96 -104 0
-96 -105 0
-97 -103 0
-97 -104 0
-97 -105 0
-97 -106 0
-98 -103 0
-98 -104 0
-98 -105 0
-98 -106 0
-98 -107 0
-99 -103 0
-99 -104 0
-99 -105 0
-99 -106 0
-99 -107 0
-99 -108 0
-100 -103 0
-100 -104 0
-100 -105 0
-100 -106 0
-100 -107 0
-100 -108 0
-100 -109 0
-101 -103 0
-101 -104 0
-101 -105 0
-101 -106 0
-101 -107 0
-101 -108 0
-101 -109 0
-101 -110 0
-102 -103 0
-102 -104 0
-102 -105 0
-102 -106 0
-102 -107 0
-102 -108 0
-102 -109 0
-102 -110 0
-102 -111 0
-94 -104 -1 -8 -112 0
-94 -104 -1 8 112 0
-94 -104 1 -8 112 0
-94 -104 1 8 -112 0
-94 -104 -2 -9 -113 0
-94 -104 -2 9 113 0
-94 -104 2 -9 113 0
-94 -104 2 9 -113 0
-94 -104 -3 -10 -114 0
-94 -104 -3 10 114 0
-94 -104 3 -10 114 0
-94 -104 3 10 -114 0
-94 -104 -4 -11 -115 0
-94 -104 -4 11 115 0
-94 -104 4 -11 115 0
-94 -104 4 11 -115 0
-94 -104 -5 -12 -116 0
-94 -104 -5 12 116 0
-94 -104 5 -12 116 0
-94 -104 5 12 -116 0
-94 -104 -6 -13 -117 0
-94 -104 -6 13 117 0
-94 -104 6 -13 117 0
-94 -104 6 13 -117 0
-94 -104 -7 -14 -118 0
-94 -104 -7 14 118 0
-94 -104 7 -14 118 0
-94 -104 7 14 -118 0
-94 -105 -1 -15 -112 0
-94 -105 -1 15 112 0
-94 -105 1 -15 112 0
-94 -105 1 15 -112 0
-94 -105 -2 -16 -113 0
-94 -105 -2 16 113 0
-94 -105 2 -16 113 0
-94 -105 2 16 -113 0
-94 -105 -3 -17 -114 0
-94 -105 -3 17 114 0
-94 -105 3 -17 114 0
-94 -105 3 17 -114 0
-94 -105 -4 -18 -115 0
-94 -105 -4 18 115 0
-94 -105 4 -18 115 0
-94 -105 4 18 -115 0
-94 -105 -5 -19 -116 0
-94 -105 -5 19 116 0
-94 -105 5 -19 116 0
-94 -105 5 19 -116 0
-94 -105 -6 -20 -117 0
-94 -105 -6 20 117 0
-94 -105 6 -20 117 0
-94 -105 6 20 -117 0
-94 -105 -7 -21 -118 0
-94 -105 -7 21 118 0
-94 -105 7 -21 118 0
-94 -105 7 21 -118 0
-94 -106 -1 -22 -112 0
-94 -106 -1 22 112 0
-94 -106 1 -22 112 0
-94 -106 1 22 -112 0
-94 -106 -2 -23 -113 0
-94 -106 -2 23 113 0
-94 -106 2 -23 113 0
-94 -106 2 23 -113 0
-94 -106 -3 -24 -114 0
-94 -106 -3 24 114 0
-94 -106 3 -24 114 0
-94 -106 3 24 -114 0
-94 -106 -4 -25 -115 0
-94 -106 -4 25 115 0
-94 -106 4 -25 115 0
-94 -106 4 25 -115 0
-94 -106 -5 -26 -116 0
-94 -106 -5 26 116 0
-94 -106 5 -26 116 0
-94 -106 5 26 -116 0
-94 -106 -6 -27 -117 0
-94 -106 -6 27 117 0
-94 -106 6 -27 117 0
-94 -106 6 27 -117 0
-94 -106 -7 -28 -118 0
-94 -106 -7 28 118 0
-94 -106 7 -28 118 0
-94 -106 7 28 -118 0
-94 -107 -1 -29 -112 0
-94 -107 -1 29 112 0
-94 -107 1 -29 112 0
-94 -107 1 29 -112 0
-94 -107 -2 -30 -113 0
-94 -107 -2 30 113 0
-94 -107 2 -30 113 0
-94 -107 2 30 -113 0
-94 -107 -3 -31 -114 0
-94 -107 -3 31 114 0
-94 -107 3 -31 114 0
-94 -107 3 31 -114 0
-94 -107 -4 -32 -115 0
-94 -107 -4 32 115 0
-94 -107 4 -32 115 0
-94 -107 4 32 -115 0
-94 -107 -5 -33 -116 0
-94 -107 -5 33 116 0
-94 -107 5 -33 116 0
-94 -107 5 33 -116 0
-94 -107 -6 -34 -117 0
-94 -107 -6 34 117 0
-94 -107 6 -34 117 0
-94 -107 6 34 -117 0
-94 -107 -7 -35 -118 0
-94 -107 -7 35 118 0
-94 -107 7 -35 118 0
-94 -107 7 35 -118 0
-94 -108 -1 -36 -112 0
-94 -108 -1 36 112 0
-94 -108 1 -36 112 0
-94 -108 1 36 -112 0
-94 -108 -2 -37 -113 0
-94 -108 -2 37 113 0
-94 -108 2 -37 113 0
-94 -108 2 37 -113 0
-94 -108 -3 -38 -114 0
-94 -108 -3 38 114 0
-94 -108 3 -38 114 0
-94 -108 3 38 -114 0
-94 -108 -4 -39 -115 0
-94 -108 -4 39 115 0
-94 -108 4 -39 115 0
-94 -108 4 39 -115 0
-94 -108 -5 -40 -116 0
-94 -108 -5 40 116 0
-94 -108 5 -40 116 0
-94 -108 5 40 -116 0
-94 -108 -6 -41 -117 0
-94 -108 -6 41 117 0
-94 -108 6 -41 117 0
-94 -108 6 41 -117 0
-94 -108 -7 -42 -118 0
-94 -108 -7 42 118 0
-94 -108 7 -42 118 0
-94 -108 7 42 -118 0
-94 -109 -1 -43 -112 0
-94 -109 -1 43 112 0
-94 -109 1 -43 112 0
-94 -109 1 43 -112 0
-94 -109 -2 -44 -113 0
-94 -109 -2 44 113 0
-94 -109 2 -44 113 0
-94 -109 2 44 -113 0
-94 -109 -3 -45 -114 0
-94 -109 -3 45 114 0
-94 -109 3 -45 114 0
-94 -109 3 45 -114 0
-94 -109 -4 -46 -115 0
-94 -109 -4 46 115 0
-94 -109 4 -46 115 0
-94 -109 4 46 -115 0
-94 -109 -5 -47 -116 0
-94 -109 -5 47 116 0
-94 -109 5 -47 116 0
-94 -109 5 47 -116 0
-94 -109 -6 -48 -117 0
-94 -109 -6 48 117 0
-94 -109 6 -48 117 0
-94 -109 6 48 -117 0
-94 -109 -7 -49 -118 0
-94 -109 -7 49 118 0
-94 -109 7 -49 118 0
-94 -109 7 49 -118 0
-94 -110 -1 -64 -112 0
-94 -110 -1 64 112 0
-94 -110 1 -64 112 0
-94 -110 1 64 -112 0
-94 -110 -2 -65 -113 0
-94 -110 -2 65 113 0
-94 -110 2 -65 113 0
-94 -110 2 65 -113 0
-94 -110 -3 -66 -114 0
-94 -110 -3 66 114 0
-94 -110 3 -66 114 0
-94 -110 3 66 -114 0
-94 -110 -4 -67 -115 0
-94 -110 -4 67 115 0
-94 -110 4 -67 115 0
-94 -110 4 67 -115 0
-94 -110 -5 -68 -116 0
-94 -110 -5 68 116 0
-94 -110 5 -68 116 0
-94 -110 5 68 -116 0
-94 -110 -6 -69 -117 0
-94 -110 -6 69 117 0
-94 -110 6 -69 117 0
-94 -110 6 69 -117 0
-94 -110 -7 -70 -118 0
-94 -110 -7 70 118 0
-94 -110 7 -70 118 0
-94 -110 7 70 -118 0
-94 -111 -1 -87 -112 0
-94 -111 -1 87 112 0
-94 -111 1 -87 112 0
-94 -111 1 87 -112 0
-94 -111 -2 -88 -113 0
-94 -111 -2 88 113 0
-94 -111 2 -88 113 0
-94 -111 2 88 -113 0
-94 -111 -3 -89 -114 0
-94 -111 -3 89 114 0
-94 -111 3 -89 114 0
-94 -111 3 89 -114 0
-94 -111 -4 -90 -115 0
-94 -111 -4 90 115 0
-94 -111 4 -90 115 0
-94 -111 4 90 -115 0
-94 -111 -5 -91 -116 0
-94 -111 -5 91 116 0
-94 -111 5 -91 116 0
-94 -111 5 91 -116 0
-94 -111 -6 -92 -117 0
-94 -111 -6 92 117 0
-94 -111 6 -92 117 0
-94 -111 6 92 -117 0
-94 -111 -7 -93 -118 0
-94 -111 -7 93 118 0
-94 -111 7 -93 118 0
-94 -111 7 93 -118 0
-95 -105 -8 -15 -112 0
-95 -105 -8 15 112 0
-95 -105 8 -15 112 0
-95 -105 8 15 -112 0
-95 -105 -9 -16 -113 0
-95 -105 -9 16 113 0
-95 -105 9 -16 113 0
-95 -105 9 16 -113 0
-95 -105 -10 -17 -114 0
-95 -105 -10 17 114 0
-95 -105 10 -17 114 0
-95 -105 10 17 -114 0
-95 -105 -11 -18 -115 0
-95 -105 -11 18 115 0
-95 -105 11 -18 115 0
-95 -105 11 18 -115 0
-95 -105 -12 -19 -116 0
-95 -105 -12 19 116 0
-95 -105 12 -19 116 0
-95 -105 12 19 -116 0
-95 -105 -13 -20 -117 0
-95 -105 -13 20 117 0
-95 -105 13 -20 117 0
-95 -105 13 20 -117 0
-95 -105 -14 -21 -118 0
-95 -105 -14 21 118 0
-95 -105 14 -21 118 0
-95 -105 14 21 -118 0
-95 -106 -8 -22 -112 0
-95 -106 -8 22 112 0
-95 -106 8 -22 112 0
-95 -106 8 22 -112 0
-95 -106 -9 -23 -113 0
-95 -106 -9 23 113 0
-95 -106 9 -23 113 0
-95 -106 9 23 -113 0
-95 -106 -10 -24 -114 0
-95 -106 -10 24 114 0
-95 -106 10 -24 114 0
-95 -106 10 24 -114 0
-95 -106 -11 -25 -115 0
-95 -106 -11 25 115 0
-95 -106 11 -25 115 0
-95 -106 11 25 -115 0
-95 -106 -12 -26 -116 0
-95 -106 -12 26 116 0
-95 -106 12 -26 116 0
-95 -106 12 26 -116 0
-95 -106 -13 -27 -117 0
-95 -106 -13 27 117 0
-95 -106 13 -27 117 0
-95 -106 13 27 -117 0
-95 -106 -14 -28 -118 0
-95 -106 -14 28 118 0
-95 -106 14 -28 118 0
-95 -106 14 28 -118 0
-95 -107 -8 -29 -112 0
-95 -107 -8 29 112 0
-95 -107 8 -29 112 0
-95 -107 8 29 -112 0
-95 -107 -9 -30 -113 0
-95 -107 -9 30 113 0
-95 -107 9 -30 113 0
-95 -107 9 30 -113 0
-95 -107 -10 -31 -114 0
-95 -107 -10 31 114 0
-95 -107 10 -31 114 0
-95 -107 10 31 -114 0
-95 -107 -11 -32 -115 0
-95 -107 -11 32 115 0
-95 -107 11 -32 115 0
-95 -107 11 32 -115 0
-95 -107 -12 -33 -116 0
-95 -107 -12 33 116 0
-95 -107 12 -33 116 0
-95 -107 12 33 -116 0
-95 -107 -13 -34 -117 0
-95 -107 -13 34 117 0
-95 -107 13 -34 117 0
-95 -107 13 34 -117 0
-95 -107 -14 -35 -118 0
-95 -107 -14 35 118 0
-95 -107 14 -35 118 0
-95 -107 14 35 -118 0
-95 -108 -8 -36 -112 0
-95 -108 -8 36 112 0
-95 -108 8 -36 112 0
-95 -108 8 36 -112 0
-95 -108 -9 -37 -113 0
-95 -108 -9 37 113 0
-95 -108 9 -37 113 0
-95 -108 9 37 -113 0
-95 -108 -10 -38 -114 0
-95 -108 -10 38 114 0
-95 -108 10 -38 114 0
-95 -108 10 38 -114 0
-95 -108 -11 -39 -115 0
-95 -108 -11 39 115 0
-95 -108 11 -39 115 0
-95 -108 11 39 -115 0
-95 -108 -12 -40 -116 0
-95 -108 -12 40 116 0
-95 -108 12 -40 116 0
-95 -108 12 40 -116 0
-95 -108 -13 -41 -117 0
-95 -108 -13 41 117 0
-95 -108 13 -41 117 0
-95 -108 13 41 -117 0
-95 -108 -14 -42 -118 0
-95 -108 -14 42 118 0
-95 -108 14 -42 118 0
-95 -108 14 42 -118 0
-95 -109 -8 -43 -112 0
-95 -109 -8 43 112 0
-95 -109 8 -43 112 0
-95 -109 8 43 -112 0
-95 -109 -9 -44 -113 0
-95 -109 -9 44 113 0
-95 -109 9 -44 113 0
-95 -109 9 44 -113 0
-95 -109 -10 -45 -114 0
-95 -109 -10 45 114 0
-95 -109 10 -45 114 0
-95 -109 10 45 -114 0
-95 -109 -11 -46 -115 0
-95 -109 -11 46 115 0
-95 -109 11 -46 115 0
-95 -109 11 46 -115 0
-95 -109 -12 -47 -116 0
-95 -109 -12 47 116 0
-95 -109 12 -47 116 0
-95 -109 12 47 -116 0
-95 -109 -13 -48 -117 0
-95 -109 -13 48 117 0
-95 -109 13 -48 117 0
-95 -109 13 48 -117 0
-95 -109 -14 -49 -118 0
-95 -109 -14 49 118 0
-95 -109 14 -49 118 0
-95 -109 14 49 -118 0
-95 -110 -8 -64 -112 0
-95 -110 -8 64 112 0
-95 -110 8 -64 112 0
-95 -110 8 64 -112 0
-95 -110 -9 -65 -113 0
-95 -110 -9 65 113 0
-95 -110 9 -65 113 0
-95 -110 9 65 -113 0
-95 -110 -10 -66 -114 0
-95 -110 -10 66 114 0
-95 -110 10 -66 114 0
-95 -110 10 66 -114 0
-95 -110 -11 -67 -115 0
-95 -110 -11 67 115 0
-95 -110 11 -67 115 0
-95 -110 11 67 -115 0
-95 -110 -12 -68 -116 0
-95 -110 -12 68 116 0
-95 -110 12 -68 116 0
-95 -110 12 68 -116 0
-95 -110 -13 -69 -117 0
-95 -110 -13 69 117 0
-95 -110 13 -69 117 0
-95 -110 13 69 -117 0
-95 -110 -14 -70 -118 0
-95 -110 -14 70 118 0
-95 -110 14 -70 118 0
-95 -110 14 70 -118 0
-95 -111 -8 -87 -112 0
-95 -111 -8 87 112 0
-95 -111 8 -87 112 0
-95 -111 8 87 -112 0
-95 -111 -9 -88 -113 0
-95 -111 -9 88 113 0
-95 -111 9 -88 113 0
-95 -111 9 88 -113 0
-95 -111 -10 -89 -114 0
-95 -111 -10 89 114 0
-95 -111 10 -89 114 0
-95 -111 10 89 -114 0
-95 -111 -11 -90 -115 0
-95 -111 -11 90 115 0
-95 -111 11 -90 115 0
-95 -111 11 90 -115 0
-95 -111 -12 -91 -116 0
-95 -111 -12 91 116 0
-95 -111 12 -91 116 0
-95 -111 12 91 -116 0
-95 -111 -13 -92 -117 0
-95 -111 -13 92 117 0
-95 -111 13 -92 117 0
-95 -111 13 92 -117 0
-95 -111 -14 -93 -118 0
-95 -111 -14 93 118 0
-95 -111 14 -93 118 0
-95 -111 14 93 -118 0
-96 -106 -15 -22 -112 0
-96 -106 -15 22 112 0
-96 -106 15 -22 112 0
-96 -106 15 22 -112 0
-96 -106 -16 -23 -113 0
-96 -106 -16 23 113 0
-96 -106 16 -23 113 0
-96 -106 16 23 -113 0
-96 -106 -17 -24 -114 0
-96 -106 -17 24 114 0
-96 -106 17 -24 114 0
-96 -106 17 24 -114 0
-96 -106 -18 -25 -115 0
-96 -106 -18 25 115 0
-96 -106 18 -25 115 0
-96 -106 18 25 -115 0
-96 -106 -19 -26 -116 0
-96 -106 -19 26 116 0
-96 -106 19 -26 116 0
-96 -106 19 26 -116 0
-96 -106 -20 -27 -117 0
-96 -106 -20 27 117 0
-96 -106 20 -27 117 0
-96 -106 20 27 -117 0
-96 -106 -21 -28 -118 0
-96 -106 -21 28 118 0
-96 -106 21 -28 118 0
-96 -106 21 28 -118 0
-96 -107 -15 -29 -112 0
-96 -107 -15 29 112 0
-96 -107 15 -29 112 0
-96 -107 15 29 -112 0
-96 -107 -16 -30 -113 0
-96 -107 -16 30 113 0
-96 -107 16 -30 113 0
-96 -107 16 30 -113 0
-96 -107 -17 -31 -114 0
-96 -107 -17 31 114 0
-96 -107 17 -31 114 0
-96 -107 17 31 -114 0
-96 -107 -18 -32 -115 0
-96 -107 -18 32 115 0
-96 -107 18 -32 115 0
-96 -107 18 32 -115 0
-96 -107 -19 -33 -116 0
-96 -107 -19 33 116 0
-96 -107 19 -33 116 0
-96 -107 19 33 -116 0
-96 -107 -20 -34 -117 0
-96 -107 -20 34 117 0
-96 -107 20 -34 117 0
-96 -107 20 34 -117 0
-96 -107 -21 -35 -118 0
-96 -107 -21 35 118 0
-96 -107 21 -35 118 0
-96 -107 21 35 -118 0
-96 -108 -15 -36 -112 0
-96 -108 -15 36 112 0
-96 -108 15 -36 112 0
-96 -108 15 36 -112 0
-96 -108 -16 -37 -113 0
-96 -108 -16 37 113 0
-96 -108 16 -37 113 0
-96 -108 16 37 -113 0
-96 -108 -17 -38 -114 0
-96 -108 -17 38 114 0
-96 -108 17 -38 114 0
-96 -108 17 38 -114 0
-96 -108 -18 -39 -115 0
-96 -108 -18 39 115 0
-96 -108 18 -39 115 0
-96 -108 18 39 -115 0
-96 -108 -19 -40 -116 0
-96 -108 -19 40 116 0
-96 -108 19 -40 116 0
-96 -108 19 40 -116 0
-96 -108 -20 -41 -117 0
-96 -108 -20 41 117 0
-96 -108 20 -41 117 0
-96 -108 20 41 -117 0
-96 -108 -21 -42 -118 0
-96 -108 -21 42 118 0
-96 -108 21 -42 118 0
-96 -108 21 42 -118 0
-96 -109 -15 -43 -112 0
-96 -109 -15 43 112 0
-96 -109 15 -43 112 0
-96 -109 15 43 -112 0
-96 -109 -16 -44 -113 0
-96 -109 -16 44 113 0
-96 -109 16 -44 113 0
-96 -109 16 44 -113 0
-96 -109 -17 -45 -114 0
-96 -109 -17 45 114 0
-96 -109 17 -45 114 0
-96 -109 17 45 -114 0
-96 -109 -18 -46 -115 0
-96 -109 -18 46 115 0
-96 -109 18 -46 115 0
-96 -109 18 46 -115 0
-96 -109 -19 -47 -116 0
-96 -109 -19 47 116 0
-96 -109 19 -47 116 0
-96 -109 19 47 -116 0
-96 -109 -20 -48 -117 0
-96 -109 -20 48 117 0
-96 -109 20 -48 117 0
-96 -109 20 48 -117 0
-96 -109 -21 -49 -118 0
-96 -109 -21 49 118 0
-96 -109 21 -49 118 0
-96 -109 21 49 -118 0
-96 -110 -15 -64 -112 0
-96 -110 -15 64 112 0
-96 -110 15 -64 112 0
-96 -110 15 64 -112 0
-96 -110 -16 -65 -113 0
-96 -110 -16 65 113 0
-96 -110 16 -65 113 0
-96 -110 16 65 -113 0
-96 -110 -17 -66 -114 0
-96 -110 -17 66 114 0
-96 -110 17 -66 114 0
-96 -110 17 66 -114 0
-96 -110 -18 -67 -115 0
-96 -110 -18 67 115 0
-96 -110 18 -67 115 0
-96 -110 18 67 -115 0
-96 -110 -19 -68 -116 0
-96 -110 -19 68 116 0
-96 -110 19 -68 116 0
-96 -110 19 68 -116 0
-96 -110 -20 -69 -117 0
-96 -110 -20 69 117 0
-96 -110 20 -69 117 0
-96 -110 20 69 -117 0
-96 -110 -21 -70 -118 0
-96 -110 -21 70 118 0
-96 -110 21 -70 118 0
-96 -110 21 70 -118 0
-96 -111 -15 -87 -112 0
-96 -111 -15 87 112 0
-96 -111 15 -87 112 0
-96 -111 15 87 -112 0
-96 -111 -16 -88 -113 0
-96 -111 -16 88 113 0
-96 -111 16 -88 113 0
-96 -111 16 88 -113 0
-96 -111 -17 -89 -114 0
-96 -111 -17 89 114 0
-96 -111 17 -89 114 0
-96 -111 17 89 -114 0
-96 -111 -18 -90 -115 0
-96 -111 -18 90 115 0
-96 -111 18 -90 115 0
-96 -111 18 90 -115 0
-96 -111 -19 -91 -116 0
-96 -111 -19 91 116 0
-96 -111 19 -91 116 0
-96 -111 19 91 -116 0
-96 -111 -20 -92 -117 0
-96 -111 -20 92 117 0
-96 -111 20 -92 117 0
-96 -111 20 92 -117 0
-96 -111 -21 -93 -118 0
-96 -111 -21 93 118 0
-96 -111 21 -93 118 0
-96 -111 21 93 -118 0
-97 -107 -22 -29 -112 0
-97 -107 -22 29 112 0
-97 -107 22 -29 112 0
-97 -107 22 29 -112 0
-97 -107 -23 -30 -113 0
-97 -107 -23 30 113 0
-97 -107 23 -30 113 0
-97 -107 23 30 -113 0
-97 -107 -24 -31 -114 0
-97 -107 -24 31 114 0
-97 -107 24 -31 114 0
-97 -107 24 31 -114 0
-97 -107 -25 -32 -115 0
-97 -107 -25 32 115 0
-97 -107 25 -32 115 0
-97 -107 25 32 -115 0
-97 -107 -26 -33 -116 0
-97 -107 -26 33 116 0
-97 -107 26 -33 116 0
-97 -107 26 33 -116 0
-97 -107 -27 -34 -117 0
-97 -107 -27 34 117 0
-97 -107 27 -34 117 0
-97 -107 27 34 -117 0
-97 -107 -28 -35 -118 0
-97 -107 -28 35 118 0
-97 -107 28 -35 118 0
-97 -107 28 35 -118 0
-97 -108 -22 -36 -112 0
-97 -108 -22 36 112 0
-97 -108 22 -36 112 0
-97 -108 22 36 -112 0
-97 -108 -23 -37 -113 0
-97 -108 -23 37 113 0
-97 -108 23 -37 113 0
-97 -108 23 37 -113 0
-97 -108 -24 -38 -114 0
-97 -108 -24 38 114 0
-97 -108 24 -38 114 0
-97 -108 24 38 -114 0
-97 -108 -25 -39 -115 0
-97 -108 -25 39 115 0
-97 -108 25 -39 115 0
-97 -108 25 39 -115 0
-97 -108 -26 -40 -116 0
-97 -108 -26 40 116 0
-97 -108 26 -40 116 0
-97 -108 26 40 -116 0
-97 -108 -27 -41 -117 0
-97 -108 -27 41 117 0
-97 -108 27 -41 117 0
-97 -108 27 41 -117 0
-97 -108 -28 -42 -118 0
-97 -108 -28 42 118 0
-97 -108 28 -42 118 0
-97 -108 28 42 -118 0
-97 -109 -22 -43 -112 0
-97 -109 -22 43 112 0
-97 -109 22 -43 112 0
-97 -109 22 43 -112 0
-97 -109 -23 -44 -113 0
-97 -109 -23 44 113 0
-97 -109 23 -44 113 0
-97 -109 23 44 -113 0
-97 -109 -24 -45 -114 0
-97 -109 -24 45 114 0
-97 -109 24 -45 114 0
-97 -109 24 45 -114 0
-97 -109 -25 -46 -115 0
-97 -109 -25 46 115 0
-97 -109 25 -46 115 0
-97 -109 25 46 -115 0
-97 -109 -26 -47 -116 0
-97 -109 -26 47 116 0
-97 -109 26 -47 116 0
-97 -109 26 47 -116 0
-97 -109 -27 -48 -117 0
-97 -109 -27 48 117 0
-97 -109 27 -48 117 0
-97 -109 27 48 -117 0
-97 -109 -28 -49 -118 0
-97 -109 -28 49 118 0
-97 -109 28 -49 118 0
-97 -109 28 49 -118 0
-97 -110 -22 -64 -112 0
-97 -110 -22 64 112 0
-97 -110 22 -64 112 0
-97 -110 22 64 -112 0
-97 -110 -23 -65 -113 0
-97 -110 -23 65 113 0
-97 -110 23 -65 113 0
-97 -110 23 65 -113 0
-97 -110 -24 -66 -114 0
-97 -110 -24 66 114 0
-97 -110 24 -66 114 0
-97 -110 24 66 -114 0
-97 -110 -25 -67 -115 0
-97 -110 -25 67 115 0
-97 -110 25 -67 115 0
-97 -110 25 67 -115 0
-97 -110 -26 -68 -116 0
-97 -110 -26 68 116 0
-97 -110 26 -68 116 0
-97 -110 26 68 -116 0
-97 -110 -27 -69 -117 0
-97 -110 -27 69 117 0
-97 -110 27 -69 117 0
-97 -110 27 69 -117 0
-97 -110 -28 -70 -118 0
-97 -110 -28 70 118 0
-97 -110 28 -70 118 0
-97 -110 28 70 -118 0
-97 -111 -22 -87 -112 0
-97 -111 -22 87 112 0
-97 -111 22 -87 112 0
-97 -111 22 87 -112 0
-97 -111 -23 -88 -113 0
-97 -111 -23 88 113 0
-97 -111 23 -88 113 0
-97 -111 23 88 -113 0
-97 -111 -24 -89 -114 0
-97 -111 -24 89 114 0
-97 -111 24 -89 114 0
-97 -111 24 89 -114 0
-97 -111 -25 -90 -115 0
-97 -111 -25 90 115 0
-97 -111 25 -90 115 0
-97 -111 25 90 -115 0
-97 -111 -26 -91 -116 0
-97 -111 -26 91 116 0
-97 -111 26 -91 116 0
-97 -111 26 91 -116 0
-97 -111 -27 -92 -117 0
-97 -111 -27 92 117 0
-97 -111 27 -92 117 0
-97 -111 27 92 -117 0
-97 -111 -28 -93 -118 0
-97 -111 -28 93 118 0
-97 -111 28 -93 118 0
-97 -111 28 93 -118 0
-98 -108 -29 -36 -112 0
-98 -108 -29 36 112 0
-98 -108 29 -36 112 0
-98 -108 29 36 -112 0
-98 -108 -30 -37 -113 0
-98 -108 -30 37 113 0
-98 -108 30 -37 113 0
-98 -108 30 37 -113 0
-98 -108 -31 -38 -114 0
-98 -108 -31 38 114 0
-98 -108 31 -38 114 0
-98 -108 31 38 -114 0
-98 -108 -32 -39 -115 0
-98 -108 -32 39 115 0
-98 -108 32 -39 115 0
-98 -108 32 39 -115 0
-98 -108 -33 -40 -116 0
-98 -108 -33 40 116 0
-98 -108 33 -40 116 0
-98 -108 33 40 -116 0
-98 -108 -34 -41 -117 0
-98 -108 -34 41 117 0
-98 -108 34 -41 117 0
-98 -108 34 41 -117 0
-98 -108 -35 -42 -118 0
-98 -108 -35 42 118 0
-98 -108 35 -42 118 0
-98 -108 35 42 -118 0
-98 -109 -29 -43 -112 0
-98 -109 -29 43 112 0
-98 -109 29 -43 112 0
-98 -109 29 43 -112 0
-98 -109 -30 -44 -113 0
-98 -109 -30 44 113 0
-98 -109 30 -44 113 0
-98 -109 30 44 -113 0
-98 -109 -31 -45 -114 0
-98 -109 -31 45 114 0
-98 -109 31 -45 114 0
-98 -109 31 45 -114 0
-98 -109 -32 -46 -115 0
-98 -109 -32 46 115 0
-98 -109 32 -46 115 0
-98 -109 32 46 -115 0
-98 -109 -33 -47 -116 0
-98 -109 -33 47 116 0
-98 -109 33 -47 116 0
-98 -109 33 47 -116 0
-98 -109 -34 -48 -117 0
-98 -109 -34 48 117 0
-98 -109 34 -48 117 0
-98 -109 34 48 -117 0
-98 -109 -35 -49 -118 0
-98 -109 -35 49 118 0
-98 -109 35 -49 118 0
-98 -109 35 49 -118 0
-98 -110 -29 -64 -112 0
-98 -110 -29 64 112 0
-98 -110 29 -64 112 0
-98 -110 29 64 -112 0
-98 -110 -30 -65 -113 0
-98 -110 -30 65 113 0
-98 -110 30 -65 113 0
-98 -110 30 65 -113 0
-98 -110 -31 -66 -114 0
-98 -110 -31 66 114 0
-98 -110 31 -66 114 0
-98 -110 31 66 -114 0
-98 -110 -32 -67 -115 0
-98 -110 -32 67 115 0
-98 -110 32 -67 115 0
-98 -110 32 67 -115 0
-98 -110 -33 -68 -116 0
-98 -110 -33 68 116 0
-98 -110 33 -68 116 0
-98 -110 33 68 -116 0
-98 -110 -34 -69 -117 0
-98 -110 -34 69 117 0
-98 -110 34 -69 117 0
-98 -110 34 69 -117 0
-98 -110 -35 -70 -118 0
-98 -110 -35 70 118 0
-98 -110 35 -70 118 0
-98 -110 35 70 -118 0
-98 -111 -29 -87 -112 0
-98 -111 -29 87 112 0
-98 -111 29 -87 112 0
-98 -111 29 87 -112 0
-98 -111 -30 -88 -113 0
-98 -111 -30 88 113 0
-98 -111 30 -88 113 0
-98 -111 30 88 -113 0
-98 -111 -31 -89 -114 0
-98 -111 -31 89 114 0
-98 -111 31 -89 114 0
-98 -111 31 89 -114 0
-98 -111 -32 -90 -115 0
-98 -111 -32 90 115 0
-98 -111 32 -90 115 0
-98 -111 32 90 -115 0
-98 -111 -33 -91 -116 0
-98 -111 -33 91 116 0
-98 -111 33 -91 116 0
-98 -111 33 91 -116 0
-98 -111 -34 -92 -117 0
-98 -111 -34 92 117 0
-98 -111 34 -92 117 0
-98 -111 34 92 -117 0
-98 -111 -35 -93 -118 0
-98 -111 -35 93 118 0
-98 -111 35 -93 118 0
-98 -111 35 93 -118 0
-99 -109 -36 -43 -112 0
-99 -109 -36 43 112 0
-99 -109 36 -43 112 0
-99 -109 36 43 -112 0
-99 -109 -37 -44 -113 0
-99 -109 -37 44 113 0
-99 -109 37 -44 113 0
-99 -109 37 44 -113 0
-99 -109 -38 -45 -114 0
-99 -109 -38 45 114 0
-99 -109 38 -45 114 0
-99 -109 38 45 -114 0
-99 -109 -39 -46 -115 0
-99 -109 -39 46 115 0
-99 -109 39 -46 115 0
-99 -109 39 46 -115 0
-99 -109 -40 -47 -116 0
-99 -109 -40 47 116 0
-99 -109 40 -47 116 0
-99 -109 40 47 -116 0
-99 -109 -41 -48 -117 0
-99 -109 -41 48 117 0
-99 -109 41 -48 117 0
-99 -109 41 48 -117 0
-99 -109 -42 -49 -118 0
-99 -109 -42 49 118 0
-99 -109 42 -49 118 0
-99 -109 42 49 -118 0
-99 -110 -36 -64 -112 0
-99 -110 -36 64 112 0
-99 -110 36 -64 112 0
-99 -110 36 64 -112 0
-99 -110 -37 -65 -113 0
-99 -110 -37 65 113 0
-99 -110 37 -65 113 0
-99 -110 37 65 -113 0
-99 -110 -38 -66 -114 0
-99 -110 -38 66 114 0
-99 -110 38 -66 114 0
-99 -110 38 66 -114 0
-99 -110 -39 -67 -115 0
-99 -110 -39 67 115 0
-99 -110 39 -67 115 0
-99 -110 39 67 -115 0
-99 -110 -40 -68 -116 0
-99 -110 -40 68 116 0
-99 -110 40 -68 116 0
-99 -110 40 68 -116 0
-99 -110 -41 -69 -117 0
-99 -110 -41 69 117 0
-99 -110 41 -69 117 0
-99 -110 41 69 -117 0
-99 -110 -42 -70 -118 0
-99 -110 -42 70 118 0
-99 -110 42 -70 118 0
-99 -110 42 70 -118 0
-99 -111 -36 -87 -112 0
-99 -111 -36 87 112 0
-99 -111 36 -87 112 0
-99 -111 36 87 -112 0
-99 -111 -37 -88 -113 0
-99 -111 -37 88 113 0
-99 -111 37 -88 113 0
-99 -111 37 88 -113 0
-99 -111 -38 -89 -114 0
-99 -111 -38 89 114 0
-99 -111 38 -89 114 0
-99 -111 38 89 -114 0
-99 -111 -39 -90 -115 0
-99 -111 -39 90 115 0
-99 -111 39 -90 115 0
-99 -111 39 90 -115 0
-99 -111 -40 -91 -116 0
-99 -111 -40 91 116 0
-99 -111 40 -91 116 0
-99 -111 40 91 -116 0
-99 -111 -41 -92 -117 0
-99 -111 -41 92 117 0
-99 -111 41 -92 117 0
-99 -111 41 92 -117 0
-99 -111 -42 -93 -118 0
-99 -111 -42 93 118 0
-99 -111 42 -93 118 0
-99 -111 42 93 -118 0
-100 -110 -43 -64 -112 0
-100 -110 -43 64 112 0
-100 -110 43 -64 112 0
-100 -110 43 64 -112 0
-100 -110 -44 -65 -113 0
-100 -110 -44 65 113 0
-100 -110 44 -65 113 0
-100 -110 44 65 -113 0
-100 -110 -45 -66 -114 0
-100 -110 -45 66 114 0
-100 -110 45 -66 114 0
-100 -110 45 66 -114 0
-100 -110 -46 -67 -115 0
-100 -110 -46 67 115 0
-100 -110 46 -67 115 0
-100 -110 46 67 -115 0
-100 -110 -47 -68 -116 0
-100 -110 -47 68 116 0
-100 -110 47 -68 116 0
-100 -110 47 68 -116 0
-100 -110 -48 -69 -117 0
-100 -110 -48 69 117 0
-100 -110 48 -69 117 0
-100 -110 48 69 -117 0
-100 -110 -49 -70 -118 0
-100 -110 -49 70 118 0
-100 -110 49 -70 118 0
-100 -110 49 70 -118 0
-100 -111 -43 -87 -112 0
-100 -111 -43 87 112 0
-100 -111 43 -87 112 0
-100 -111 43 87 -112 0
-100 -111 -44 -88 -113 0
-100 -111 -44 88 113 0
-100 -111 44 -88 113 0
-100 -111 44 88 -113 0
-100 -111 -45 -89 -114 0
-100 -111 -45 89 114 0
-100 -111 45 -89 114 0
-100 -111 45 89 -114 0
-100 -111 -46 -90 -115 0
-100 -111 -46 90 115 0
-100 -111 46 -90 115 0
-100 -111 46 90 -115 0
-100 -111 -47 -91 -116 0
-100 -111 -47 91 116 0
-100 -111 47 -91 116 0
-100 -111 47 91 -116 0
-100 -111 -48 -92 -117 0
-100 -111 -48 92 117 0
-100 -111 48 -92 117 0
-100 -111 48 92 -117 0
-100 -111 -49 -93 -118 0
-100 -111 -49 93 118 0
-100 -111 49 -93 118 0
-100 -111 49 93 -118 0
-101 -111 -64 -87 -112 0
-101 -111 -64 87 112 0
-101 -111 64 -87 112 0
-101 -111 64 87 -112 0
-101 -111 -65 -88 -113 0
-101 -111 -65 88 113 0
-101 -111 65 -88 113 0
-101 -111 65 88 -113 0
-101 -111 -66 -89 -114 0
-101 -111 -66 89 114 0
-101 -111 66 -89 114 0
-101 -111 66 89 -114 0
-101 -111 -67 -90 -115 0
-101 -111 -67 90 115 0
-101 -111 67 -90 115 0
-101 -111 67 90 -115 0
-101 -111 -68 -91 -116 0
-101 -111 -68 91 116 0
-101 -111 68 -91 116 0
-101 -111 68 91 -116 0
-101 -111 -69 -92 -117 0
-101 -111 -69 92 117 0
-101 -111 69 -92 117 0
-101 -111 69 92 -117 0
-101 -111 -70 -93 -118 0
-101 -111 -70 93 118 0
-101 -111 70 -93 118 0
-101 -111 70 93 -118 0
112 113 114 115 116 117 118 0
119 120 121 122 123 124 125 126 127 128 0
-119 -120 0
-119 -121 0
-119 -122 0
-119 -123 0
-119 -124 0
-119 -125 0
-119 -126 0
-119 -127 0
-119 -128 0
-120 -121 0
-120 -122 0
-120 -123 0
-120 -124 0
-120 -125 0
-120 -126 0
-120 -127 0
-120 -128 0
-121 -122 0
-121 -123 0
-121 -124 0
-121 -125 0
-121 -126 0
-121 -127 0
-121 -128 0
-122 -123 0
-122 -124 0
-122 -125 0
-122 -126 0
-122 -127 0
-122 -128 0
-123 -124 0
-123 -125 0
-123 -126 0
-123 -127 0
-123 -128 0
-124 -125 0
-124 -126 0
-124 -127 0
-124 -128 0
-125 -126 0
-125 -127 0
-125 -128 0
-126 -127 0
-126 -128 0
-127 -128 0
129 130 131 132 133 134 135 136 137 138 0
-129 -130 0
-129 -131 0
-129 -132 0
-129 -133 0
-129 -134 0
-129 -135 0
-129 -136 0
-129 -137 0
-129 -138 0
-130 -131 0
-130 -132 0
-130 -133 0
-130 -134 0
-130 -135 0
-130 -136 0
-130 -137 0
-130 -138 0
-131 -132 0
-131 -133 0
-131 -134 0
-131 -135 0
-131 -136 0
-131 -137 0
-131 -138 0
-132 -133 0
-132 -134 0
-132 -135 0
-132 -136 0
-132 -137 0
-132 -138 0
-133 -134 0
-133 -135 0
-133 -136 0
-133 -137 0
-133 -138 0
-134 -135 0
-134 -136 0
-134 -137 0
-134 -138 0
-135 -136 0
-135 -137 0
-135 -138 0
-136 -137 0
-136 -138 0
-137 -138 0
-119 -129 0
-120 -129 0
-120 -130 0
-121 -129 0
-121 -130 0
-121 -131 0
-122 -129 0
-122 -130 0
-122 -131 0
-122 -132 0
-123 -129 0
-123 -130 0
-123 -131 0
-123 -132 0
-123 -133 0
-124 -129 0
-124 -130 0
-124 -131 0
-124 -132 0
-124 -133 0
-124 -134 0
-125 -129 0
-125 -130 0
-125 -131 0
-125 -132 0
-125 -133 0
-125 -134 0
-125 -135 0
-126 -129 0
-126 -130 0
-126 -131 0
-126 -132 0
-126 -133 0
-126 -134 0
-126 -135 0
-126 -136 0
-127 -129 0
-127 -130 0
-127 -131 0
-127 -132 0
-127 -133 0
-127 -134 0
-127 -135 0
-127 -136 0
-127 -137 0
-128 -129 0
-128 -130 0
-128 -131 0
-128 -132 0
-128 -133 0
-128 -134 0
-128 -135 0
-128 -136 0
-128 -137 0
-128 -138 0
-119 -130 -1 -8 -139 0
-119 -130 -1 8 139 0
-119 -130 1 -8 139 0
-119 -130 1 8 -139 0
-119 -130 -2 -9 -140 0
-119 -130 -2 9 140 0
-119 -130 2 -9 140 0
-119 -130 2 9 -140 0
-119 -130 -3 -10 -141 0
-119 -130 -3 10 141 0
-119 -130 3 -10 141 0
-119 -130 3 10 -141 0
-119 -130 -4 -11 -142 0
-119 -130 -4 11 142 0
-119 -130 4 -11 142 0
-119 -130 4 11 -142 0
-119 -130 -5 -12 -143 0
-119 -130 -5 12 143 0
-119 -130 5 -12 143 0
-119 -130 5 12 -143 0
-119 -130 -6 -13 -144 0
-119 -130 -6 13 144 0
-119 -130 6 -13 144 0
-119 -130 6 13 -144 0
-119 -130 -7 -14 -145 0
-119 -130 -7 14 145 0
-119 -130 7 -14 145 0
-119 -130 7 14 -145 0
-119 -131 -1 -15 -139 0
-119 -131 -1 15 139 0
-119 -131 1 -15 139 0
-119 -131 1 15 -139 0
-119 -131 -2 -16 -140 0
-119 -131 -2 16 140 0
-119 -131 2 -16 140 0
-119 -131 2 16 -140 0
-119 -131 -3 -17 -141 0
-119 -131 -3 17 141 0
-119 -131 3 -17 141 0
-119 -131 3 17 -141 0
-119 -131 -4 -18 -142 0
-119 -131 -4 18 142 0
-119 -131 4 -18 142 0
-119 -131 4 18 -142 0
-119 -131 -5 -19 -143 0
-119 -131 -5 19 143 0
-119 -131 5 -19 143 0
-119 -131 5 19 -143 0
-119 -131 -6 -20 -144 0
-119 -131 -6 20 144 0
-119 -131 6 -20 144 0
-119 -131 6 20 -144 0
-119 -131 -7 -21 -145 0
-119 -131 -7 21 145 0
-119 -131 7 -21 145 0
-119 -131 7 21 -145 0
-119 -132 -1 -22 -139 0
-119 -132 -1 22 139 0
-119 -132 1 -22 139 0
-119 -132 1 22 -139 0
-119 -132 -2 -23 -140 0
-119 -132 -2 23 140 0
-119 -132 2 -23 140 0
-119 -132 2 23 -140 0
-119 -132 -3 -24 -141 0
-119 -132 -3 24 141 0
-119 -132 3 -24 141 0
-119 -132 3 24 -141 0
-119 -132 -4 -25 -142 0
-119 -132 -4 25 142 0
-119 -132 4 -25 142 0
-119 -132 4 25 -142 0
-119 -132 -5 -26 -143 0
-119 -132 -5 26 143 0
-119 -132 5 -26 143 0
-119 -132 5 26 -143 0
-119 -132 -6 -27 -144 0
-119 -132 -6 27 144 0
-119 -132 6 -27 144 0
-119 -132 6 27 -144 0
-119 -132 -7 -28 -145 0
-119 -132 -7 28 145 0
-119 -132 7 -28 145 0
-119 -132 7 28 -145 0
-119 -133 -1 -29 -139 0
-119 -133 -1 29 139 0
-119 -133 1 -29 139 0
-119 -133 1 29 -139 0
-119 -133 -2 -30 -140 0
-119 -133 -2 30 140 0
-119 -133 2 -30 140 0
-119 -133 2 30 -140 0
-119 -133 -3 -31 -141 0
-119 -133 -3 31 141 0
-119 -133 3 -31 141 0
-119 -133 3 31 -141 0
-119 -133 -4 -32 -142 0
-119 -133 -4 32 142 0
-119 -133 4 -32 142 0
-119 -133 4 32 -142 0
-119 -133 -5 -33 -143 0
-119 -133 -5 33 143 0
-119 -133 5 -33 143 0
-119 -133 5 33 -143 0
-119 -133 -6 -34 -144 0
-119 -133 -6 34 144 0
-119 -133 6 -34 144 0
-119 -133 6 34 -144 0
-119 -133 -7 -35 -145 0
-119 -133 -7 35 145 0
-119 -133 7 -35 145 0
-119 -133 7 35 -145 0
-119 -134 -1 -36 -139 0
-119 -134 -1 36 139 0
-119 -134 1 -36 139 0
-119 -134 1 36 -139 0
-119 -134 -2 -37 -140 0
-119 -134 -2 37 140 0
-119 -134 2 -37 140 0
-119 -134 2 37 -140 0
-119 -134 -3 -38 -141 0
-119 -134 -3 38 141 0
-119 -134 3 -38 141 0
-119 -134 3 38 -141 0
-119 -134 -4 -39 -142 0
-119 -134 -4 39 142 0
-119 -134 4 -39 142 0
-119 -134 4 39 -142 0
-119 -134 -5 -40 -143 0
-119 -134 -5 40 143 0
-119 -134 5 -40 143 0
-119 -134 5 40 -143 0
-119 -134 -6 -41 -144 0
-119 -134 -6 41 144 0
-119 -134 6 -41 144 0
-119 -134 6 41 -144 0
-119 -134 -7 -42 -145 0
-119 -134 -7 42 145 0
-119 -134 7 -42 145 0
-119 -134 7 42 -145 0
-119 -135 -1 -43 -139 0
-119 -135 -1 43 139 0
-119 -135 1 -43 139 0
-119 -135 1 43 -139 0
-119 -135 -2 -44 -140 0
-119 -135 -2 44 140 0
-119 -135 2 -44 140 0
-119 -135 2 44 -140 0
-119 -135 -3 -45 -141 0
-119 -135 -3 45 141 0
-119 -135 3 -45 141 0
-119 -135 3 45 -141 0
-119 -135 -4 -46 -142 0
-119 -135 -4 46 142 0
-119 -135 4 -46 142 0
-119 -135 4 46 -142 0
-119 -135 -5 -47 -143 0
-119 -135 -5 47 143 0
-119 -135 5 -47 143 0
-119 -135 5 47 -143 0
-119 -135 -6 -48 -144 0
-119 -135 -6 48 144 0
-119 -135 6 -48 144 0
-119 -135 6 48 -144 0
-119 -135 -7 -49 -145 0
-119 -135 -7 49 145 0
-119 -135 7 -49 145 0
-119 -135 7 49 -145 0
-119 -136 -1 -64 -139 0
-119 -136 -1 64 139 0
-119 -136 1 -64 139 0
-119 -136 1 64 -139 0
-119 -136 -2 -65 -140 0
-119 -136 -2 65 140 0
-119 -136 2 -65 140 0
-119 -136 2 65 -140 0
-119 -136 -3 -66 -141 0
-119 -136 -3 66 141 0
-119 -136 3 -66 141 0
-119 -136 3 66 -141 0
-119 -136 -4 -67 -142 0
-119 -136 -4 67 142 0
-119 -136 4 -67 142 0
-119 -136 4 67 -142 0
-119 -136 -5 -68 -143 0
-119 -136 -5 68 143 0
-119 -136 5 -68 143 0
-119 -136 5 68 -143 0
-119 -136 -6 -69 -144 0
-119 -136 -6 69 144 0
-119 -136 6 -69 144 0
-119 -136 6 69 -144 0
-119 -136 -7 -70 -145 0
-119 -136 -7 70 145 0
-119 -136 7 -70 145 0
-119 -136 7 70 -145 0
-119 -137 -1 -87 -139 0
-119 -137 -1 87 139 0
-119 -137 1 -87 139 0
-119 -137 1 87 -139 0
-119 -137 -2 -88 -140 0
-119 -137 -2 88 140 0
-119 -137 2 -88 140 0
-119 -137 2 88 -140 0
-119 -137 -3 -89 -141 0
-119 -137 -3 89 141 0
-119 -137 3 -89 141 0
-119 -137 3 89 -141 0
-119 -137 -4 -90 -142 0
-119 -137 -4 90 142 0
-119 -137 4 -90 142 0
-119 -137 4 90 -142 0
-119 -137 -5 -91 -143 0
-119 -137 -5 91 143 0
-119 -137 5 -91 143 0
-119 -137 5 91 -143 0
-119 -137 -6 -92 -144 0
-119 -137 -6 92 144 0
-119 -137 6 -92 144 0
-119 -137 6 92 -144 0
-119 -137 -7 -93 -145 0
-119 -137 -7 93 145 0
-119 -137 7 -93 145 0
-119 -137 7 93 -145 0
-119 -138 -1 -112 -139 0
-119 -138 -1 112 139 0
-119 -138 1 -112 139 0
-119 -138 1 112 -139 0
-119 -138 -2 -113 -140 0
-119 -138 -2 113 140 0
-119 -138 2 -113 140 0
-119 -138 2 113 -140 0
-119 -138 -3 -114 -141 0
-119 -138 -3 114 141 0
-119 -138 3 -114 141 0
-119 -138 3 114 -141 0
-119 -138 -4 -115 -142 0
-119 -138 -4 115 142 0
-119 -138 4 -115 142 0
-119 -138 4 115 -142 0
-119 -138 -5 -116 -143 0
-119 -138 -5 116 143 0
-119 -138 5 -116 143 0
-119 -138 5 116 -143 0
-119 -138 -6 -117 -144 0
-119 -138 -6 117 144 0
-119 -138 6 -117 144 0
-119 -138 6 117 -144 0
-119 -138 -7 -118 -145 0
-119 -138 -7 118 145 0
-119 -138 7 -118 145 0
-119 -138 7 118 -145 0
-120 -131 -8 -15 -139 0
-120 -131 -8 15 139 0
-120 -131 8 -15 139 0
-120 -131 8 15 -139 0
-120 -131 -9 -16 -140 0
-120 -131 -9 16 140 0
-120 -131 9 -16 140 0
-120 -131 9 16 -140 0
-120 -131 -10 -17 -141 0
-120 -131 -10 17 141 0
-120 -131 10 -17 141 0
-120 -131 10 17 -141 0
-120 -131 -11 -18 -142 0
-120 -131 -11 18 142 0
-120 -131 11 -18 142 0
-120 -131 11 18 -142 0
-120 -131 -12 -19 -143 0
-120 -131 -12 19 143 0
-120 -131 12 -19 143 0
-120 -131 12 19 -143 0
-120 -131 -13 -20 -144 0
-120 -131 -13 20 144 0
-120 -131 13 -20 144 0
-120 -131 13 20 -144 0
-120 -131 -14 -21 -145 0
-120 -131 -14 21 145 0
-120 -131 14 -21 145 0
-120 -131 14 21 -145 0
-120 -132 -8 -22 -139 0
-120 -132 -8 22 139 0
-120 -132 8 -22 139 0
-120 -132 8 22 -139 0
-120 -132 -9 -23 -140 0
-120 -132 -9 23 140 0
-120 -132 9 -23 140 0
-120 -132 9 23 -140 0
-120 -132 -10 -24 -141 0
-120 -132 -10 24 141 0
-120 -132 10 -24 141 0
-120 -132 10 24 -141 0
-120 -132 -11 -25 -142 0
-120 -132 -11 25 142 0
-120 -132 11 -25 142 0
-120 -132 11 25 -142 0
-120 -132 -12 -26 -143 0
-120 -132 -12 26 143 0
-120 -132 12 -26 143 0
-120 -132 12 26 -143 0
-120 -132 -13 -27 -144 0
-120 -132 -13 27 144 0
-120 -132 13 -27 144 0
-120 -132 13 27 -144 0
-120 -132 -14 -28 -145 0
-120 -132 -14 28 145 0
-120 -132 14 -28 145 0
-120 -132 14 28 -145 0
-120 -133 -8 -29 -139 0
-120 -133 -8 29 139 0
-120 -133 8 -29 139 0
-120 -133 8 29 -139 0
-120 -133 -9 -30 -140 0
-120 -133 -9 30 140 0
-120 -133 9 -30 140 0
-120 -133 9 30 -140 0
-120 -133 -10 -31 -141 0
-120 -133 -10 31 141 0
-120 -133 10 -31 141 0
-120 -133 10 31 -141 0
-120 -133 -11 -32 -142 0
-120 -133 -11 32 142 0
-120 -133 11 -32 142 0
-120 -133 11 32 -142 0
-120 -133 -12 -33 -143 0
-120 -133 -12 33 143 0
-120 -133 12 -33 143 0
-120 -133 12 33 -143 0
-120 -133 -13 -34 -144 0
-120 -133 -13 34 144 0
-120 -133 13 -34 144 0
-120 -133 13 34 -144 0
-120 -133 -14 -35 -145 0
-120 -133 -14 35 145 0
-120 -133 14 -35 145 0
-120 -133 14 35 -145 0
-120 -134 -8 -36 -139 0
-120 -134 -8 36 139 0
-120 -134 8 -36 139 0
-120 -134 8 36 -139 0
-120 -134 -9 -37 -140 0
-120 -134 -9 37 140 0
-120 -134 9 -37 140 0
-120 -134 9 37 -140 0
-120 -134 -10 -38 -141 0
-120 -134 -10 38 141 0
-120 -134 10 -38 141 0
-120 -134 10 38 -141 0
-120 -134 -11 -39 -142 0
-120 -134 -11 39 142 0
-120 -134 11 -39 142 0
-120 -134 11 39 -142 0
-120 -134 -12 -40 -143 0
-120 -134 -12 40 143 0
-120 -134 12 -40 143 0
-120 -134 12 40 -143 0
-120 -134 -13 -41 -144 0
-120 -134 -13 41 144 0
-120 -134 13 -41 144 0
-120 -134 13 41 -144 0
-120 -134 -14 -42 -145 0
-120 -134 -14 42 145 0
-120 -134 14 -42 145 0
-120 -134 14 42 -145 0
-120 -135 -8 -43 -139 0
-120 -135 -8 43 139 0
-120 -135 8 -43 139 0
-120 -135 8 43 -139 0
-120 -135 -9 -44 -140 0
-120 -135 -9 44 140 0
-120 -135 9 -44 140 0
-120 -135 9 44 -140 0
-120 -135 -10 -45 -141 0
-120 -135 -10 45 141 0
-120 -135 10 -45 141 0
-120 -135 10 45 -141 0
-120 -135 -11 -46 -142 0
-120 -135 -11 46 142 0
-120 -135 11 -46 142 0
-120 -135 11 46 -142 0
-120 -135 -12 -47 -143 0
-120 -135 -12 47 143 0
-120 -135 12 -47 143 0
-120 -135 12 47 -143 0
-120 -135 -13 -48 -144 0
-120 -135 -13 48 144 0
-120 -135 13 -48 144 0
-120 -135 13 48 -144 0
-120 -135 -14 -49 -145 0
-120 -135 -14 49 145 0
-120 -135 14 -49 145 0
-120 -135 14 49 -145 0
-120 -136 -8 -64 -139 0
-120 -136 -8 64 139 0
-120 -136 8 -64 139 0
-120 -136 8 64 -139 0
-120 -136 -9 -65 -140 0
-120 -136 -9 65 140 0
-120 -136 9 -65 140 0
-120 -136 9 65 -140 0
-120 -136 -10 -66 -141 0
-120 -136 -10 66 141 0
-120 -136 10 -66 141 0
-120 -136 10 66 -141 0
-120 -136 -11 -67 -142 0
-120 -136 -11 67 142 0
-120 -136 11 -67 142 0
-120 -136 11 67 -142 0
-120 -136 -12 -68 -143 0
-120 -136 -12 68 143 0
-120 -136 12 -68 143 0
-120 -136 12 68 -143 0
-120 -136 -13 -69 -144 0
-120 -136 -13 69 144 0
-120 -136 13 -69 144 0
-120 -136 13 69 -144 0
-120 -136 -14 -70 -145 0
-120 -136 -14 70 145 0
-120 -136 14 -70 145 0
-120 -136 14 70 -145 0
-120 -137 -8 -87 -139 0
-120 -137 -8 87 139 0
-120 -137 8 -87 139 0
-120 -137 8 87 -139 0
-120 -137 -9 -88 -140 0
-120 -137 -9 88 140 0
-120 -137 9 -88 140 0
-120 -137 9 88 -140 0
-120 -137 -10 -89 -141 0
-120 -137 -10 89 141 0
-120 -137 10 -89 141 0
-120 -137 10 89 -141 0
-120 -137 -11 -90 -142 0
-120 -137 -11 90 142 0
-120 -137 11 -90 142 0
-120 -137 11 90 -142 0
-120 -137 -12 -91 -143 0
-120 -137 -12 91 143 0
-120 -137 12 -91 143 0
-120 -137 12 91 -143 0
-120 -137 -13 -92 -144 0
-120 -137 -13 92 144 0
-120 -137 13 -92 144 0
-120 -137 13 92 -144 0
-120 -137 -14 -93 -145 0
-120 -137 -14 93 145 0
-120 -137 14 -93 145 0
-120 -137 14 93 -145 0
-120 -138 -8 -112 -139 0
-120 -138 -8 112 139 0
-120 -138 8 -112 139 0
-120 -138 8 112 -139 0
-120 -138 -9 -113 -140 0
-120 -138 -9 113 140 0
-120 -138 9 -113 140 0
-120 -138 9 113 -140 0
-120 -138 -10 -114 -141 0
-120 -138 -10 114 141 0
-120 -138 10 -114 141 0
-120 -138 10 114 -141 0
-120 -138 -11 -115 -142 0
-120 -138 -11 115 142 0
-120 -138 11 -115 142 0
-120 -138 11 115 -142 0
-120 -138 -12 -116 -143 0
-120 -138 -12 116 143 0
-120 -138 12 -116 143 0
-120 -138 12 116 -143 0
-120 -138 -13 -117 -144 0
-120 -138 -13 117 144 0
-120 -138 13 -117 144 0
-120 -138 13 117 -144 0
-120 -138 -14 -118 -145 0
-120 -138 -14 118 145 0
-120 -138 14 -118 145 0
-120 -138 14 118 -145 0
-121 -132 -15 -22 -139 0
-121 -132 -15 22 139 0
-121 -132 15 -22 139 0
-121 -132 15 22 -139 0
-121 -132 -16 -23 -140 0
-121 -132 -16 23 140 0
-121 -132 16 -23 140 0
-121 -132 16 23 -140 0
-121 -132 -17 -24 -141 0
-121 -132 -17 24 141 0
-121 -132 17 -24 141 0
-121 -132 17 24 -141 0
-121 -132 -18 -25 -142 0
-121 -132 -18 25 142 0
-121 -132 18 -25 142 0
-121 -132 18 25 -142 0
-121 -132 -19 -26 -143 0
-121 -132 -19 26 143 0
-121 -132 19 -26 143 0
-121 -132 19 26 -143 0
-121 -132 -20 -27 -144 0
-121 -132 -20 27 144 0
-121 -132 20 -27 144 0
-121 -132 20 27 -144 0
-121 -132 -21 -28 -145 0
-121 -132 -21 28 145 0
-121 -132 21 -28 145 0
-121 -132 21 28 -145 0
-121 -133 -15 -29 -139 0
-121 -133 -15 29 139 0
-121 -133 15 -29 139 0
-121 -133 15 29 -139 0
-121 -133 -16 -30 -140 0
-121 -133 -16 30 140 0
-121 -133 16 -30 140 0
-121 -133 16 30 -140 0
-121 -133 -17 -31 -141 0
-121 -133 -17 31 141 0
-121 -133 17 -31 141 0
-121 -133 17 31 -141 0
-121 -133 -18 -32 -142 0
-121 -133 -18 32 142 0
-121 -133 18 -32 142 0
-121 -133 18 32 -142 0
-121 -133 -19 -33 -143 0
-121 -133 -19 33 143 0
-121 -133 19 -33 143 0
-121 -133 19 33 -143 0
-121 -133 -20 -34 -144 0
-121 -133 -20 34 144 0
-121 -133 20 -34 144 0
-121 -133 20 34 -144 0
-121 -133 -21 -35 -145 0
-121 -133 -21 35 145 0
-121 -133 21 -35 145 0
-121 -133 21 35 -145 0
-121 -134 -15 -36 -139 0
-121 -134 -15 36 139 0
-121 -134 15 -36 139 0
-121 -134 15 36 -139 0
-121 -134 -16 -37 -140 0
-121 -134 -16 37 140 0
-121 -134 16 -37 140 0
-121 -134 16 37 -140 0
-121 -134 -17 -38 -141 0
-121 -134 -17 38 141 0
-121 -134 17 -38 141 0
-121 -134 17 38 -141 0
-121 -134 -18 -39 -142 0
-121 -134 -18 39 142 0
-121 -134 18 -39 142 0
-121 -134 18 39 -142 0
-121 -134 -19 -40 -143 0
-121 -134 -19 40 143 0
-121 -134 19 -40 143 0
-121 -134 19 40 -143 0
-121 -134 -20 -41 -144 0
-121 -134 -20 41 144 0
-121 -134 20 -41 144 0
-121 -134 20 41 -144 0
-121 -134 -21 -42 -145 0
-121 -134 -21 42 145 0
-121 -134 21 -42 145 0
-121 -134 21 42 -145 0
-121 -135 -15 -43 -139 0
-121 -135 -15 43 139 0
-121 -135 15 -43 139 0
-121 -135 15 43 -139 0
-121 -135 -16 -44 -140 0
-121 -135 -16 44 140 0
-121 -135 16 -44 140 0
-121 -135 16 44 -140 0
-121 -135 -17 -45 -141 0
-121 -135 -17 45 141 0
-121 -135 17 -45 141 0
-121 -135 17 45 -141 0
-121 -135 -18 -46 -142 0
-121 -135 -18 46 142 0
-121 -135 18 -46 142 0
-121 -135 18 46 -142 0
-121 -135 -19 -47 -143 0
-121 -135 -19 47 143 0
-121 -135 19 -47 143 0
-121 -135 19 47 -143 0
-121 -135 -20 -48 -144 0
-121 -135 -20 48 144 0
-121 -135 20 -48 144 0
-121 -135 20 48 -144 0
-121 -135 -21 -49 -145 0
-121 -135 -21 49 145 0
-121 -135 21 -49 145 0
-121 -135 21 49 -145 0
-121 -136 -15 -64 -139 0
-121 -136 -15 64 139 0
-121 -136 15 -64 139 0
-121 -136 15 64 -139 0
-121 -136 -16 -65 -140 0
-121 -136 -16 65 140 0
-121 -136 16 -65 140 0
-121 -136 16 65 -140 0
-121 -136 -17 -66 -141 0
-121 -136 -17 66 141 0
-121 -136 17 -66 141 0
-121 -136 17 66 -141 0
-121 -136 -18 -67 -142 0
-121 -136 -18 67 142 0
-121 -136 18 -67 142 0
-121 -136 18 67 -142 0
-121 -136 -19 -68 -143 0
-121 -136 -19 68 143 0
-121 -136 19 -68 143 0
-121 -136 19 68 -143 0
-121 -136 -20 -69 -144 0
-121 -136 -20 69 144 0
-121 -136 20 -69 144 0
-121 -136 20 69 -144 0
-121 -136 -21 -70 -145 0
-121 -136 -21 70 145 0
-121 -136 21 -70 145 0
-121 -136 21 70 -145 0
-121 -137 -15 -87 -139 0
-121 -137 -15 87 139 0
-121 -137 15 -87 139 0
-121 -137 15 87 -139 0
-121 -137 -16 -88 -140 0
-121 -137 -16 88 140 0
-121 -137 16 -88 140 0
-121 -137 16 88 -140 0
-121 -137 -17 -89 -141 0
-121 -137 -17 89 141 0
-121 -137 17 -89 141 0
-121 -137 17 89 -141 0
-121 -137 -18 -90 -142 0
-121 -137 -18 90 142 0
-121 -137 18 -90 142 0
-121 -137 18 90 -142 0
-121 -137 -19 -91 -143 0
-121 -137 -19 91 143 0
-121 -137 19 -91 143 0
-121 -137 19 91 -143 0
-121 -137 -20 -92 -144 0
-121 -137 -20 92 144 0
-121 -137 20 -92 144 0
-121 -137 20 92 -144 0
-121 -137 -21 -93 -145 0
-121 -137 -21 93 145 0
-121 -137 21 -93 145 0
-121 -137 21 93 -145 0
-121 -138 -15 -112 -139 0
-121 -138 -15 112 139 0
-121 -138 15 -112 139 0
-121 -138 15 112 -139 0
-121 -138 -16 -113 -140 0
-121 -138 -16 113 140 0
-121 -138 16 -113 140 0
-121 -138 16 113 -140 0
-121 -138 -17 -114 -141 0
-121 -138 -17 114 141 0
-121 -138 17 -114 141 0
-121 -138 17 114 -141 0
-121 -138 -18 -115 -142 0
-121 -138 -18 115 142 0
-121 -138 18 -115 142 0
-121 -138 18 115 -142 0
-121 -138 -19 -116 -143 0
-121 -138 -19 116 143 0
-121 -138 19 -116 143 0
-121 -138 19 116 -143 0
-121 -138 -20 -117 -144 0
-121 -138 -20 117 144 0
-121 -138 20 -117 144 0
-121 -138 20 117 -144 0
-121 -138 -21 -118 -145 0
-121 -138 -21 118 145 0
-121 -138 21 -118 145 0
-121 -138 21 118 -145 0
-122 -133 -22 -29 -139 0
-122 -133 -22 29 139 0
-122 -133 22 -29 139 0
-122 -133 22 29 -139 0
-122 -133 -23 -30 -140 0
-122 -133 -23 30 140 0
-122 -133 23 -30 140 0
-122 -133 23 30 -140 0
-122 -133 -24 -31 -141 0
-122 -133 -24 31 141 0
-122 -133 24 -31 141 0
-122 -133 24 31 -141 0
-122 -133 -25 -32 -142 0
-122 -133 -25 32 142 0
-122 -133 25 -32 142 0
-122 -133 25 32 -142 0
-122 -133 -26 -33 -143 0
-122 -133 -26 33 143 0
-122 -133 26 -33 143 0
-122 -133 26 33 -143 0
-122 -133 -27 -34 -144 0
-122 -133 -27 34 144 0
-122 -133 27 -34 144 0
-122 -133 27 34 -144 0
-122 -133 -28 -35 -145 0
-122 -133 -28 35 145 0
-122 -133 28 -35 145 0
-122 -133 28 35 -145 0
-122 -134 -22 -36 -139 0
-122 -134 -22 36 139 0
-122 -134 22 -36 139 0
-122 -134 22 36 -139 0
-122 -134 -23 -37 -140 0
-122 -134 -23 37 140 0
-122 -134 23 -37 140 0
-122 -134 23 37 -140 0
-122 -134 -24 -38 -141 0
-122 -134 -24 38 141 0
-122 -134 24 -38 141 0
-122 -134 24 38 -141 0
-122 -134 -25 -39 -142 0
-122 -134 -25 39 142 0
-122 -134 25 -39 142 0
-122 -134 25 39 -142 0
-122 -134 -26 -40 -143 0
-122 -134 -26 40 143 0
-122 -134 26 -40 143 0
-122 -134 26 40 -143 0
-122 -134 -27 -41 -144 0
-122 -134 -27 41 144 0
-122 -134 27 -41 144 0
-122 -134 27 41 -144 0
-122 -134 -28 -42 -145 0
-122 -134 -28 42 145 0
-122 -134 28 -42 145 0
-122 -134 28 42 -145 0
-122 -135 -22 -43 -139 0
-122 -135 -22 43 139 0
-122 -135 22 -43 139 0
-122 -135 22 43 -139 0
-122 -135 -23 -44 -140 0
-122 -135 -23 44 140 0
-122 -135 23 -44 140 0
-122 -135 23 44 -140 0
-122 -135 -24 -45 -141 0
-122 -135 -24 45 141 0
-122 -135 24 -45 141 0
-122 -135 24 45 -141 0
-122 -135 -25 -46 -142 0
-122 -135 -25 46 142 0
-122 -135 25 -46 142 0
-122 -135 25 46 -142 0
-122 -135 -26 -47 -143 0
-122 -135 -26 47 143 0
-122 -135 26 -47 143 0
-122 -135 26 47 -143 0
-122 -135 -27 -48 -144 0
-122 -135 -27 48 144 0
-122 -135 27 -48 144 0
-122 -135 27 48 -144 0
-122 -135 -28 -49 -145 0
-122 -135 -28 49 145 0
-122 -135 28 -49 145 0
-122 -135 28 49 -145 0
-122 -136 -22 -64 -139 0
-122 -136 -22 64 139 0
-122 -136 22 -64 139 0
-122 -136 22 64 -139 0
-122 -136 -23 -65 -140 0
-122 -136 -23 65 140 0
-122 -136 23 -65 140 0
-122 -136 23 65 -140 0
-122 -136 -24 -66 -141 0
-122 -136 -24 66 141 0
-122 -136 24 -66 141 0
-122 -136 24 66 -141 0
-122 -136 -25 -67 -142 0
-122 -136 -25 67 142 0
-122 -136 25 -67 142 0
-122 -136 25 67 -142 0
-122 -136 -26 -68 -143 0
-122 -136 -26 68 143 0
-122 -136 26 -68 143 0
-122 -136 26 68 -143 0
-122 -136 -27 -69 -144 0
-122 -136 -27 69 144 0
-122 -136 27 -69 144 0
-122 -136 27 69 -144 0
-122 -136 -28 -70 -145 0
-122 -136 -28 70 145 0
-122 -136 28 -70 145 0
-122 -136 28 70 -145 0
-122 -137 -22 -87 -139 0
-122 -137 -22 87 139 0
-122 -137 22 -87 139 0
-122 -137 22 87 -139 0
-122 -137 -23 -88 -140 0
-122 -137 -23 88 140 0
-122 -137 23 -88 140 0
-122 -137 23 88 -140 0
-122 -137 -24 -89 -141 0
-122 -137 -24 89 141 0
-122 -137 24 -89 141 0
-122 -137 24 89 -141 0
-122 -137 -25 -90 -142 0
-122 -137 -25 90 142 0
-122 -137 25 -90 142 0
-122 -137 25 90 -142 0
-122 -137 -26 -91 -143 0
-122 -137 -26 91 143 0
-122 -137 26 -91 143 0
-122 -137 26 91 -143 0
-122 -137 -27 -92 -144 0
-122 -137 -27 92 144 0
-122 -137 27 -92 144 0
-122 -137 27 92 -144 0
-122 -137 -28 -93 -145 0
-122 -137 -28 93 145 0
-122 -137 28 -93 145 0
-122 -137 28 93 -145 0
-122 -138 -22 -112 -139 0
-122 -138 -22 112 139 0
-122 -138 22 -112 139 0
-122 -138 22 112 -139 0
-122 -138 -23 -113 -140 0
-122 -138 -23 113 140 0
-122 -138 23 -113 140 0
-122 -138 23 113 -140 0
-122 -138 -24 -114 -141 0
-122 -138 -24 114 141 0
-122 -138 24 -114 141 0
-122 -138 24 114 -141 0
-122 -138 -25 -115 -142 0
-122 -138 -25 115 142 0
-122 -138 25 -115 142 0
-122 -138 25 115 -142 0
-122 -138 -26 -116 -143 0
-122 -138 -26 116 143 0
-122 -138 26 -116 143 0
-122 -138 26 116 -143 0
-122 -138 -27 -117 -144 0
-122 -138 -27 117 144 0
-122 -138 27 -117 144 0
-122 -138 27 117 -144 0
-122 -138 -28 -118 -145 0
-122 -138 -28 118 145 0
-122 -138 28 -118 145 0
-122 -138 28 118 -145 0
-123 -134 -29 -36 -139 0
-123 -134 -29 36 139 0
-123 -134 29 -36 139 0
-123 -134 29 36 -139 0
-123 -134 -30 -37 -140 0
-123 -134 -30 37 140 0
-123 -134 30 -37 140 0
-123 -134 30 37 -140 0
-123 -134 -31 -38 -141 0
-123 -134 -31 38 141 0
-123 -134 31 -38 141 0
-123 -134 31 38 -141 0
-123 -134 -32 -39 -142 0
-123 -134 -32 39 142 0
-123 -134 32 -39 142 0
-123 -134 32 39 -142 0
-123 -134 -33 -40 -143 0
-123 -134 -33 40 143 0
-123 -134 33 -40 143 0
-123 -134 33 40 -143 0
-123 -134 -34 -41 -144 0
-123 -134 -34 41 144 0
-123 -134 34 -41 144 0
-123 -134 34 41 -144 0
-123 -134 -35 -42 -145 0
-123 -134 -35 42 145 0
-123 -134 35 -42 145 0
-123 -134 35 42 -145 0
-123 -135 -29 -43 -139 0
-123 -135 -29 43 139 0
-123 -135 29 -43 139 0
-123 -135 29 43 -139 0
-123 -135 -30 -44 -140 0
-123 -135 -30 44 140 0
-123 -135 30 -44 140 0
-123 -135 30 44 -140 0
-123 -135 -31 -45 -141 0
-123 -135 -31 45 141 0
-123 -135 31 -45 141 0
-123 -135 31 45 -141 0
-123 -135 -32 -46 -142 0
-123 -135 -32 46 142 0
-123 -135 32 -46 142 0
-123 -135 32 46 -142 0
-123 -135 -33 -47 -143 0
-123 -135 -33 47 143 0
-123 -135 33 -47 143 0
-123 -135 33 47 -143 0
-123 -135 -34 -48 -144 0
-123 -135 -34 48 144 0
-123 -135 34 -48 144 0
-123 -135 34 48 -144 0
-123 -135 -35 -49 -145 0
-123 -135 -35 49 145 0
-123 -135 35 -49 145 0
-123 -135 35 49 -145 0
-123 -136 -29 -64 -139 0
-123 -136 -29 64 139 0
-123 -136 29 -64 139 0
-123 -136 29 64 -139 0
-123 -136 -30 -65 -140 0
-123 -136 -30 65 140 0
-123 -136 30 -65 140 0
-123 -136 30 65 -140 0
-123 -136 -31 -66 -141 0
-123 -136 -31 66 141 0
-123 -136 31 -66 141 0
-123 -136 31 66 -141 0
-123 -136 -32 -67 -142 0
-123 -136 -32 67 142 0
-123 -136 32 -67 142 0
-123 -136 32 67 -142 0
-123 -136 -33 -68 -143 0
-123 -136 -33 68 143 0
-123 -136 33 -68 143 0
-123 -136 33 68 -143 0
-123 -136 -34 -69 -144 0
-123 -136 -34 69 144 0
-123 -136 34 -69 144 0
-123 -136 34 69 -144 0
-123 -136 -35 -70 -145 0
-123 -136 -35 70 145 0
-123 -136 35 -70 145 0
-123 -136 35 70 -145 0
-123 -137 -29 -87 -139 0
-123 -137 -29 87 139 0
-123 -137 29 -87 139 0
-123 -137 29 87 -139 0
-123 -137 -30 -88 -140 0
-123 -137 -30 88 140 0
-123 -137 30 -88 140 0
-123 -137 30 88 -140 0
-123 -137 -31 -89 -141 0
-123 -137 -31 89 141 0
-123 -137 31 -89 141 0
-123 -137 31 89 -141 0
-123 -137 -32 -90 -142 0
-123 -137 -32 90 142 0
-123 -137 32 -90 142 0
-123 -137 32 90 -142 0
-123 -137 -33 -91 -143 0
-123 -137 -33 91 143 0
-123 -137 33 -91 143 0
-123 -137 33 91 -143 0
-123 -137 -34 -92 -144 0
-123 -137 -34 92 144 0
-123 -137 34 -92 144 0
-123 -137 34 92 -144 0
-123 -137 -35 -93 -145 0
-123 -137 -35 93 145 0
-123 -137 35 -93 145 0
-123 -137 35 93 -145 0
-123 -138 -29 -112 -139 0
-123 -138 -29 112 139 0
-123 -138 29 -112 139 0
-123 -138 29 112 -139 0
-123 -138 -30 -113 -140 0
-123 -138 -30 113 140 0
-123 -138 30 -113 140 0
-123 -138 30 113 -140 0
-123 -138 -31 -114 -141 0
-123 -138 -31 114 141 0
-123 -138 31 -114 141 0
-123 -138 31 114 -141 0
-123 -138 -32 -115 -142 0
-123 -138 -32 115 142 0
-123 -138 32 -115 142 0
-123 -138 32 115 -142 0
-123 -138 -33 -116 -143 0
-123 -138 -33 116 143 0
-123 -138 33 -116 143 0
-123 -138 33 116 -143 0
-123 -138 -34 -117 -144 0
-123 -138 -34 117 144 0
-123 -138 34 -117 144 0
-123 -138 34 117 -144 0
-123 -138 -35 -118 -145 0
-123 -138 -35 118 145 0
-123 -138 35 -118 145 0
-123 -138 35 118 -145 0
-124 -135 -36 -43 -139 0
-124 -135 -36 43 139 0
-124 -135 36 -43 139 0
-124 -135 36 43 -139 0
-124 -135 -37 -44 -140 0
-124 -135 -37 44 140 0
-124 -135 37 -44 140 0
-124 -135 37 44 -140 0
-124 -135 -38 -45 -141 0
-124 -135 -38 45 141 0
-124 -135 38 -45 141 0
-124 -135 38 45 -141 0
-124 -135 -39 -46 -142 0
-124 -135 -39 46 142 0
-124 -135 39 -46 142 0
-124 -135 39 46 -142 0
-124 -135 -40 -47 -143 0
-124 -135 -40 47 143 0
-124 -135 40 -47 143 0
-124 -135 40 47 -143 0
-124 -135 -41 -48 -144 0
-124 -135 -41 48 144 0
-124 -135 41 -48 144 0
-124 -135 41 48 -144 0
-124 -135 -42 -49 -145 0
-124 -135 -42 49 145 0
-124 -135 42 -49 145 0
-124 -135 42 49 -145 0
-124 -136 -36 -64 -139 0
-124 -136 -36 64 139 0
-124 -136 36 -64 139 0
-124 -136 36 64 -139 0
-124 -136 -37 -65 -140 0
-124 -136 -37 65 140 0
-124 -136 37 -65 140 0
-124 -136 37 65 -140 0
-124 -136 -38 -66 -141 0
-124 -136 -38 66 141 0
-124 -136 38 -66 141 0
-124 -136 38 66 -141 0
-124 -136 -39 -67 -142 0
-124 -136 -39 67 142 0
-124 -136 39 -67 142 0
-124 -136 39 67 -142 0
-124 -136 -40 -68 -143 0
-124 -136 -40 68 143 0
-124 -136 40 -68 143 0
-124 -136 40 68 -143 0
-124 -136 -41 -69 -144 0
-124 -136 -41 69 144 0
-124 -136 41 -69 144 0
-124 -136 41 69 -144 0
-124 -136 -42 -70 -145 0
-124 -136 -42 70 145 0
-124 -136 42 -70 145 0
-124 -136 42 70 -145 0
-124 -137 -36 -87 -139 0
-124 -137 -36 87 139 0
-124 -137 36 -87 139 0
-124 -137 36 87 -139 0
-124 -137 -37 -88 -140 0
-124 -137 -37 88 140 0
-124 -137 37 -88 140 0
-124 -137 37 88 -140 0
-124 -137 -38 -89 -141 0
-124 -137 -38 89 141 0
-124 -137 38 -89 141 0
-124 -137 38 89 -141 0
-124 -137 -39 -90 -142 0
-124 -137 -39 90 142 0
-124 -137 39 -90 142 0
-124 -137 39 90 -142 0
-124 -137 -40 -91 -143 0
-124 -137 -40 91 143 0
-124 -137 40 -91 143 0
-124 -137 40 91 -143 0
-124 -137 -41 -92 -144 0
-124 -137 -41 92 144 0
-124 -137 41 -92 144 0
-124 -137 41 92 -144 0
-124 -137 -42 -93 -145 0
-124 -137 -42 93 145 0
-124 -137 42 -93 145 0
-124 -137 42 93 -145 0
-124 -138 -36 -112 -139 0
-124 -138 -36 112 139 0
-124 -138 36 -112 139 0
-124 -138 36 112 -139 0
-124 -138 -37 -113 -140 0
-124 -138 -37 113 140 0
-124 -138 37 -113 140 0
-124 -138 37 113 -140 0
-124 -138 -38 -114 -141 0
-124 -138 -38 114 141 0
-124 -138 38 -114 141 0
-124 -138 38 114 -141 0
-124 -138 -39 -115 -142 0
-124 -138 -39 115 142 0
-124 -138 39 -115 142 0
-124 -138 39 115 -142 0
-124 -138 -40 -116 -143 0
-124 -138 -40 116 143 0
-124 -138 40 -116 143 0
-124 -138 40 116 -143 0
-124 -138 -41 -117 -144 0
-124 -138 -41 117 144 0
-124 -138 41 -117 144 0
-124 -138 41 117 -144 0
-124 -138 -42 -118 -145 0
-124 -138 -42 118 145 0
-124 -138 42 -118 145 0
-124 -138 42 118 -145 0
-125 -136 -43 -64 -139 0
-125 -136 -43 64 139 0
-125 -136 43 -64 139 0
-125 -136 43 64 -139 0
-125 -136 -44 -65 -140 0
-125 -136 -44 65 140 0
-125 -136 44 -65 140 0
-125 -136 44 65 -140 0
-125 -136 -45 -66 -141 0
-125 -136 -45 66 141 0
-125 -136 45 -66 141 0
-125 -136 45 66 -141 0
-125 -136 -46 -67 -142 0
-125 -136 -46 67 142 0
-125 -136 46 -67 142 0
-125 -136 46 67 -142 0
-125 -136 -47 -68 -143 0
-125 -136 -47 68 143 0
-125 -136 47 -68 143 0
-125 -136 47 68 -143 0
-125 -136 -48 -69 -144 0
-125 -136 -48 69 144 0
-125 -136 48 -69 144 0
-125 -136 48 69 -144 0
-125 -136 -49 -70 -145 0
-125 -136 -49 70 145 0
-125 -136 49 -70 145 0
-125 -136 49 70 -145 0
-125 -137 -43 -87 -139 0
-125 -137 -43 87 139 0
-125 -137 43 -87 139 0
-125 -137 43 87 -139 0
-125 -137 -44 -88 -140 0
-125 -137 -44 88 140 0
-125 -137 44 -88 140 0
-125 -137 44 88 -140 0
-125 -137 -45 -89 -141 0
-125 -137 -45 89 141 0
-125 -137 45 -89 141 0
-125 -137 45 89 -141 0
-125 -137 -46 -90 -142 0
-125 -137 -46 90 142 0
-125 -137 46 -90 142 0
-125 -137 46 90 -142 0
-125 -137 -47 -91 -143 0
-125 -137 -47 91 143 0
-125 -137 47 -91 143 0
-125 -137 47 91 -143 0
-125 -137 -48 -92 -144 0
-125 -137 -48 92 144 0
-125 -137 48 -92 144 0
-125 -137 48 92 -144 0
-125 -137 -49 -93 -145 0
-125 -137 -49 93 145 0
-125 -137 49 -93 145 0
-125 -137 49 93 -145 0
-125 -138 -43 -112 -139 0
-125 -138 -43 112 139 0
-125 -138 43 -112 139 0
-125 -138 43 112 -139 0
-125 -138 -44 -113 -140 0
-125 -138 -44 113 140 0
-125 -138 44 -113 140 0
-125 -138 44 113 -140 0
-125 -138 -45 -114 -141 0
-125 -138 -45 114 141 0
-125 -138 45 -114 141 0
-125 -138 45 114 -141 0
-125 -138 -46 -115 -142 0
-125 -138 -46 115 142 0
-125 -138 46 -115 142 0
-125 -138 46 115 -142 0
-125 -138 -47 -116 -143 0
-125 -138 -47 116 143 0
-125 -138 47 -116 143 0
-125 -138 47 116 -143 0
-125 -138 -48 -117 -144 0
-125 -138 -48 117 144 0
-125 -138 48 -117 144 0
-125 -138 48 117 -144 0
-125 -138 -49 -118 -145 0
-125 -138 -49 118 145 0
-125 -138 49 -118 145 0
-125 -138 49 118 -145 0
-126 -137 -64 -87 -139 0
-126 -137 -64 87 139 0
-126 -137 64 -87 139 0
-126 -137 64 87 -139 0
-126 -137 -65 -88 -140 0
-126 -137 -65 88 140 0
-126 -137 65 -88 140 0
-126 -137 65 88 -140 0
-126 -137 -66 -89 -141 0
-126 -137 -66 89 141 0
-126 -137 66 -89 141 0
-126 -137 66 89 -141 0
-126 -137 -67 -90 -142 0
-126 -137 -67 90 142 0
-126 -137 67 -90 142 0
-126 -137 67 90 -142 0
-126 -137 -68 -91 -143 0
-126 -137 -68 91 143 0
-126 -137 68 -91 143 0
-126 -137 68 91 -143 0
-126 -137 -69 -92 -144 0
-126 -137 -69 92 144 0
-126 -137 69 -92 144 0
-126 -137 69 92 -144 0
-126 -137 -70 -93 -145 0
-126 -137 -70 93 145 0
-126 -137 70 -93 145 0
-126 -137 70 93 -145 0
-126 -138 -64 -112 -139 0
-126 -138 -64 112 139 0
-126 -138 64 -112 139 0
-126 -138 64 112 -139 0
-126 -138 -65 -113 -140 0
-126 -138 -65 113 140 0
-126 -138 65 -113 140 0
-126 -138 65 113 -140 0
-126 -138 -66 -114 -141 0
-126 -138 -66 114 141 0
-126 -138 66 -114 141 0
-126 -138 66 114 -141 0
-126 -138 -67 -115 -142 0
-126 -138 -67 115 142 0
-126 -138 67 -115 142 0
-126 -138 67 115 -142 0
-126 -138 -68 -116 -143 0
-126 -138 -68 116 143 0
-126 -138 68 -116 143 0
-126 -138 68 116 -143 0
-126 -138 -69 -117 -144 0
-126 -138 -69 117 144 0
-126 -138 69 -117 144 0
-126 -138 69 117 -144 0
-126 -138 -70 -118 -145 0
-126 -138 -70 118 145 0
-126 -138 70 -118 145 0
-126 -138 70 118 -145 0
-127 -138 -87 -112 -139 0
-127 -138 -87 112 139 0
-127 -138 87 -112 139 0
-127 -138 87 112 -139 0
-127 -138 -88 -113 -140 0
-127 -138 -88 113 140 0
-127 -138 88 -113 140 0
-127 -138 88 113 -140 0
-127 -138 -89 -114 -141 0
-127 -138 -89 114 141 0
-127 -138 89 -114 141 0
-127 -138 89 114 -141 0
-127 -138 -90 -115 -142 0
-127 -138 -90 115 142 0
-127 -138 90 -115 142 0
-127 -138 90 115 -142 0
-127 -138 -91 -116 -143 0
-127 -138 -91 116 143 0
-127 -138 91 -116 143 0
-127 -138 91 116 -143 0
-127 -138 -92 -117 -144 0
-127 -138 -92 117 144 0
-127 -138 92 -117 144 0
-127 -138 92 117 -144 0
-127 -138 -93 -118 -145 0
-127 -138 -93 118 145 0
-127 -138 93 -118 145 0
-127 -138 93 118 -145 0
139 140 141 142 143 144 145 0
146 147 148 149 150 151 152 153 154 155 156 0
-146 -147 0
-146 -148 0
-146 -149 0
-146 -150 0
-146 -151 0
-146 -152 0
-146 -153 0
-146 -154 0
-146 -155 0
-146 -156 0
-147 -148 0
-147 -149 0
-147 -150 0
-147 -151 0
-147 -152 0
-147 -153 0
-147 -154 0
-147 -155 0
-147 -156 0
-148 -149 0
-148 -150 0
-148 -151 0
-148 -152 0
-148 -153 0
-148 -154 0
-148 -155 0
-148 -156 0
-149 -150 0
-149 -151 0
-149 -152 0
-149 -153 0
-149 -154 0
-149 -155 0
-149 -156 0
-150 -151 0
-150 -152 0
-150 -153 0
-150 -154 0
-150 -155 0
-150 -156 0
-151 -152 0
-151 -153 0
-151 -154 0
-151 -155 0
-151 -156 0
-152 -153 0
-152 -154 0
-152 -155 0
-152 -156 0
-153 -154 0
-153 -155 0
-153 -156 0
-154 -155 0
-154 -156 0
-155 -156 0
157 158 159 160 161 162 163 164 165 166 167 0
-157 -158 0
-157 -159 0
-157 -160 0
-157 -161 0
-157 -162 0
-157 -163 0
-157 -164 0
-157 -165 0
-157 -166 0
-157 -167 0
-158 -159 0
-158 -160 0
-158 -161 0
-158 -162 0
-158 -163 0
-158 -164 0
-158 -165 0
-158 -166 0
-158 -167 0
-159 -160 0
-159 -161 0
-159 -162 0
-159 -163 0
-159 -164 0
-159 -165 0
-159 -166 0
-159 -167 0
-160 -161 0
-160 -162 0
-160 -163 0
-160 -164 0
-160 -165 0
-160 -166 0
-160 -167 0
-161 -162 0
-161 -163 0
-161 -164 0
-161 -165 0
-161 -166 0
-161 -167 0
-162 -163 0
-162 -164 0
-162 -165 0
-162 -166 0
-162 -167 0
-163 -164 0
-163 -165 0
-163 -166 0
-163 -167 0
-164 -165 0
-164 -166 0
-164 -167 0
-165 -166 0
-165 -167 0
-166 -167 0
-146 -157 0
-147 -157 0
-147 -158 0
-148 -157 0
-148 -158 0
-148 -159 0
-149 -157 0
-149 -158 0
-149 -159 0
-149 -160 0
-150 -157 0
-150 -158 0
-150 -159 0
-150 -160 0
-150 -161 0
-151 -157 0
-151 -158 0
-151 -159 0
-151 -160 0
-151 -161 0
-151 -162 0
-152 -157 0
-152 -158 0
-152 -159 0
-152 -160 0
-152 -161 0
-152 -162 0
-152 -163 0
-153 -157 0
-153 -158 0
-153 -159 0
-153 -160 0
-153 -161 0
-153 -162 0
-153 -163 0
-153 -164 0
-154 -157 0
-154 -158 0
-154 -159 0
-154 -160 0
-154 -161 0
-154 -162 0
-154 -163 0
-154 -164 0
-154 -165 0
-155 -157 0
-155 -158 0
-155 -159 0
-155 -160 0
-155 -161 0
-155 -162 0
-155 -163 0
-155 -164 0
-155 -165 0
-155 -166 0
-156 -157 0
-156 -158 0
-156 -159 0
-156 -160 0
-156 -161 0
-156 -162 0
-156 -163 0
-156 -164 0
-156 -165 0
-156 -166 0
-156 -167 0
-146 -158 -1 -8 -168 0
-146 -158 -1 8 168 0
-146 -158 1 -8 168 0
-146 -158 1 8 -168 0
-146 -158 -2 -9 -169 0
-146 -158 -2 9 169 0
-146 -158 2 -9 169 0
-146 -158 2 9 -169 0
-146 -158 -3 -10 -170 0
-146 -158 -3 10 170 0
-146 -158 3 -10 170 0
-146 -158 3 10 -170 0
-146 -158 -4 -11 -171 0
-146 -158 -4 11 171 0
-146 -158 4 -11 171 0
-146 -158 4 11 -171 0
-146 -158 -5 -12 -172 0
-146 -158 -5 12 172 0
-146 -158 5 -12 172 0
-146 -158 5 12 -172 0
-146 -158 -6 -13 -173 0
-146 -158 -6 13 173 0
-146 -158 6 -13 173 0
-146 -158 6 13 -173 0
-146 -158 -7 -14 -174 0
-146 -158 -7 14 174 0
-146 -158 7 -14 174 0
-146 -158 7 14 -174 0
-146 -159 -1 -15 -168 0
-146 -159 -1 15 168 0
-146 -159 1 -15 168 0
-146 -159 1 15 -168 0
-146 -159 -2 -16 -169 0
-146 -159 -2 16 169 0
-146 -159 2 -16 169 0
-146 -159 2 16 -169 0
-146 -159 -3 -17 -170 0
-146 -159 -3 17 170 0
-146 -159 3 -17 170 0
-146 -159 3 17 -170 0
-146 -159 -4 -18 -171 0
-146 -159 -4 18 171 0
-146 -159 4 -18 171 0
-146 -159 4 18 -171 0
-146 -159 -5 -19 -172 0
-146 -159 -5 19 172 0
-146 -159 5 -19 172 0
-146 -159 5 19 -172 0
-146 -159 -6 -20 -173 0
-146 -159 -6 20 173 0
-146 -159 6 -20 173 0
-146 -159 6 20 -173 0
-146 -159 -7 -21 -174 0
-146 -159 -7 21 174 0
-146 -159 7 -21 174 0
-146 -159 7 21 -174 0
-146 -160 -1 -22 -168 0
-146 -160 -1 22 168 0
-146 -160 1 -22 168 0
-146 -160 1 22 -168 0
-146 -160 -2 -23 -169 0
-146 -160 -2 23 169 0
-146 -160 2 -23 169 0
-146 -160 2 23 -169 0
-146 -160 -3 -24 -170 0
-146 -160 -3 24 170 0
-146 -160 3 -24 170 0
-146 -160 3 24 -170 0
-146 -160 -4 -25 -171 0
-146 -160 -4 25 171 0
-146 -160 4 -25 171 0
-146 -160 4 25 -171 0
-146 -160 -5 -26 -172 0
-146 -160 -5 26 172 0
-146 -160 5 -26 172 0
-146 -160 5 26 -172 0
-146 -160 -6 -27 -173 0
-146 -160 -6 27 173 0
-146 -160 6 -27 173 0
-146 -160 6 27 -173 0
-146 -160 -7 -28 -174 0
-146 -160 -7 28 174 0
-146 -160 7 -28 174 0
-146 -160 7 28 -174 0
-146 -161 -1 -29 -168 0
-146 -161 -1 29 168 0
-146 -161 1 -29 168 0
-146 -161 1 29 -168 0
-146 -161 -2 -30 -169 0
-146 -161 -2 30 169 0
-146 -161 2 -30 169 0
-146 -161 2 30 -169 0
-146 -161 -3 -31 -170 0
-146 -161 -3 31 170 0
-146 -161 3 -31 170 0
-146 -161 3 31 -170 0
-146 -161 -4 -32 -171 0
-146 -161 -4 32 171 0
-146 -161 4 -32 171 0
-146 -161 4 32 -171 0
-146 -161 -5 -33 -172 0
-146 -161 -5 33 172 0
-146 -161 5 -33 172 0
-146 -161 5 33 -172 0
-146 -161 -6 -34 -173 0
-146 -161 -6 34 173 0
-146 -161 6 -34 173 0
-146 -161 6 34 -173 0
-146 -161 -7 -35 -174 0
-146 -161 -7 35 174 0
-146 -161 7 -35 174 0
-146 -161 7 35 -174 0
-146 -162 -1 -36 -168 0
-146 -162 -1 36 168 0
-146 -162 1 -36 168 0
-146 -162 1 36 -168 0
-146 -162 -2 -37 -169 0
-146 -162 -2 37 169 0
-146 -162 2 -37 169 0
-146 -162 2 37 -169 0
-146 -162 -3 -38 -170 0
-146 -162 -3 38 170 0
-146 -162 3 -38 170 0
-146 -162 3 38 -170 0
-146 -162 -4 -39 -171 0
-146 -162 -4 39 171 0
-146 -162 4 -39 171 0
-146 -162 4 39 -171 0
-146 -162 -5 -40 -172 0
-146 -162 -5 40 172 0
-146 -162 5 -40 172 0
-146 -162 5 40 -172 0
-146 -162 -6 -41 -173 0
-146 -162 -6 41 173 0
-146 -162 6 -41 173 0
-146 -162 6 41 -173 0
-146 -162 -7 -42 -174 0
-146 -162 -7 42 174 0
-146 -162 7 -42 174 0
-146 -162 7 42 -174 0
-146 -163 -1 -43 -168 0
-146 -163 -1 43 168 0
-146 -163 1 -43 168 0
-146 -163 1 43 -168 0
-146 -163 -2 -44 -169 0
-146 -163 -2 44 169 0
-146 -163 2 -44 169 0
-146 -163 2 44 -169 0
-146 -163 -3 -45 -170 0
-146 -163 -3 45 170 0
-146 -163 3 -45 170 0
-146 -163 3 45 -170 0
-146 -163 -4 -46 -171 0
-146 -163 -4 46 171 0
-146 -163 4 -46 171 0
-146 -163 4 46 -171 0
-146 -163 -5 -47 -172 0
-146 -163 -5 47 172 0
-146 -163 5 -47 172 0
-146 -163 5 47 -172 0
-146 -163 -6 -48 -173 0
-146 -163 -6 48 173 0
-146 -163 6 -48 173 0
-146 -163 6 48 -173 0
-146 -163 -7 -49 -174 0
-146 -163 -7 49 174 0
-146 -163 7 -49 174 0
-146 -163 7 49 -174 0
-146 -164 -1 -64 -168 0
-146 -164 -1 64 168 0
-146 -164 1 -64 168 0
-146 -164 1 64 -168 0
-146 -164 -2 -65 -169 0
-146 -164 -2 65 169 0
-146 -164 2 -65 169 0
-146 -164 2 65 -169 0
-146 -164 -3 -66 -170 0
-146 -164 -3 66 170 0
-146 -164 3 -66 170 0
-146 -164 3 66 -170 0
-146 -164 -4 -67 -171 0
-146 -164 -4 67 171 0
-146 -164 4 -67 171 0
-146 -164 4 67 -171 0
-146 -164 -5 -68 -172 0
-146 -164 -5 68 172 0
-146 -164 5 -68 172 0
-146 -164 5 68 -172 0
-146 -164 -6 -69 -173 0
-146 -164 -6 69 173 0
-146 -164 6 -69 173 0
-146 -164 6 69 -173 0
-146 -164 -7 -70 -174 0
-146 -164 -7 70 174 0
-146 -164 7 -70 174 0
-146 -164 7 70 -174 0
-146 -165 -1 -87 -168 0
-146 -165 -1 87 168 0
-146 -165 1 -87 168 0
-146 -165 1 87 -168 0
-146 -165 -2 -88 -169 0
-146 -165 -2 88 169 0
-146 -165 2 -88 169 0
-146 -165 2 88 -169 0
-146 -165 -3 -89 -170 0
-146 -165 -3 89 170 0
-146 -165 3 -89 170 0
-146 -165 3 89 -170 0
-146 -165 -4 -90 -171 0
-146 -165 -4 90 171 0
-146 -165 4 -90 171 0
-146 -165 4 90 -171 0
-146 -165 -5 -91 -172 0
-146 -165 -5 91 172 0
-146 -165 5 -91 172 0
-146 -165 5 91 -172 0
-146 -165 -6 -92 -173 0
-146 -165 -6 92 173 0
-146 -165 6 -92 173 0
-146 -165 6 92 -173 0
-146 -165 -7 -93 -174 0
-146 -165 -7 93 174 0
-146 -165 7 -93 174 0
-146 -165 7 93 -174 0
-146 -166 -1 -112 -168 0
-146 -166 -1 112 168 0
-146 -166 1 -112 168 0
-146 -166 1 112 -168 0
-146 -166 -2 -113 -169 0
-146 -166 -2 113 169 0
-146 -166 2 -113 169 0
-146 -166 2 113 -169 0
-146 -166 -3 -114 -170 0
-146 -166 -3 114 170 0
-146 -166 3 -114 170 0
-146 -166 3 114 -170 0
-146 -166 -4 -115 -171 0
-146 -166 -4 115 171 0
-146 -166 4 -115 171 0
-146 -166 4 115 -171 0
-146 -166 -5 -116 -172 0
-146 -166 -5 116 172 0
-146 -166 5 -116 172 0
-146 -166 5 116 -172 0
-146 -166 -6 -117 -173 0
-146 -166 -6 117 173 0
-146 -166 6 -117 173 0
-146 -166 6 117 -173 0
-146 -166 -7 -118 -174 0
-146 -166 -7 118 174 0
-146 -166 7 -118 174 0
-146 -166 7 118 -174 0
-146 -167 -1 -139 -168 0
-146 -167 -1 139 168 0
-146 -167 1 -139 168 0
-146 -167 1 139 -168 0
-146 -167 -2 -140 -169 0
-146 -167 -2 140 169 0
-146 -167 2 -140 169 0
-146 -167 2 140 -169 0
-146 -167 -3 -141 -170 0
-146 -167 -3 141 170 0
-146 -167 3 -141 170 0
-146 -167 3 141 -170 0
-146 -167 -4 -142 -171 0
-146 -167 -4 142 171 0
-146 -167 4 -142 171 0
-146 -167 4 142 -171 0
-146 -167 -5 -143 -172 0
-146 -167 -5 143 172 0
-146 -167 5 -143 172 0
-146 -167 5 143 -172 0
-146 -167 -6 -144 -173 0
-146 -167 -6 144 173 0
-146 -167 6 -144 173 0
-146 -167 6 144 -173 0
-146 -167 -7 -145 -174 0
-146 -167 -7 145 174 0
-146 -167 7 -145 174 0
-146 -167 7 145 -174 0
-147 -159 -8 -15 -168 0
-147 -159 -8 15 168 0
-147 -159 8 -15 168 0
-147 -159 8 15 -168 0
-147 -159 -9 -16 -169 0
-147 -159 -9 16 169 0
-147 -159 9 -16 169 0
-147 -159 9 16 -169 0
-147 -159 -10 -17 -170 0
-147 -159 -10 17 170 0
-147 -159 10 -17 170 0
-147 -159 10 17 -170 0
-147 -159 -11 -18 -171 0
-147 -159 -11 18 171 0
-147 -159 11 -18 171 0
-147 -159 11 18 -171 0
-147 -159 -12 -19 -172 0
-147 -159 -12 19 172 0
-147 -159 12 -19 172 0
-147 -159 12 19 -172 0
-147 -159 -13 -20 -173 0
-147 -159 -13 20 173 0
-147 -159 13 -20 173 0
-147 -159 13 20 -173 0
-147 -159 -14 -21 -174 0
-147 -159 -14 21 174 0
-147 -159 14 -21 174 0
-147 -159 14 21 -174 0
-147 -160 -8 -22 -168 0
-147 -160 -8 22 168 0
-147 -160 8 -22 168 0
-147 -160 8 22 -168 0
-147 -160 -9 -23 -169 0
-147 -160 -9 23 169 0
-147 -160 9 -23 169 0
-147 -160 9 23 -169 0
-147 -160 -10 -24 -170 0
-147 -160 -10 24 170 0
-147 -160 10 -24 170 0
-147 -160 10 24 -170 0
-147 -160 -11 -25 -171 0
-147 -160 -11 25 171 0
-147 -160 11 -25 171 0
-147 -160 11 25 -171 0
-147 -160 -12 -26 -172 0
-147 -160 -12 26 172 0
-147 -160 12 -26 172 0
-147 -160 12 26 -172 0
-147 -160 -13 -27 -173 0
-147 -160 -13 27 173 0
-147 -160 13 -27 173 0
-147 -160 13 27 -173 0
-147 -160 -14 -28 -174 0
-147 -160 -14 28 174 0
-147 -160 14 -28 174 0
-147 -160 14 28 -174 0
-147 -161 -8 -29 -168 0
-147 -161 -8 29 168 0
-147 -161 8 -29 168 0
-147 -161 8 29 -168 0
-147 -161 -9 -30 -169 0
-147 -161 -9 30 169 0
-147 -161 9 -30 169 0
-147 -161 9 30 -169 0
-147 -161 -10 -31 -170 0
-147 -161 -10 31 170 0
-147 -161 10 -31 170 0
-147 -161 10 31 -170 0
-147 -161 -11 -32 -171 0
-147 -161 -11 32 171 0
-147 -161 11 -32 171 0
-147 -161 11 32 -171 0
-147 -161 -12 -33 -172 0
-147 -161 -12 33 172 0
-147 -161 12 -33 172 0
-147 -161 12 33 -172 0
-147 -161 -13 -34 -173 0
-147 -161 -13 34 173 0
-147 -161 13 -34 173 0
-147 -161 13 34 -173 0
-147 -161 -14 -35 -174 0
-147 -161 -14 35 174 0
-147 -161 14 -35 174 0
-147 -161 14 35 -174 0
-147 -162 -8 -36 -168 0
-147 -162 -8 36 168 0
-147 -162 8 -36 168 0
-147 -162 8 36 -168 0
-147 -162 -9 -37 -169 0
-147 -162 -9 37 169 0
-147 -162 9 -37 169 0
-147 -162 9 37 -169 0
-147 -162 -10 -38 -170 0
-147 -162 -10 38 170 0
-147 -162 10 -38 170 0
-147 -162 10 38 -170 0
-147 -162 -11 -39 -171 0
-147 -162 -11 39 171 0
-147 -162 11 -39 171 0
-147 -162 11 39 -171 0
-147 -162 -12 -40 -172 0
-147 -162 -12 40 172 0
-147 -162 12 -40 172 0
-147 -162 12 40 -172 0
-147 -162 -13 -41 -173 0
-147 -162 -13 41 173 0
-147 -162 13 -41 173 0
-147 -162 13 41 -173 0
-147 -162 -14 -42 -174 0
-147 -162 -14 42 174 0
-147 -162 14 -42 174 0
-147 -162 14 42 -174 0
-147 -163 -8 -43 -168 0
-147 -163 -8 43 168 0
-147 -163 8 -43 168 0
-147 -163 8 43 -168 0
-147 -163 -9 -44 -169 0
-147 -163 -9 44 169 0
-147 -163 9 -44 169 0
-147 -163 9 44 -169 0
-147 -163 -10 -45 -170 0
-147 -163 -10 45 170 0
-147 -163 10 -45 170 0
-147 -163 10 45 -170 0
-147 -163 -11 -46 -171 0
-147 -163 -11 46 171 0
-147 -163 11 -46 171 0
-147 -163 11 46 -171 0
-147 -163 -12 -47 -172 0
-147 -163 -12 47 172 0
-147 -163 12 -47 172 0
-147 -163 12 47 -172 0
-147 -163 -13 -48 -173 0
-147 -163 -13 48 173 0
-147 -163 13 -48 173 0
-147 -163 13 48 -173 0
-147 -163 -14 -49 -174 0
-147 -163 -14 49 174 0
-147 -163 14 -49 174 0
-147 -163 14 49 -174 0
-147 -164 -8 -64 -168 0
-147 -164 -8 64 168 0
-147 -164 8 -64 168 0
-147 -164 8 64 -168 0
-147 -164 -9 -65 -169 0
-147 -164 -9 65 169 0
-147 -164 9 -65 169 0
-147 -164 9 65 -169 0
-147 -164 -10 -66 -170 0
-147 -164 -10 66 170 0
-147 -164 10 -66 170 0
-147 -164 10 66 -170 0
-147 -164 -11 -67 -171 0
-147 -164 -11 67 171 0
-147 -164 11 -67 171 0
-147 -164 11 67 -171 0
-147 -164 -12 -68 -172 0
-147 -164 -12 68 172 0
-147 -164 12 -68 172 0
-147 -164 12 68 -172 0
-147 -164 -13 -69 -173 0
-147 -164 -13 69 173 0
-147 -164 13 -69 173 0
-147 -164 13 69 -173 0
-147 -164 -14 -70 -174 0
-147 -164 -14 70 174 0
-147 -164 14 -70 174 0
-147 -164 14 70 -174 0
-147 -165 -8 -87 -168 0
-147 -165 -8 87 168 0
-147 -165 8 -87 168 0
-147 -165 8 87 -168 0
-147 -165 -9 -88 -169 0
-147 -165 -9 88 169 0
-147 -165 9 -88 169 0
-147 -165 9 88 -169 0
-147 -165 -10 -89 -170 0
-147 -165 -10 89 170 0
-147 -165 10 -89 170 0
-147 -165 10 89 -170 0
-147 -165 -11 -90 -171 0
-147 -165 -11 90 171 0
-147 -165 11 -90 171 0
-147 -165 11 90 -171 0
-147 -165 -12 -91 -172 0
-147 -165 -12 91 172 0
-147 -165 12 -91 172 0
-147 -165 12 91 -172 0
-147 -165 -13 -92 -173 0
-147 -165 -13 92 173 0
-147 -165 13 -92 173 0
-147 -165 13 92 -173 0
-147 -165 -14 -93 -174 0
-147 -165 -14 93 174 0
-147 -165 14 -93 174 0
-147 -165 14 93 -174 0
-147 -166 -8 -112 -168 0
-147 -166 -8 112 168 0
-147 -166 8 -112 168 0
-147 -166 8 112 -168 0
-147 -166 -9 -113 -169 0
-147 -166 -9 113 169 0
-147 -166 9 -113 169 0
-147 -166 9 113 -169 0
-147 -166 -10 -114 -170 0
-147 -166 -10 114 170 0
-147 -166 10 -114 170 0
-147 -166 10 114 -170 0
-147 -166 -11 -115 -171 0
-147 -166 -11 115 171 0
-147 -166 11 -115 171 0
-147 -166 11 115 -171 0
-147 -166 -12 -116 -172 0
-147 -166 -12 116 172 0
-147 -166 12 -116 172 0
-147 -166 12 116 -172 0
-147 -166 -13 -117 -173 0
-147 -166 -13 117 173 0
-147 -166 13 -117 173 0
-147 -166 13 117 -173 0
-147 -166 -14 -118 -174 0
-147 -166 -14 118 174 0
-147 -166 14 -118 174 0
-147 -166 14 118 -174 0
-147 -167 -8 -139 -168 0
-147 -167 -8 139 168 0
-147 -167 8 -139 168 0
-147 -167 8 139 -168 0
-147 -167 -9 -140 -169 0
-147 -167 -9 140 169 0
-147 -167 9 -140 169 0
-147 -167 9 140 -169 0
-147 -167 -10 -141 -170 0
-147 -167 -10 141 170 0
-147 -167 10 -141 170 0
-147 -167 10 141 -170 0
-147 -167 -11 -142 -171 0
-147 -167 -11 142 171 0
-147 -167 11 -142 171 0
-147 -167 11 142 -171 0
-147 -167 -12 -143 -172 0
-147 -167 -12 143 172 0
-147 -167 12 -143 172 0
-147 -167 12 143 -172 0
-147 -167 -13 -144 -173 0
-147 -167 -13 144 173 0
-147 -167 13 -144 173 0
-147 -167 13 144 -173 0
-147 -167 -14 -145 -174 0
-147 -167 -14 145 174 0
-147 -167 14 -145 174 0
-147 -167 14 145 -174 0
-148 -160 -15 -22 -168 0
-148 -160 -15 22 168 0
-148 -160 15 -22 168 0
-148 -160 15 22 -168 0
-148 -160 -16 -23 -169 0
-148 -160 -16 23 169 0
-148 -160 16 -23 169 0
-148 -160 16 23 -169 0
-148 -160 -17 -24 -170 0
-148 -160 -17 24 170 0
-148 -160 17 -24 170 0
-148 -160 17 24 -170 0
-148 -160 -18 -25 -171 0
-148 -160 -18 25 171 0
-148 -160 18 -25 171 0
-148 -160 18 25 -171 0
-148 -160 -19 -26 -172 0
-148 -160 -19 26 172 0
-148 -160 19 -26 172 0
-148 -160 19 26 -172 0
-148 -160 -20 -27 -173 0
-148 -160 -20 27 173 0
-148 -160 20 -27 173 0
-148 -160 20 27 -173 0
-148 -160 -21 -28 -174 0
-148 -160 -21 28 174 0
-148 -160 21 -28 174 0
-148 -160 21 28 -174 0
-148 -161 -15 -29 -168 0
-148 -161 -15 29 168 0
-148 -161 15 -29 168 0
-148 -161 15 29 -168 0
-148 -161 -16 -30 -169 0
-148 -161 -16 30 169 0
-148 -161 16 -30 169 0
-148 -161 16 30 -169 0
-148 -161 -17 -31 -170 0
-148 -161 -17 31 170 0
-148 -161 17 -31 170 0
-148 -161 17 31 -170 0
-148 -161 -18 -32 -171 0
-148 -161 -18 32 171 0
-148 -161 18 -32 171 0
-148 -161 18 32 -171 0
-148 -161 -19 -33 -172 0
-148 -161 -19 33 172 0
-148 -161 19 -33 172 0
-148 -161 19 33 -172 0
-148 -161 -20 -34 -173 0
-148 -161 -20 34 173 0
-148 -161 20 -34 173 0
-148 -161 20 34 -173 0
-148 -161 -21 -35 -174 0
-148 -161 -21 35 174 0
-148 -161 21 -35 174 0
-148 -161 21 35 -174 0
-148 -162 -15 -36 -168 0
-148 -162 -15 36 168 0
-148 -162 15 -36 168 0
-148 -162 15 36 -168 0
-148 -162 -16 -37 -169 0
-148 -162 -16 37 169 0
-148 -162 16 -37 169 0
-148 -162 16 37 -169 0
-148 -162 -17 -38 -170 0
-148 -162 -17 38 170 0
-148 -162 17 -38 170 0
-148 -162 17 38 -170 0
-148 -162 -18 -39 -171 0
-148 -162 -18 39 171 0
-148 -162 18 -39 171 0
-148 -162 18 39 -171 0
-148 -162 -19 -40 -172 0
-148 -162 -19 40 172 0
-148 -162 19 -40 172 0
-148 -162 19 40 -172 0
-148 -162 -20 -41 -173 0
-148 -162 -20 41 173 0
-148 -162 20 -41 173 0
-148 -162 20 41 -173 0
-148 -162 -21 -42 -174 0
-148 -162 -21 42 174 0
-148 -162 21 -42 174 0
-148 -162 21 42 -174 0
-148 -163 -15 -43 -168 0
-148 -163 -15 43 168 0
-148 -163 15 -43 168 0
-148 -163 15 43 -168 0
-148 -163 -16 -44 -169 0
-148 -163 -16 44 169 0
-148 -163 16 -44 169 0
-148 -163 16 44 -169 0
-148 -163 -17 -45 -170 0
-148 -163 -17 45 170 0
-148 -163 17 -45 170 0
-148 -163 17 45 -170 0
-148 -163 -18 -46 -171 0
-148 -163 -18 46 171 0
-148 -163 18 -46 171 0
-148 -163 18 46 -171 0
-148 -163 -19 -47 -172 0
-148 -163 -19 47 172 0
-148 -163 19 -47 172 0
-148 -163 19 47 -172 0
-148 -163 -20 -48 -173 0
-148 -163 -20 48 173 0
-148 -163 20 -48 173 0
-148 -163 20 48 -173 0
-148 -163 -21 -49 -174 0
-148 -163 -21 49 174 0
-148 -163 21 -49 174 0
-148 -163 21 49 -174 0
-148 -164 -15 -64 -168 0
-148 -164 -15 64 168 0
-148 -164 15 -64 168 0
-148 -164 15 64 -168 0
-148 -164 -16 -65 -169 0
-148 -164 -16 65 169 0
-148 -164 16 -65 169 0
-148 -164 16 65 -169 0
-148 -164 -17 -66 -170 0
-148 -164 -17 66 170 0
-148 -164 17 -66 170 0
-148 -164 17 66 -170 0
-148 -164 -18 -67 -171 0
-148 -164 -18 67 171 0
-148 -164 18 -67 171 0
-148 -164 18 67 -171 0
-148 -164 -19 -68 -172 0
-148 -164 -19 68 172 0
-148 -164 19 -68 172 0
-148 -164 19 68 -172 0
-148 -164 -20 -69 -173 0
-148 -164 -20 69 173 0
-148 -164 20 -69 173 0
-148 -164 20 69 -173 0
-148 -164 -21 -70 -174 0
-148 -164 -21 70 174 0
-148 -164 21 -70 174 0
-148 -164 21 70 -174 0
-148 -165 -15 -87 -168 0
-148 -165 -15 87 168 0
-148 -165 15 -87 168 0
-148 -165 15 87 -168 0
-148 -165 -16 -88 -169 0
-148 -165 -16 88 169 0
-148 -165 16 -88 169 0
-148 -165 16 88 -169 0
-148 -165 -17 -89 -170 0
-148 -165 -17 89 170 0
-148 -165 17 -89 170 0
-148 -165 17 89 -170 0
-148 -165 -18 -90 -171 0
-148 -165 -18 90 171 0
-148 -165 18 -90 171 0
-148 -165 18 90 -171 0
-148 -165 -19 -91 -172 0
-148 -165 -19 91 172 0
-148 -165 19 -91 172 0
-148 -165 19 91 -172 0
-148 -165 -20 -92 -173 0
-148 -165 -20 92 173 0
-148 -165 20 -92 173 0
-148 -165 20 92 -173 0
-148 -165 -21 -93 -174 0
-148 -165 -21 93 174 0
-148 -165 21 -93 174 0
-148 -165 21 93 -174 0
-148 -166 -15 -112 -168 0
-148 -166 -15 112 168 0
-148 -166 15 -112 168 0
-148 -166 15 112 -168 0
-148 -166 -16 -113 -169 0
-148 -166 -16 113 169 0
-148 -166 16 -113 169 0
-148 -166 16 113 -169 0
-148 -166 -17 -114 -170 0
-148 -166 -17 114 170 0
-148 -166 17 -114 170 0
-148 -166 17 114 -170 0
-148 -166 -18 -115 -171 0
-148 -166 -18 115 171 0
-148 -166 18 -115 171 0
-148 -166 18 115 -171 0
-148 -166 -19 -116 -172 0
-148 -166 -19 116 172 0
-148 -166 19 -116 172 0
-148 -166 19 116 -172 0
-148 -166 -20 -117 -173 0
-148 -166 -20 117 173 0
-148 -166 20 -117 173 0
-148 -166 20 117 -173 0
-148 -166 -21 -118 -174 0
-148 -166 -21 118 174 0
-148 -166 21 -118 174 0
-148 -166 21 118 -174 0
-148 -167 -15 -139 -168 0
-148 -167 -15 139 168 0
-148 -167 15 -139 168 0
-148 -167 15 139 -168 0
-148 -167 -16 -140 -169 0
-148 -167 -16 140 169 0
-148 -167 16 -140 169 0
-148 -167 16 140 -169 0
-148 -167 -17 -141 -170 0
-148 -167 -17 141 170 0
-148 -167 17 -141 170 0
-148 -167 17 141 -170 0
-148 -167 -18 -142 -171 0
-148 -167 -18 142 171 0
-148 -167 18 -142 171 0
-148 -167 18 142 -171 0
-148 -167 -19 -143 -172 0
-148 -167 -19 143 172 0
-148 -167 19 -143 172 0
-148 -167 19 143 -172 0
-148 -167 -20 -144 -173 0
-148 -167 -20 144 173 0
-148 -167 20 -144 173 0
-148 -167 20 144 -173 0
-148 -167 -21 -145 -174 0
-148 -167 -21 145 174 0
-148 -167 21 -145 174 0
-148 -167 21 145 -174 0
-149 -161 -22 -29 -168 0
-149 -161 -22 29 168 0
-149 -161 22 -29 168 0
-149 -161 22 29 -168 0
-149 -161 -23 -30 -169 0
-149 -161 -23 30 169 0
-149 -161 23 -30 169 0
-149 -161 23 30 -169 0
-149 -161 -24 -31 -170 0
-149 -161 -24 31 170 0
-149 -161 24 -31 170 0
-149 -161 24 31 -170 0
-149 -161 -25 -32 -171 0
-149 -161 -25 32 171 0
-149 -161 25 -32 171 0
-149 -161 25 32 -171 0
-149 -161 -26 -33 -172 0
-149 -161 -26 33 172 0
-149 -161 26 -33 172 0
-149 -161 26 33 -172 0
-149 -161 -27 -34 -173 0
-149 -161 -27 34 173 0
-149 -161 27 -34 173 0
-149 -161 27 34 -173 0
-149 -161 -28 -35 -174 0
-149 -161 -28 35 174 0
-149 -161 28 -35 174 0
-149 -161 28 35 -174 0
-149 -162 -22 -36 -168 0
-149 -162 -22 36 168 0
-149 -162 22 -36 168 0
-149 -162 22 36 -168 0
-149 -162 -23 -37 -169 0
-149 -162 -23 37 169 0
-149 -162 23 -37 169 0
-149 -162 23 37 -169 0
-149 -162 -24 -38 -170 0
-149 -162 -24 38 170 0
-149 -162 24 -38 170 0
-149 -162 24 38 -170 0
-149 -162 -25 -39 -171 0
-149 -162 -25 39 171 0
-149 -162 25 -39 171 0
-149 -162 25 39 -171 0
-149 -162 -26 -40 -172 0
-149 -162 -26 40 172 0
-149 -162 26 -40 172 0
-149 -162 26 40 -172 0
-149 -162 -27 -41 -173 0
-149 -162 -27 41 173 0
-149 -162 27 -41 173 0
-149 -162 27 41 -173 0
-149 -162 -28 -42 -174 0
-149 -162 -28 42 174 0
-149 -162 28 -42 174 0
-149 -162 28 42 -174 0
-149 -163 -22 -43 -168 0
-149 -163 -22 43 168 0
-149 -163 22 -43 168 0
-149 -163 22 43 -168 0
-149 -163 -23 -44 -169 0
-149 -163 -23 44 169 0
-149 -163 23 -44 169 0
-149 -163 23 44 -169 0
-149 -163 -24 -45 -170 0
-149 -163 -24 45 170 0
-149 -163 24 -45 170 0
-149 -163 24 45 -170 0
-149 -163 -25 -46 -171 0
-149 -163 -25 46 171 0
-149 -163 25 -46 171 0
-149 -163 25 46 -171 0
-149 -163 -26 -47 -172 0
-149 -163 -26 47 172 0
-149 -163 26 -47 172 0
-149 -163 26 47 -172 0
-149 -163 -27 -48 -173 0
-149 -163 -27 48 173 0
-149 -163 27 -48 173 0
-149 -163 27 48 -173 0
-149 -163 -28 -49 -174 0
-149 -163 -28 49 174 0
-149 -163 28 -49 174 0
-149 -163 28 49 -174 0
-149 -164 -22 -64 -168 0
-149 -164 -22 64 168 0
-149 -164 22 -64 168 0
-149 -164 22 64 -168 0
-149 -164 -23 -65 -169 0
-149 -164 -23 65 169 0
-149 -164 23 -65 169 0
-149 -164 23 65 -169 0
-149 -164 -24 -66 -170 0
-149 -164 -24 66 170 0
-149 -164 24 -66 170 0
-149 -164 24 66 -170 0
-149 -164 -25 -67 -171 0
-149 -164 -25 67 171 0
-149 -164 25 -67 171 0
-149 -164 25 67 -171 0
-149 -164 -26 -68 -172 0
-149 -164 -26 68 172 0
-149 -164 26 -68 172 0
-149 -164 26 68 -172 0
-149 -164 -27 -69 -173 0
-149 -164 -27 69 173 0
-149 -164 27 -69 173 0
-149 -164 27 69 -173 0
-149 -164 -28 -70 -174 0
-149 -164 -28 70 174 0
-149 -164 28 -70 174 0
-149 -164 28 70 -174 0
-149 -165 -22 -87 -168 0
-149 -165 -22 87 168 0
-149 -165 22 -87 168 0
-149 -165 22 87 -168 0
-149 -165 -23 -88 -169 0
-149 -165 -23 88 169 0
-149 -165 23 -88 169 0
-149 -165 23 88 -169 0
-149 -165 -24 -89 -170 0
-149 -165 -24 89 170 0
-149 -165 24 -89 170 0
-149 -165 24 89 -170 0
-149 -165 -25 -90 -171 0
-149 -165 -25 90 171 0
-149 -165 25 -90 171 0
-149 -165 25 90 -171 0
-149 -165 -26 -91 -172 0
-149 -165 -26 91 172 0
-149 -165 26 -91 172 0
-149 -165 26 91 -172 0
-149 -165 -27 -92 -173 0
-149 -165 -27 92 173 0
-149 -165 27 -92 173 0
-149 -165 27 92 -173 0
-149 -165 -28 -93 -174 0
-149 -165 -28 93 174 0
-149 -165 28 -93 174 0
-149 -165 28 93 -174 0
-149 -166 -22 -112 -168 0
-149 -166 -22 112 168 0
-149 -166 22 -112 168 0
-149 -166 22 112 -168 0
-149 -166 -23 -113 -169 0
-149 -166 -23 113 169 0
-149 -166 23 -113 169 0
-149 -166 23 113 -169 0
-149 -166 -24 -114 -170 0
-149 -166 -24 114 170 0
-149 -166 24 -114 170 0
-149 -166 24 114 -170 0
-149 -166 -25 -115 -171 0
-149 -166 -25 115 171 0
-149 -166 25 -115 171 0
-149 -166 25 115 -171 0
-149 -166 -26 -116 -172 0
-149 -166 -26 116 172 0
-149 -166 26 -116 172 0
-149 -166 26 116 -172 0
-149 -166 -27 -117 -173 0
-149 -166 -27 117 173 0
-149 -166 27 -117 173 0
-149 -166 27 117 -173 0
-149 -166 -28 -118 -174 0
-149 -166 -28 118 174 0
-149 -166 28 -118 174 0
-149 -166 28 118 -174 0
-149 -167 -22 -139 -168 0
-149 -167 -22 139 168 0
-149 -167 22 -139 168 0
-149 -167 22 139 -168 0
-149 -167 -23 -140 -169 0
-149 -167 -23 140 169 0
-149 -167 23 -140 169 0
-149 -167 23 140 -169 0
-149 -167 -24 -141 -170 0
-149 -167 -24 141 170 0
-149 -167 24 -141 170 0
-149 -167 24 141 -170 0
-149 -167 -25 -142 -171 0
-149 -167 -25 142 171 0
-149 -167 25 -142 171 0
-149 -167 25 142 -171 0
-149 -167 -26 -143 -172 0
-149 -167 -26 143 172 0
-149 -167 26 -143 172 0
-149 -167 26 143 -172 0
-149 -167 -27 -144 -173 0
-149 -167 -27 144 173 0
-149 -167 27 -144 173 0
-149 -167 27 144 -173 0
-149 -167 -28 -145 -174 0
-149 -167 -28 145 174 0
-149 -167 28 -145 174 0
-149 -167 28 145 -174 0
-150 -162 -29 -36 -168 0
-150 -162 -29 36 168 0
-150 -162 29 -36 168 0
-150 -162 29 36 -168 0
-150 -162 -30 -37 -169 0
-150 -162 -30 37 169 0
-150 -162 30 -37 169 0
-150 -162 30 37 -169 0
-150 -162 -31 -38 -170 0
-150 -162 -31 38 170 0
-150 -162 31 -38 170 0
-150 -162 31 38 -170 0
-150 -162 -32 -39 -171 0
-150 -162 -32 39 171 0
-150 -162 32 -39 171 0
-150 -162 32 39 -171 0
-150 -162 -33 -40 -172 0
-150 -162 -33 40 172 0
-150 -162 33 -40 172 0
-150 -162 33 40 -172 0
-150 -162 -34 -41 -173 0
-150 -162 -34 41 173 0
-150 -162 34 -41 173 0
-150 -162 34 41 -173 0
-150 -162 -35 -42 -174 0
-150 -162 -35 42 174 0
-150 -162 35 -42 174 0
-150 -162 35 42 -174 0
-150 -163 -29 -43 -168 0
-150 -163 -29 43 168 0
-150 -163 29 -43 168 0
-150 -163 29 43 -168 0
-150 -163 -30 -44 -169 0
-150 -163 -30 44 169 0
-150 -163 30 -44 169 0
-150 -163 30 44 -169 0
-150 -163 -31 -45 -170 0
-150 -163 -31 45 170 0
-150 -163 31 -45 170 0
-150 -163 31 45 -170 0
-150 -163 -32 -46 -171 0
-150 -163 -32 46 171 0
-150 -163 32 -46 171 0
-150 -163 32 46 -171 0
-150 -163 -33 -47 -172 0
-150 -163 -33 47 172 0
-150 -163 33 -47 172 0
-150 -163 33 47 -172 0
-150 -163 -34 -48 -173 0
-150 -163 -34 48 173 0
-150 -163 34 -48 173 0
-150 -163 34 48 -173 0
-150 -163 -35 -49 -174 0
-150 -163 -35 49 174 0
-150 -163 35 -49 174 0
-150 -163 35 49 -174 0
-150 -164 -29 -64 -168 0
-150 -164 -29 64 168 0
-150 -164 29 -64 168 0
-150 -164 29 64 -168 0
-150 -164 -30 -65 -169 0
-150 -164 -30 65 169 0
-150 -164 30 -65 169 0
-150 -164 30 65 -169 0
-150 -164 -31 -66 -170 0
-150 -164 -31 66 170 0
-150 -164 31 -66 170 0
-150 -164 31 66 -170 0
-150 -164 -32 -67 -171 0
-150 -164 -32 67 171 0
-150 -164 32 -67 171 0
-150 -164 32 67 -171 0
-150 -164 -33 -68 -172 0
-150 -164 -33 68 172 0
-150 -164 33 -68 172 0
-150 -164 33 68 -172 0
-150 -164 -34 -69 -173 0
-150 -164 -34 69 173 0
-150 -164 34 -69 173 0
-150 -164 34 69 -173 0
-150 -164 -35 -70 -174 0
-150 -164 -35 70 174 0
-150 -164 35 -70 174 0
-150 -164 35 70 -174 0
-150 -165 -29 -87 -168 0
-150 -165 -29 87 168 0
-150 -165 29 -87 168 0
-150 -165 29 87 -168 0
-150 -165 -30 -88 -169 0
-150 -165 -30 88 169 0
-150 -165 30 -88 169 0
-150 -165 30 88 -169 0
-150 -165 -31 -89 -170 0
-150 -165 -31 89 170 0
-150 -165 31 -89 170 0
-150 -165 31 89 -170 0
-150 -165 -32 -90 -171 0
-150 -165 -32 90 171 0
-150 -165 32 -90 171 0
-150 -165 32 90 -171 0
-150 -165 -33 -91 -172 0
-150 -165 -33 91 172 0
-150 -165 33 -91 172 0
-150 -165 33 91 -172 0
-150 -165 -34 -92 -173 0
-150 -165 -34 92 173 0
-150 -165 34 -92 173 0
-150 -165 34 92 -173 0
-150 -165 -35 -93 -174 0
-150 -165 -35 93 174 0
-150 -165 35 -93 174 0
-150 -165 35 93 -174 0
-150 -166 -29 -112 -168 0
-150 -166 -29 112 168 0
-150 -166 29 -112 168 0
-150 -166 29 112 -168 0
-150 -166 -30 -113 -169 0
-150 -166 -30 113 169 0
-150 -166 30 -113 169 0
-150 -166 30 113 -169 0
-150 -166 -31 -114 -170 0
-150 -166 -31 114 170 0
-150 -166 31 -114 170 0
-150 -166 31 114 -170 0
-150 -166 -32 -115 -171 0
-150 -166 -32 115 171 0
-150 -166 32 -115 171 0
-150 -166 32 115 -171 0
-150 -166 -33 -116 -172 0
-150 -166 -33 116 172 0
-150 -166 33 -116 172 0
-150 -166 33 116 -172 0
-150 -166 -34 -117 -173 0
-150 -166 -34 117 173 0
-150 -166 34 -117 173 0
-150 -166 34 117 -173 0
-150 -166 -35 -118 -174 0
-150 -166 -35 118 174 0
-150 -166 35 -118 174 0
-150 -166 35 118 -174 0
-150 -167 -29 -139 -168 0
-150 -167 -29 139 168 0
-150 -167 29 -139 168 0
-150 -167 29 139 -168 0
-150 -167 -30 -140 -169 0
-150 -167 -30 140 169 0
-150 -167 30 -140 169 0
-150 -167 30 140 -169 0
-150 -167 -31 -141 -170 0
-150 -167 -31 141 170 0
-150 -167 31 -141 170 0
-150 -167 31 141 -170 0
-150 -167 -32 -142 -171 0
-150 -167 -32 142 171 0
-150 -167 32 -142 171 0
-150 -167 32 142 -171 0
-150 -167 -33 -143 -172 0
-150 -167 -33 143 172 0
-150 -167 33 -143 172 0
-150 -167 33 143 -172 0
-150 -167 -34 -144 -173 0
-150 -167 -34 144 173 0
-150 -167 34 -144 173 0
-150 -167 34 144 -173 0
-150 -167 -35 -145 -174 0
-150 -167 -35 145 174 0
-150 -167 35 -145 174 0
-150 -167 35 145 -174 0
-151 -163 -36 -43 -168 0
-151 -163 -36 43 168 0
-151 -163 36 -43 168 0
-151 -163 36 43 -168 0
-151 -163 -37 -44 -169 0
-151 -163 -37 44 169 0
-151 -163 37 -44 169 0
-151 -163 37 44 -169 0
-151 -163 -38 -45 -170 0
-151 -163 -38 45 170 0
-151 -163 38 -45 170 0
-151 -163 38 45 -170 0
-151 -163 -39 -46 -171 0
-151 -163 -39 46 171 0
-151 -163 39 -46 171 0
-151 -163 39 46 -171 0
-151 -163 -40 -47 -172 0
-151 -163 -40 47 172 0
-151 -163 40 -47 172 0
-151 -163 40 47 -172 0
-151 -163 -41 -48 -173 0
-151 -163 -41 48 173 0
-151 -163 41 -48 173 0
-151 -163 41 48 -173 0
-151 -163 -42 -49 -174 0
-151 -163 -42 49 174 0
-151 -163 42 -49 174 0
-151 -163 42 49 -174 0
-151 -164 -36 -64 -168 0
-151 -164 -36 64 168 0
-151 -164 36 -64 168 0
-151 -164 36 64 -168 0
-151 -164 -37 -65 -169 0
-151 -164 -37 65 169 0
-151 -164 37 -65 169 0
-151 -164 37 65 -169 0
-151 -164 -38 -66 -170 0
-151 -164 -38 66 170 0
-151 -164 38 -66 170 0
-151 -164 38 66 -170 0
-151 -164 -39 -67 -171 0
-151 -164 -39 67 171 0
-151 -164 39 -67 171 0
-151 -164 39 67 -171 0
-151 -164 -40 -68 -172 0
-151 -164 -40 68 172 0
-151 -164 40 -68 172 0
-151 -164 40 68 -172 0
-151 -164 -41 -69 -173 0
-151 -164 -41 69 173 0
-151 -164 41 -69 173 0
-151 -164 41 69 -173 0
-151 -164 -42 -70 -174 0
-151 -164 -42 70 174 0
-151 -164 42 -70 174 0
-151 -164 42 70 -174 0
-151 -165 -36 -87 -168 0
-151 -165 -36 87 168 0
-151 -165 36 -87 168 0
-151 -165 36 87 -168 0
-151 -165 -37 -88 -169 0
-151 -165 -37 88 169 0
-151 -165 37 -88 169 0
-151 -165 37 88 -169 0
-151 -165 -38 -89 -170 0
-151 -165 -38 89 170 0
-151 -165 38 -89 170 0
-151 -165 38 89 -170 0
-151 -165 -39 -90 -171 0
-151 -165 -39 90 171 0
-151 -165 39 -90 171 0
-151 -165 39 90 -171 0
-151 -165 -40 -91 -172 0
-151 -165 -40 91 172 0
-151 -165 40 -91 172 0
-151 -165 40 91 -172 0
-151 -165 -41 -92 -173 0
-151 -165 -41 92 173 0
-151 -165 41 -92 173 0
-151 -165 41 92 -173 0
-151 -165 -42 -93 -174 0
-151 -165 -42 93 174 0
-151 -165 42 -93 174 0
-151 -165 42 93 -174 0
-151 -166 -36 -112 -168 0
-151 -166 -36 112 168 0
-151 -166 36 -112 168 0
-151 -166 36 112 -168 0
-151 -166 -37 -113 -169 0
-151 -166 -37 113 169 0
-151 -166 37 -113 169 0
-151 -166 37 113 -169 0
-151 -166 -38 -114 -170 0
-151 -166 -38 114 170 0
-151 -166 38 -114 170 0
-151 -166 38 114 -170 0
-151 -166 -39 -115 -171 0
-151 -166 -39 115 171 0
-151 -166 39 -115 171 0
-151 -166 39 115 -171 0
-151 -166 -40 -116 -172 0
-151 -166 -40 116 172 0
-151 -166 40 -116 172 0
-151 -166 40 116 -172 0
-151 -166 -41 -117 -173 0
-151 -166 -41 117 173 0
-151 -166 41 -117 173 0
-151 -166 41 117 -173 0
-151 -166 -42 -118 -174 0
-151 -166 -42 118 174 0
-151 -166 42 -118 174 0
-151 -166 42 118 -174 0
-151 -167 -36 -139 -168 0
-151 -167 -36 139 168 0
-151 -167 36 -139 168 0
-151 -167 36 139 -168 0
-151 -167 -37 -140 -169 0
-151 -167 -37 140 169 0
-151 -167 37 -140 169 0
-151 -167 37 140 -169 0
-151 -167 -38 -141 -170 0
-151 -167 -38 141 170 0
-151 -167 38 -141 170 0
-151 -167 38 141 -170 0
-151 -167 -39 -142 -171 0
-151 -167 -39 142 171 0
-151 -167 39 -142 171 0
-151 -167 39 142 -171 0
-151 -167 -40 -143 -172 0
-151 -167 -40 143 172 0
-151 -167 40 -143 172 0
-151 -167 40 143 -172 0
-151 -167 -41 -144 -173 0
-151 -167 -41 144 173 0
-151 -167 41 -144 173 0
-151 -167 41 144 -173 0
-151 -167 -42 -145 -174 0
-151 -167 -42 145 174 0
-151 -167 42 -145 174 0
-151 -167 42 145 -174 0
-152 -164 -43 -64 -168 0
-152 -164 -43 64 168 0
-152 -164 43 -64 168 0
-152 -164 43 64 -168 0
-152 -164 -44 -65 -169 0
-152 -164 -44 65 169 0
-152 -164 44 -65 169 0
-152 -164 44 65 -169 0
-152 -164 -45 -66 -170 0
-152 -164 -45 66 170 0
-152 -164 45 -66 170 0
-152 -164 45 66 -170 0
-152 -164 -46 -67 -171 0
-152 -164 -46 67 171 0
-152 -164 46 -67 171 0
-152 -164 46 67 -171 0
-152 -164 -47 -68 -172 0
-152 -164 -47 68 172 0
-152 -164 47 -68 172 0
-152 -164 47 68 -172 0
-152 -164 -48 -69 -173 0
-152 -164 -48 69 173 0
-152 -164 48 -69 173 0
-152 -164 48 69 -173 0
-152 -164 -49 -70 -174 0
-152 -164 -49 70 174 0
-152 -164 49 -70 174 0
-152 -164 49 70 -174 0
-152 -165 -43 -87 -168 0
-152 -165 -43 87 168 0
-152 -165 43 -87 168 0
-152 -165 43 87 -168 0
-152 -165 -44 -88 -169 0
-152 -165 -44 88 169 0
-152 -165 44 -88 169 0
-152 -165 44 88 -169 0
-152 -165 -45 -89 -170 0
-152 -165 -45 89 170 0
-152 -165 45 -89 170 0
-152 -165 45 89 -170 0
-152 -165 -46 -90 -171 0
-152 -165 -46 90 171 0
-152 -165 46 -90 171 0
-152 -165 46 90 -171 0
-152 -165 -47 -91 -172 0
-152 -165 -47 91 172 0
-152 -165 47 -91 172 0
-152 -165 47 91 -172 0
-152 -165 -48 -92 -173 0
-152 -165 -48 92 173 0
-152 -165 48 -92 173 0
-152 -165 48 92 -173 0
-152 -165 -49 -93 -174 0
-152 -165 -49 93 174 0
-152 -165 49 -93 174 0
-152 -165 49 93 -174 0
-152 -166 -43 -112 -168 0
-152 -166 -43 112 168 0
-152 -166 43 -112 168 0
-152 -166 43 112 -168 0
-152 -166 -44 -113 -169 0
-152 -166 -44 113 169 0
-152 -166 44 -113 169 0
-152 -166 44 113 -169 0
-152 -166 -45 -114 -170 0
-152 -166 -45 114 170 0
-152 -166 45 -114 170 0
-152 -166 45 114 -170 0
-152 -166 -46 -115 -171 0
-152 -166 -46 115 171 0
-152 -166 46 -115 171 0
-152 -166 46 115 -171 0
-152 -166 -47 -116 -172 0
-152 -166 -47 116 172 0
-152 -166 47 -116 172 0
-152 -166 47 116 -172 0
-152 -166 -48 -117 -173 0
-152 -166 -48 117 173 0
-152 -166 48 -117 173 0
-152 -166 48 117 -173 0
-152 -166 -49 -118 -174 0
-152 -166 -49 118 174 0
-152 -166 49 -118 174 0
-152 -166 49 118 -174 0
-152 -167 -43 -139 -168 0
-152 -167 -43 139 168 0
-152 -167 43 -139 168 0
-152 -167 43 139 -168 0
-152 -167 -44 -140 -169 0
-152 -167 -44 140 169 0
-152 -167 44 -140 169 0
-152 -167 44 140 -169 0
-152 -167 -45 -141 -170 0
-152 -167 -45 141 170 0
-152 -167 45 -141 170 0
-152 -167 45 141 -170 0
-152 -167 -46 -142 -171 0
-152 -167 -46 142 171 0
-152 -167 46 -142 171 0
-152 -167 46 142 -171 0
-152 -167 -47 -143 -172 0
-152 -167 -47 143 172 0
-152 -167 47 -143 172 0
-152 -167 47 143 -172 0
-152 -167 -48 -144 -173 0
-152 -167 -48 144 173 0
-152 -167 48 -144 173 0
-152 -167 48 144 -173 0
-152 -167 -49 -145 -174 0
-152 -167 -49 145 174 0
-152 -167 49 -145 174 0
-152 -167 49 145 -174 0
-153 -165 -64 -87 -168 0
-153 -165 -64 87 168 0
-153 -165 64 -87 168 0
-153 -165 64 87 -168 0
-153 -165 -65 -88 -169 0
-153 -165 -65 88 169 0
-153 -165 65 -88 169 0
-153 -165 65 88 -169 0
-153 -165 -66 -89 -170 0
-153 -165 -66 89 170 0
-153 -165 66 -89 170 0
-153 -165 66 89 -170 0
-153 -165 -67 -90 -171 0
-153 -165 -67 90 171 0
-153 -165 67 -90 171 0
-153 -165 67 90 -171 0
-153 -165 -68 -91 -172 0
-153 -165 -68 91 172 0
-153 -165 68 -91 172 0
-153 -165 68 91 -172 0
-153 -165 -69 -92 -173 0
-153 -165 -69 92 173 0
-153 -165 69 -92 173 0
-153 -165 69 92 -173 0
-153 -165 -70 -93 -174 0
-153 -165 -70 93 174 0
-153 -165 70 -93 174 0
-153 -165 70 93 -174 0
-153 -166 -64 -112 -168 0
-153 -166 -64 112 168 0
-153 -166 64 -112 168 0
-153 -166 64 112 -168 0
-153 -166 -65 -113 -169 0
-153 -166 -65 113 169 0
-153 -166 65 -113 169 0
-153 -166 65 113 -169 0
-153 -166 -66 -114 -170 0
-153 -166 -66 114 170 0
-153 -166 66 -114 170 0
-153 -166 66 114 -170 0
-153 -166 -67 -115 -171 0
-153 -166 -67 115 171 0
-153 -166 67 -115 171 0
-153 -166 67 115 -171 0
-153 -166 -68 -116 -172 0
-153 -166 -68 116 172 0
-153 -166 68 -116 172 0
-153 -166 68 116 -172 0
-153 -166 -69 -117 -173 0
-153 -166 -69 117 173 0
-153 -166 69 -117 173 0
-153 -166 69 117 -173 0
-153 -166 -70 -118 -174 0
-153 -166 -70 118 174 0
-153 -166 70 -118 174 0
-153 -166 70 118 -174 0
-153 -167 -64 -139 -168 0
-153 -167 -64 139 168 0
-153 -167 64 -139 168 0
-153 -167 64 139 -168 0
-153 -167 -65 -140 -169 0
-153 -167 -65 140 169 0
-153 -167 65 -140 169 0
-153 -167 65 140 -169 0
-153 -167 -66 -141 -170 0
-153 -167 -66 141 170 0
-153 -167 66 -141 170 0
-153 -167 66 141 -170 0
-153 -167 -67 -142 -171 0
-153 -167 -67 142 171 0
-153 -167 67 -142 171 0
-153 -167 67 142 -171 0
-153 -167 -68 -143 -172 0
-153 -167 -68 143 172 0
-153 -167 68 -143 172 0
-153 -167 68 143 -172 0
-153 -167 -69 -144 -173 0
-153 -167 -69 144 173 0
-153 -167 69 -144 173 0
-153 -167 69 144 -173 0
-153 -167 -70 -145 -174 0
-153 -167 -70 145 174 0
-153 -167 70 -145 174 0
-153 -167 70 145 -174 0
-154 -166 -87 -112 -168 0
-154 -166 -87 112 168 0
-154 -166 87 -112 168 0
-154 -166 87 112 -168 0
-154 -166 -88 -113 -169 0
-154 -166 -88 113 169 0
-154 -166 88 -113 169 0
-154 -166 88 113 -169 0
-154 -166 -89 -114 -170 0
-154 -166 -89 114 170 0
-154 -166 89 -114 170 0
-154 -166 89 114 -170 0
-154 -166 -90 -115 -171 0
-154 -166 -90 115 171 0
-154 -166 90 -115 171 0
-154 -166 90 115 -171 0
-154 -166 -91 -116 -172 0
-154 -166 -91 116 172 0
-154 -166 91 -116 172 0
-154 -166 91 116 -172 0
-154 -166 -92 -117 -173 0
-154 -166 -92 117 173 0
-154 -166 92 -117 173 0
-154 -166 92 117 -173 0
-154 -166 -93 -118 -174 0
-154 -166 -93 118 174 0
-154 -166 93 -118 174 0
-154 -166 93 118 -174 0
-154 -167 -87 -139 -168 0
-154 -167 -87 139 168 0
-154 -167 87 -139 168 0
-154 -167 87 139 -168 0
-154 -167 -88 -140 -169 0
-154 -167 -88 140 169 0
-154 -167 88 -140 169 0
-154 -167 88 140 -169 0
-154 -167 -89 -141 -170 0
-154 -167 -89 141 170 0
-154 -167 89 -141 170 0
-154 -167 89 141 -170 0
-154 -167 -90 -142 -171 0
-154 -167 -90 142 171 0
-154 -167 90 -142 171 0
-154 -167 90 142 -171 0
-154 -167 -91 -143 -172 0
-154 -167 -91 143 172 0
-154 -167 91 -143 172 0
-154 -167 91 143 -172 0
-154 -167 -92 -144 -173 0
-154 -167 -92 144 173 0
-154 -167 92 -144 173 0
-154 -167 92 144 -173 0
-154 -167 -93 -145 -174 0
-154 -167 -93 145 174 0
-154 -167 93 -145 174 0
-154 -167 93 145 -174 0
-155 -167 -112 -139 -168 0
-155 -167 -112 139 168 0
-155 -167 112 -139 168 0
-155 -167 112 139 -168 0
-155 -167 -113 -140 -169 0
-155 -167 -113 140 169 0
-155 -167 113 -140 169 0
-155 -167 113 140 -169 0
-155 -167 -114 -141 -170 0
-155 -167 -114 141 170 0
-155 -167 114 -141 170 0
-155 -167 114 141 -170 0
-155 -167 -115 -142 -171 0
-155 -167 -115 142 171 0
-155 -167 115 -142 171 0
-155 -167 115 142 -171 0
-155 -167 -116 -143 -172 0
-155 -167 -116 143 172 0
-155 -167 116 -143 172 0
-155 -167 116 143 -172 0
-155 -167 -117 -144 -173 0
-155 -167 -117 144 173 0
-155 -167 117 -144 173 0
-155 -167 117 144 -173 0
-155 -167 -118 -145 -174 0
-155 -167 -118 145 174 0
-155 -167 118 -145 174 0
-155 -167 118 145 -174 0
168 169 170 171 172 173 174 0
175 176 177 178 179 180 181 182 183 184 185 186 0
-175 -176 0
-175 -177 0
-175 -178 0
-175 -179 0
-175 -180 0
-175 -181 0
-175 -182 0
-175 -183 0
-175 -184 0
-175 -185 0
-175 -186 0
-176 -177 0
-176 -178 0
-176 -179 0
-176 -180 0
-176 -181 0
-176 -182 0
-176 -183 0
-176 -184 0
-176 -185 0
-176 -186 0
-177 -178 0
-177 -179 0
-177 -180 0
-177 -181 0
-177 -182 0
-177 -183 0
-177 -184 0
-177 -185 0
-177 -186 0
-178 -179 0
-178 -180 0
-178 -181 0
-178 -182 0
-178 -183 0
-178 -184 0
-178 -185 0
-178 -186 0
-179 -180 0
-179 -181 0
-179 -182 0
-179 -183 0
-179 -184 0
-179 -185 0
-179 -186 0
-180 -181 0
-180 -182 0
-180 -183 0
-180 -184 0
-180 -185 0
-180 -186 0
-181 -182 0
-181 -183 0
-181 -184 0
-181 -185 0
-181 -186 0
-182 -183 0
-182 -184 0
-182 -185 0
-182 -186 0
-183 -184 0
-183 -185 0
-183 -186 0
-184 -185 0
-184 -186 0
-185 -186 0
187 188 189 190 191 192 193 194 195 196 197 198 0
-187 -188 0
-187 -189 0
-187 -190 0
-187 -191 0
-187 -192 0
-187 -193 0
-187 -194 0
-187 -195 0
-187 -196 0
-187 -197 0
-187 -198 0
-188 -189 0
-188 -190 0
-188 -191 0
-188 -192 0
-188 -193 0
-188 -194 0
-188 -195 0
-188 -196 0
-188 -197 0
-188 -198 0
-189 -190 0
-189 -191 0
-189 -192 0
-189 -193 0
-189 -194 0
-189 -195 0
-189 -196 0
-189 -197 0
-189 -198 0
-190 -191 0
-190 -192 0
-190 -193 0
-190 -194 0
-190 -195 0
-190 -196 0
-190 -197 0
-190 -198 0
-191 -192 0
-191 -193 0
-191 -194 0
-191 -195 0
-191 -196 0
-191 -197 0
-191 -198 0
-192 -193 0
-192 -194 0
-192 -195 0
-192 -196 0
-192 -197 0
-192 -198 0
-193 -194 0
-193 -195 0
-193 -196 0
-193 -197 0
-193 -198 0
-194 -195 0
-194 -196 0
-194 -197 0
-194 -198 0
-195 -196 0
-195 -197 0
-195 -198 0
-196 -197 0
-196 -198 0
-197 -198 0
-175 -187 0
-176 -187 0
-176 -188 0
-177 -187 0
-177 -188 0
-177 -189 0
-178 -187 0
-178 -188 0
-178 -189 0
-178 -190 0
-179 -187 0
-179 -188 0
-179 -189 0
-179 -190 0
-179 -191 0
-180 -187 0
-180 -188 0
-180 -189 0
-180 -190 0
-180 -191 0
-180 -192 0
-181 -187 0
-181 -188 0
-181 -189 0
-181 -190 0
-181 -191 0
-181 -192 0
-181 -193 0
-182 -187 0
-182 -188 0
-182 -189 0
-182 -190 0
-182 -191 0
-182 -192 0
-182 -193 0
-182 -194 0
-183 -187 0
-183 -188 0
-183 -189 0
-183 -190 0
-183 -191 0
-183 -192 0
-183 -193 0
-183 -194 0
-183 -195 0
-184 -187 0
-184 -188 0
-184 -189 0
-184 -190 0
-184 -191 0
-184 -192 0
-184 -193 0
-184 -194 0
-184 -195 0
-184 -196 0
-185 -187 0
-185 -188 0
-185 -189 0
-185 -190 0
-185 -191 0
-185 -192 0
-185 -193 0
-185 -194 0
-185 -195 0
-185 -196 0
-185 -197 0
-186 -187 0
-186 -188 0
-186 -189 0
-186 -190 0
-186 -191 0
-186 -192 0
-186 -193 0
-186 -194 0
-186 -195 0
-186 -196 0
-186 -197 0
-186 -198 0
-175 -188 -1 -8 -199 0
-175 -188 -1 8 199 0
-175 -188 1 -8 199 0
-175 -188 1 8 -199 0
-175 -188 -2 -9 -200 0
-175 -188 -2 9 200 0
-175 -188 2 -9 200 0
-175 -188 2 9 -200 0
-175 -188 -3 -10 -201 0
-175 -188 -3 10 201 0
-175 -188 3 -10 201 0
-175 -188 3 10 -201 0
-175 -188 -4 -11 -202 0
-175 -188 -4 11 202 0
-175 -188 4 -11 202 0
-175 -188 4 11 -202 0
-175 -188 -5 -12 -203 0
-175 -188 -5 12 203 0
-175 -188 5 -12 203 0
-175 -188 5 12 -203 0
-175 -188 -6 -13 -204 0
-175 -188 -6 13 204 0
-175 -188 6 -13 204 0
-175 -188 6 13 -204 0
-175 -188 -7 -14 -205 0
-175 -188 -7 14 205 0
-175 -188 7 -14 205 0
-175 -188 7 14 -205 0
-175 -189 -1 -15 -199 0
-175 -189 -1 15 199 0
-175 -189 1 -15 199 0
-175 -189 1 15 -199 0
-175 -189 -2 -16 -200 0
-175 -189 -2 16 200 0
-175 -189 2 -16 200 0
-175 -189 2 16 -200 0
-175 -189 -3 -17 -201 0
-175 -189 -3 17 201 0
-175 -189 3 -17 201 0
-175 -189 3 17 -201 0
-175 -189 -4 -18 -202 0
-175 -189 -4 18 202 0
-175 -189 4 -18 202 0
-175 -189 4 18 -202 0
-175 -189 -5 -19 -203 0
-175 -189 -5 19 203 0
-175 -189 5 -19 203 0
-175 -189 5 19 -203 0
-175 -189 -6 -20 -204 0
-175 -189 -6 20 204 0
-175 -189 6 -20 204 0
-175 -189 6 20 -204 0
-175 -189 -7 -21 -205 0
-175 -189 -7 21 205 0
-175 -189 7 -21 205 0
-175 -189 7 21 -205 0
-175 -190 -1 -22 -199 0
-175 -190 -1 22 199 0
-175 -190 1 -22 199 0
-175 -190 1 22 -199 0
-175 -190 -2 -23 -200 0
-175 -190 -2 23 200 0
-175 -190 2 -23 200 0
-175 -190 2 23 -200 0
-175 -190 -3 -24 -201 0
-175 -190 -3 24 201 0
-175 -190 3 -24 201 0
-175 -190 3 24 -201 0
-175 -190 -4 -25 -202 0
-175 -190 -4 25 202 0
-175 -190 4 -25 202 0
-175 -190 4 25 -202 0
-175 -190 -5 -26 -203 0
-175 -190 -5 26 203 0
-175 -190 5 -26 203 0
-175 -190 5 26 -203 0
-175 -190 -6 -27 -204 0
-175 -190 -6 27 204 0
-175 -190 6 -27 204 0
-175 -190 6 27 -204 0
-175 -190 -7 -28 -205 0
-175 -190 -7 28 205 0
-175 -190 7 -28 205 0
-175 -190 7 28 -205 0
-175 -191 -1 -29 -199 0
-175 -191 -1 29 199 0
-175 -191 1 -29 199 0
-175 -191 1 29 -199 0
-175 -191 -2 -30 -200 0
-175 -191 -2 30 200 0
-175 -191 2 -30 200 0
-175 -191 2 30 -200 0
-175 -191 -3 -31 -201 0
-175 -191 -3 31 201 0
-175 -191 3 -31 201 0
-175 -191 3 31 -201 0
-175 -191 -4 -32 -202 0
-175 -191 -4 32 202 0
-175 -191 4 -32 202 0
-175 -191 4 32 -202 0
-175 -191 -5 -33 -203 0
-175 -191 -5 33 203 0
-175 -191 5 -33 203 0
-175 -191 5 33 -203 0
-175 -191 -6 -34 -204 0
-175 -191 -6 34 204 0
-175 -191 6 -34 204 0
-175 -191 6 34 -204 0
-175 -191 -7 -35 -205 0
-175 -191 -7 35 205 0
-175 -191 7 -35 205 0
-175 -191 7 35 -205 0
-175 -192 -1 -36 -199 0
-175 -192 -1 36 199 0
-175 -192 1 -36 199 0
-175 -192 1 36 -199 0
-175 -192 -2 -37 -200 0
-175 -192 -2 37 200 0
-175 -192 2 -37 200 0
-175 -192 2 37 -200 0
-175 -192 -3 -38 -201 0
-175 -192 -3 38 201 0
-175 -192 3 -38 201 0
-175 -192 3 38 -201 0
-175 -192 -4 -39 -202 0
-175 -192 -4 39 202 0
-175 -192 4 -39 202 0
-175 -192 4 39 -202 0
-175 -192 -5 -40 -203 0
-175 -192 -5 40 203 0
-175 -192 5 -40 203 0
-175 -192 5 40 -203 0
-175 -192 -6 -41 -204 0
-175 -192 -6 41 204 0
-175 -192 6 -41 204 0
-175 -192 6 41 -204 0
-175 -192 -7 -42 -205 0
-175 -192 -7 42 205 0
-175 -192 7 -42 205 0
-175 -192 7 42 -205 0
-175 -193 -1 -43 -199 0
-175 -193 -1 43 199 0
-175 -193 1 -43 199 0
-175 -193 1 43 -199 0
-175 -193 -2 -44 -200 0
-175 -193 -2 44 200 0
-175 -193 2 -44 200 0
-175 -193 2 44 -200 0
-175 -193 -3 -45 -201 0
-175 -193 -3 45 201 0
-175 -193 3 -45 201 0
-175 -193 3 45 -201 0
-175 -193 -4 -46 -202 0
-175 -193 -4 46 202 0
-175 -193 4 -46 202 0
-175 -193 4 46 -202 0
-175 -193 -5 -47 -203 0
-175 -193 -5 47 203 0
-175 -193 5 -47 203 0
-175 -193 5 47 -203 0
-175 -193 -6 -48 -204 0
-175 -193 -6 48 204 0
-175 -193 6 -48 204 0
-175 -193 6 48 -204 0
-175 -193 -7 -49 -205 0
-175 -193 -7 49 205 0
-175 -193 7 -49 205 0
-175 -193 7 49 -205 0
-175 -194 -1 -64 -199 0
-175 -194 -1 64 199 0
-175 -194 1 -64 199 0
-175 -194 1 64 -199 0
-175 -194 -2 -65 -200 0
-175 -194 -2 65 200 0
-175 -194 2 -65 200 0
-175 -194 2 65 -200 0
-175 -194 -3 -66 -201 0
-175 -194 -3 66 201 0
-175 -194 3 -66 201 0
-175 -194 3 66 -201 0
-175 -194 -4 -67 -202 0
-175 -194 -4 67 202 0
-175 -194 4 -67 202 0
-175 -194 4 67 -202 0
-175 -194 -5 -68 -203 0
-175 -194 -5 68 203 0
-175 -194 5 -68 203 0
-175 -194 5 68 -203 0
-175 -194 -6 -69 -204 0
-175 -194 -6 69 204 0
-175 -194 6 -69 204 0
-175 -194 6 69 -204 0
-175 -194 -7 -70 -205 0
-175 -194 -7 70 205 0
-175 -194 7 -70 205 0
-175 -194 7 70 -205 0
-175 -195 -1 -87 -199 0
-175 -195 -1 87 199 0
-175 -195 1 -87 199 0
-175 -195 1 87 -199 0
-175 -195 -2 -88 -200 0
-175 -195 -2 88 200 0
-175 -195 2 -88 200 0
-175 -195 2 88 -200 0
-175 -195 -3 -89 -201 0
-175 -195 -3 89 201 0
-175 -195 3 -89 201 0
-175 -195 3 89 -201 0
-175 -195 -4 -90 -202 0
-175 -195 -4 90 202 0
-175 -195 4 -90 202 0
-175 -195 4 90 -202 0
-175 -195 -5 -91 -203 0
-175 -195 -5 91 203 0
-175 -195 5 -91 203 0
-175 -195 5 91 -203 0
-175 -195 -6 -92 -204 0
-175 -195 -6 92 204 0
-175 -195 6 -92 204 0
-175 -195 6 92 -204 0
-175 -195 -7 -93 -205 0
-175 -195 -7 93 205 0
-175 -195 7 -93 205 0
-175 -195 7 93 -205 0
-175 -196 -1 -112 -199 0
-175 -196 -1 112 199 0
-175 -196 1 -112 199 0
-175 -196 1 112 -199 0
-175 -196 -2 -113 -200 0
-175 -196 -2 113 200 0
-175 -196 2 -113 200 0
-175 -196 2 113 -200 0
-175 -196 -3 -114 -201 0
-175 -196 -3 114 201 0
-175 -196 3 -114 201 0
-175 -196 3 114 -201 0
-175 -196 -4 -115 -202 0
-175 -196 -4 115 202 0
-175 -196 4 -115 202 0
-175 -196 4 115 -202 0
-175 -196 -5 -116 -203 0
-175 -196 -5 116 203 0
-175 -196 5 -116 203 0
-175 -196 5 116 -203 0
-175 -196 -6 -117 -204 0
-175 -196 -6 117 204 0
-175 -196 6 -117 204 0
-175 -196 6 117 -204 0
-175 -196 -7 -118 -205 0
-175 -196 -7 118 205 0
-175 -196 7 -118 205 0
-175 -196 7 118 -205 0
-175 -197 -1 -139 -199 0
-175 -197 -1 139 199 0
-175 -197 1 -139 199 0
-175 -197 1 139 -199 0
-175 -197 -2 -140 -200 0
-175 -197 -2 140 200 0
-175 -197 2 -140 200 0
-175 -197 2 140 -200 0
-175 -197 -3 -141 -201 0
-175 -197 -3 141 201 0
-175 -197 3 -141 201 0
-175 -197 3 141 -201 0
-175 -197 -4 -142 -202 0
-175 -197 -4 142 202 0
-175 -197 4 -142 202 0
-175 -197 4 142 -202 0
-175 -197 -5 -143 -203 0
-175 -197 -5 143 203 0
-175 -197 5 -143 203 0
-175 -197 5 143 -203 0
-175 -197 -6 -144 -204 0
-175 -197 -6 144 204 0
-175 -197 6 -144 204 0
-175 -197 6 144 -204 0
-175 -197 -7 -145 -205 0
-175 -197 -7 145 205 0
-175 -197 7 -145 205 0
-175 -197 7 145 -205 0
-175 -198 -1 -168 -199 0
-175 -198 -1 168 199 0
-175 -198 1 -168 199 0
-175 -198 1 168 -199 0
-175 -198 -2 -169 -200 0
-175 -198 -2 169 200 0
-175 -198 2 -169 200 0
-175 -198 2 169 -200 0
-175 -198 -3 -170 -201 0
-175 -198 -3 170 201 0
-175 -198 3 -170 201 0
-175 -198 3 170 -201 0
-175 -198 -4 -171 -202 0
-175 -198 -4 171 202 0
-175 -198 4 -171 202 0
-175 -198 4 171 -202 0
-175 -198 -5 -172 -203 0
-175 -198 -5 172 203 0
-175 -198 5 -172 203 0
-175 -198 5 172 -203 0
-175 -198 -6 -173 -204 0
-175 -198 -6 173 204 0
-175 -198 6 -173 204 0
-175 -198 6 173 -204 0
-175 -198 -7 -174 -205 0
-175 -198 -7 174 205 0
-175 -198 7 -174 205 0
-175 -198 7 174 -205 0
-176 -189 -8 -15 -199 0
-176 -189 -8 15 199 0
-176 -189 8 -15 199 0
-176 -189 8 15 -199 0
-176 -189 -9 -16 -200 0
-176 -189 -9 16 200 0
-176 -189 9 -16 200 0
-176 -189 9 16 -200 0
-176 -189 -10 -17 -201 0
-176 -189 -10 17 201 0
-176 -189 10 -17 201 0
-176 -189 10 17 -201 0
-176 -189 -11 -18 -202 0
-176 -189 -11 18 202 0
-176 -189 11 -18 202 0
-176 -189 11 18 -202 0
-176 -189 -12 -19 -203 0
-176 -189 -12 19 203 0
-176 -189 12 -19 203 0
-176 -189 12 19 -203 0
-176 -189 -13 -20 -204 0
-176 -189 -13 20 204 0
-176 -189 13 -20 204 0
-176 -189 13 20 -204 0
-176 -189 -14 -21 -205 0
-176 -189 -14 21 205 0
-176 -189 14 -21 205 0
-176 -189 14 21 -205 0
-176 -190 -8 -22 -199 0
-176 -190 -8 22 199 0
-176 -190 8 -22 199 0
-176 -190 8 22 -199 0
-176 -190 -9 -23 -200 0
-176 -190 -9 23 200 0
-176 -190 9 -23 200 0
-176 -190 9 23 -200 0
-176 -190 -10 -24 -201 0
-176 -190 -10 24 201 0
-176 -190 10 -24 201 0
-176 -190 10 24 -201 0
-176 -190 -11 -25 -202 0
-176 -190 -11 25 202 0
-176 -190 11 -25 202 0
-176 -190 11 25 -202 0
-176 -190 -12 -26 -203 0
-176 -190 -12 26 203 0
-176 -190 12 -26 203 0
-176 -190 12 26 -203 0
-176 -190 -13 -27 -204 0
-176 -190 -13 27 204 0
-176 -190 13 -27 204 0
-176 -190 13 27 -204 0
-176 -190 -14 -28 -205 0
-176 -190 -14 28 205 0
-176 -190 14 -28 205 0
-176 -190 14 28 -205 0
-176 -191 -8 -29 -199 0
-176 -191 -8 29 199 0
-176 -191 8 -29 199 0
-176 -191 8 29 -199 0
-176 -191 -9 -30 -200 0
-176 -191 -9 30 200 0
-176 -191 9 -30 200 0
-176 -191 9 30 -200 0
-176 -191 -10 -31 -201 0
-176 -191 -10 31 201 0
-176 -191 10 -31 201 0
-176 -191 10 31 -201 0
-176 -191 -11 -32 -202 0
-176 -191 -11 32 202 0
-176 -191 11 -32 202 0
-176 -191 11 32 -202 0
-176 -191 -12 -33 -203 0
-176 -191 -12 33 203 0
-176 -191 12 -33 203 0
-176 -191 12 33 -203 0
-176 -191 -13 -34 -204 0
-176 -191 -13 34 204 0
-176 -191 13 -34 204 0
-176 -191 13 34 -204 0
-176 -191 -14 -35 -205 0
-176 -191 -14 35 205 0
-176 -191 14 -35 205 0
-176 -191 14 35 -205 0
-176 -192 -8 -36 -199 0
-176 -192 -8 36 199 0
-176 -192 8 -36 199 0
-176 -192 8 36 -199 0
-176 -192 -9 -37 -200 0
-176 -192 -9 37 200 0
-176 -192 9 -37 200 0
-176 -192 9 37 -200 0
-176 -192 -10 -38 -201 0
-176 -192 -10 38 201 0
-176 -192 10 -38 201 0
-176 -192 10 38 -201 0
-176 -192 -11 -39 -202 0
-176 -192 -11 39 202 0
-176 -192 11 -39 202 0
-176 -192 11 39 -202 0
-176 -192 -12 -40 -203 0
-176 -192 -12 40 203 0
-176 -192 12 -40 203 0
-176 -192 12 40 -203 0
-176 -192 -13 -41 -204 0
-176 -192 -13 41 204 0
-176 -192 13 -41 204 0
-176 -192 13 41 -204 0
-176 -192 -14 -42 -205 0
-176 -192 -14 42 205 0
-176 -192 14 -42 205 0
-176 -192 14 42 -205 0
-176 -193 -8 -43 -199 0
-176 -193 -8 43 199 0
-176 -193 8 -43 199 0
-176 -193 8 43 -199 0
-176 -193 -9 -44 -200 0
-176 -193 -9 44 200 0
-176 -193 9 -44 200 0
-176 -193 9 44 -200 0
-176 -193 -10 -45 -201 0
-176 -193 -10 45 201 0
-176 -193 10 -45 201 0
-176 -193 10 45 -201 0
-176 -193 -11 -46 -202 0
-176 -193 -11 46 202 0
-176 -193 11 -46 202 0
-176 -193 11 46 -202 0
-176 -193 -12 -47 -203 0
-176 -193 -12 47 203 0
-176 -193 12 -47 203 0
-176 -193 12 47 -203 0
-176 -193 -13 -48 -204 0
-176 -193 -13 48 204 0
-176 -193 13 -48 204 0
-176 -193 13 48 -204 0
-176 -193 -14 -49 -205 0
-176 -193 -14 49 205 0
-176 -193 14 -49 205 0
-176 -193 14 49 -205 0
-176 -194 -8 -64 -199 0
-176 -194 -8 64 199 0
-176 -194 8 -64 199 0
-176 -194 8 64 -199 0
-176 -194 -9 -65 -200 0
-176 -194 -9 65 200 0
-176 -194 9 -65 200 0
-176 -194 9 65 -200 0
-176 -194 -10 -66 -201 0
-176 -194 -10 66 201 0
-176 -194 10 -66 201 0
-176 -194 10 66 -201 0
-176 -194 -11 -67 -202 0
-176 -194 -11 67 202 0
-176 -194 11 -67 202 0
-176 -194 11 67 -202 0
-176 -194 -12 -68 -203 0
-176 -194 -12 68 203 0
-176 -194 12 -68 203 0
-176 -194 12 68 -203 0
-176 -194 -13 -69 -204 0
-176 -194 -13 69 204 0
-176 -194 13 -69 204 0
-176 -194 13 69 -204 0
-176 -194 -14 -70 -205 0
-176 -194 -14 70 205 0
-176 -194 14 -70 205 0
-176 -194 14 70 -205 0
-176 -195 -8 -87 -199 0
-176 -195 -8 87 199 0
-176 -195 8 -87 199 0
-176 -195 8 87 -199 0
-176 -195 -9 -88 -200 0
-176 -195 -9 88 200 0
-176 -195 9 -88 200 0
-176 -195 9 88 -200 0
-176 -195 -10 -89 -201 0
-176 -195 -10 89 201 0
-176 -195 10 -89 201 0
-176 -195 10 89 -201 0
-176 -195 -11 -90 -202 0
-176 -195 -11 90 202 0
-176 -195 11 -90 202 0
-176 -195 11 90 -202 0
-176 -195 -12 -91 -203 0
-176 -195 -12 91 203 0
-176 -195 12 -91 203 0
-176 -195 12 91 -203 0
-176 -195 -13 -92 -204 0
-176 -195 -13 92 204 0
-176 -195 13 -92 204 0
-176 -195 13 92 -204 0
-176 -195 -14 -93 -205 0
-176 -195 -14 93 205 0
-176 -195 14 -93 205 0
-176 -195 14 93 -205 0
-176 -196 -8 -112 -199 0
-176 -196 -8 112 199 0
-176 -196 8 -112 199 0
-176 -196 8 112 -199 0
-176 -196 -9 -113 -200 0
-176 -196 -9 113 200 0
-176 -196 9 -113 200 0
-176 -196 9 113 -200 0
-176 -196 -10 -114 -201 0
-176 -196 -10 114 201 0
-176 -196 10 -114 201 0
-176 -196 10 114 -201 0
-176 -196 -11 -115 -202 0
-176 -196 -11 115 202 0
-176 -196 11 -115 202 0
-176 -196 11 115 -202 0
-176 -196 -12 -116 -203 0
-176 -196 -12 116 203 0
-176 -196 12 -116 203 0
-176 -196 12 116 -203 0
-176 -196 -13 -117 -204 0
-176 -196 -13 117 204 0
-176 -196 13 -117 204 0
-176 -196 13 117 -204 0
-176 -196 -14 -118 -205 0
-176 -196 -14 118 205 0
-176 -196 14 -118 205 0
-176 -196 14 118 -205 0
-176 -197 -8 -139 -199 0
-176 -197 -8 139 199 0
-176 -197 8 -139 199 0
-176 -197 8 139 -199 0
-176 -197 -9 -140 -200 0
-176 -197 -9 140 200 0
-176 -197 9 -140 200 0
-176 -197 9 140 -200 0
-176 -197 -10 -141 -201 0
-176 -197 -10 141 201 0
-176 -197 10 -141 201 0
-176 -197 10 141 -201 0
-176 -197 -11 -142 -202 0
-176 -197 -11 142 202 0
-176 -197 11 -142 202 0
-176 -197 11 142 -202 0
-176 -197 -12 -143 -203 0
-176 -197 -12 143 203 0
-176 -197 12 -143 203 0
-176 -197 12 143 -203 0
-176 -197 -13 -144 -204 0
-176 -197 -13 144 204 0
-176 -197 13 -144 204 0
-176 -197 13 144 -204 0
-176 -197 -14 -145 -205 0
-176 -197 -14 145 205 0
-176 -197 14 -145 205 0
-176 -197 14 145 -205 0
-176 -198 -8 -168 -199 0
-176 -198 -8 168 199 0
-176 -198 8 -168 199 0
-176 -198 8 168 -199 0
-176 -198 -9 -169 -200 0
-176 -198 -9 169 200 0
-176 -198 9 -169 200 0
-176 -198 9 169 -200 0
-176 -198 -10 -170 -201 0
-176 -198 -10 170 201 0
-176 -198 10 -170 201 0
-176 -198 10 170 -201 0
-176 -198 -11 -171 -202 0
-176 -198 -11 171 202 0
-176 -198 11 -171 202 0
-176 -198 11 171 -202 0
-176 -198 -12 -172 -203 0
-176 -198 -12 172 203 0
-176 -198 12 -172 203 0
-176 -198 12 172 -203 0
-176 -198 -13 -173 -204 0
-176 -198 -13 173 204 0
-176 -198 13 -173 204 0
-176 -198 13 173 -204 0
-176 -198 -14 -174 -205 0
-176 -198 -14 174 205 0
-176 -198 14 -174 205 0
-176 -198 14 174 -205 0
-177 -190 -15 -22 -199 0
-177 -190 -15 22 199 0
-177 -190 15 -22 199 0
-177 -190 15 22 -199 0
-177 -190 -16 -23 -200 0
-177 -190 -16 23 200 0
-177 -190 16 -23 200 0
-177 -190 16 23 -200 0
-177 -190 -17 -24 -201 0
-177 -190 -17 24 201 0
-177 -190 17 -24 201 0
-177 -190 17 24 -201 0
-177 -190 -18 -25 -202 0
-177 -190 -18 25 202 0
-177 -190 18 -25 202 0
-177 -190 18 25 -202 0
-177 -190 -19 -26 -203 0
-177 -190 -19 26 203 0
-177 -190 19 -26 203 0
-177 -190 19 26 -203 0
-177 -190 -20 -27 -204 0
-177 -190 -20 27 204 0
-177 -190 20 -27 204 0
-177 -190 20 27 -204 0
-177 -190 -21 -28 -205 0
-177 -190 -21 28 205 0
-177 -190 21 -28 205 0
-177 -190 21 28 -205 0
-177 -191 -15 -29 -199 0
-177 -191 -15 29 199 0
-177 -191 15 -29 199 0
-177 -191 15 29 -199 0
-177 -191 -16 -30 -200 0
-177 -191 -16 30 200 0
-177 -191 16 -30 200 0
-177 -191 16 30 -200 0
-177 -191 -17 -31 -201 0
-177 -191 -17 31 201 0
-177 -191 17 -31 201 0
-177 -191 17 31 -201 0
-177 -191 -18 -32 -202 0
-177 -191 -18 32 202 0
-177 -191 18 -32 202 0
-177 -191 18 32 -202 0
-177 -191 -19 -33 -203 0
-177 -191 -19 33 203 0
-177 -191 19 -33 203 0
-177 -191 19 33 -203 0
-177 -191 -20 -34 -204 0
-177 -191 -20 34 204 0
-177 -191 20 -34 204 0
-177 -191 20 34 -204 0
-177 -191 -21 -35 -205 0
-177 -191 -21 35 205 0
-177 -191 21 -35 205 0
-177 -191 21 35 -205 0
-177 -192 -15 -36 -199 0
-177 -192 -15 36 199 0
-177 -192 15 -36 199 0
-177 -192 15 36 -199 0
-177 -192 -16 -37 -200 0
-177 -192 -16 37 200 0
-177 -192 16 -37 200 0
-177 -192 16 37 -200 0
-177 -192 -17 -38 -201 0
-177 -192 -17 38 201 0
-177 -192 17 -38 201 0
-177 -192 17 38 -201 0
-177 -192 -18 -39 -202 0
-177 -192 -18 39 202 0
-177 -192 18 -39 202 0
-177 -192 18 39 -202 0
-177 -192 -19 -40 -203 0
-177 -192 -19 40 203 0
-177 -192 19 -40 203 0
-177 -192 19 40 -203 0
-177 -192 -20 -41 -204 0
-177 -192 -20 41 204 0
-177 -192 20 -41 204 0
-177 -192 20 41 -204 0
-177 -192 -21 -42 -205 0
-177 -192 -21 42 205 0
-177 -192 21 -42 205 0
-177 -192 21 42 -205 0
-177 -193 -15 -43 -199 0
-177 -193 -15 43 199 0
-177 -193 15 -43 199 0
-177 -193 15 43 -199 0
-177 -193 -16 -44 -200 0
-177 -193 -16 44 200 0
-177 -193 16 -44 200 0
-177 -193 16 44 -200 0
-177 -193 -17 -45 -201 0
-177 -193 -17 45 201 0
-177 -193 17 -45 201 0
-177 -193 17 45 -201 0
-177 -193 -18 -46 -202 0
-177 -193 -18 46 202 0
-177 -193 18 -46 202 0
-177 -193 18 46 -202 0
-177 -193 -19 -47 -203 0
-177 -193 -19 47 203 0
-177 -193 19 -47 203 0
-177 -193 19 47 -203 0
-177 -193 -20 -48 -204 0
-177 -193 -20 48 204 0
-177 -193 20 -48 204 0
-177 -193 20 48 -204 0
-177 -193 -21 -49 -205 0
-177 -193 -21 49 205 0
-177 -193 21 -49 205 0
-177 -193 21 49 -205 0
-177 -194 -15 -64 -199 0
-177 -194 -15 64 199 0
-177 -194 15 -64 199 0
-177 -194 15 64 -199 0
-177 -194 -16 -65 -200 0
-177 -194 -16 65 200 0
-177 -194 16 -65 200 0
-177 -194 16 65 -200 0
-177 -194 -17 -66 -201 0
-177 -194 -17 66 201 0
-177 -194 17 -66 201 0
-177 -194 17 66 -201 0
-177 -194 -18 -67 -202 0
-177 -194 -18 67 202 0
-177 -194 18 -67 202 0
-177 -194 18 67 -202 0
-177 -194 -19 -68 -203 0
-177 -194 -19 68 203 0
-177 -194 19 -68 203 0
-177 -194 19 68 -203 0
-177 -194 -20 -69 -204 0
-177 -194 -20 69 204 0
-177 -194 20 -69 204 0
-177 -194 20 69 -204 0
-177 -194 -21 -70 -205 0
-177 -194 -21 70 205 0
-177 -194 21 -70 205 0
-177 -194 21 70 -205 0
-177 -195 -15 -87 -199 0
-177 -195 -15 87 199 0
-177 -195 15 -87 199 0
-177 -195 15 87 -199 0
-177 -195 -16 -88 -200 0
-177 -195 -16 88 200 0
-177 -195 16 -88 200 0
-177 -195 16 88 -200 0
-177 -195 -17 -89 -201 0
-177 -195 -17 89 201 0
-177 -195 17 -89 201 0
-177 -195 17 89 -201 0
-177 -195 -18 -90 -202 0
-177 -195 -18 90 202 0
-177 -195 18 -90 202 0
-177 -195 18 90 -202 0
-177 -195 -19 -91 -203 0
-177 -195 -19 91 203 0
-177 -195 19 -91 203 0
-177 -195 19 91 -203 0
-177 -195 -20 -92 -204 0
-177 -195 -20 92 204 0
-177 -195 20 -92 204 0
-177 -195 20 92 -204 0
-177 -195 -21 -93 -205 0
-177 -195 -21 93 205 0
-177 -195 21 -93 205 0
-177 -195 21 93 -205 0
-177 -196 -15 -112 -199 0
-177 -196 -15 112 199 0
-177 -196 15 -112 199 0
-177 -196 15 112 -199 0
-177 -196 -16 -113 -200 0
-177 -196 -16 113 200 0
-177 -196 16 -113 200 0
-177 -196 16 113 -200 0
-177 -196 -17 -114 -201 0
-177 -196 -17 114 201 0
-177 -196 17 -114 201 0
-177 -196 17 114 -201 0
-177 -196 -18 -115 -202 0
-177 -196 -18 115 202 0
-177 -196 18 -115 202 0
-177 -196 18 115 -202 0
-177 -196 -19 -116 -203 0
-177 -196 -19 116 203 0
-177 -196 19 -116 203 0
-177 -196 19 116 -203 0
-177 -196 -20 -117 -204 0
-177 -196 -20 117 204 0
-177 -196 20 -117 204 0
-177 -196 20 117 -204 0
-177 -196 -21 -118 -205 0
-177 -196 -21 118 205 0
-177 -196 21 -118 205 0
-177 -196 21 118 -205 0
-177 -197 -15 -139 -199 0
-177 -197 -15 139 199 0
-177 -197 15 -139 199 0
-177 -197 15 139 -199 0
-177 -197 -16 -140 -200 0
-177 -197 -16 140 200 0
-177 -197 16 -140 200 0
-177 -197 16 140 -200 0
-177 -197 -17 -141 -201 0
-177 -197 -17 141 201 0
-177 -197 17 -141 201 0
-177 -197 17 141 -201 0
-177 -197 -18 -142 -202 0
-177 -197 -18 142 202 0
-177 -197 18 -142 202 0
-177 -197 18 142 -202 0
-177 -197 -19 -143 -203 0
-177 -197 -19 143 203 0
-177 -197 19 -143 203 0
-177 -197 19 143 -203 0
-177 -197 -20 -144 -204 0
-177 -197 -20 144 204 0
-177 -197 20 -144 204 0
-177 -197 20 144 -204 0
-177 -197 -21 -145 -205 0
-177 -197 -21 145 205 0
-177 -197 21 -145 205 0
-177 -197 21 145 -205 0
-177 -198 -15 -168 -199 0
-177 -198 -15 168 199 0
-177 -198 15 -168 199 0
-177 -198 15 168 -199 0
-177 -198 -16 -169 -200 0
-177 -198 -16 169 200 0
-177 -198 16 -169 200 0
-177 -198 16 169 -200 0
-177 -198 -17 -170 -201 0
-177 -198 -17 170 201 0
-177 -198 17 -170 201 0
-177 -198 17 170 -201 0
-177 -198 -18 -171 -202 0
-177 -198 -18 171 202 0
-177 -198 18 -171 202 0
-177 -198 18 171 -202 0
-177 -198 -19 -172 -203 0
-177 -198 -19 172 203 0
-177 -198 19 -172 203 0
-177 -198 19 172 -203 0
-177 -198 -20 -173 -204 0
-177 -198 -20 173 204 0
-177 -198 20 -173 204 0
-177 -198 20 173 -204 0
-177 -198 -21 -174 -205 0
-177 -198 -21 174 205 0
-177 -198 21 -174 205 0
-177 -198 21 174 -205 0
-178 -191 -22 -29 -199 0
-178 -191 -22 29 199 0
-178 -191 22 -29 199 0
-178 -191 22 29 -199 0
-178 -191 -23 -30 -200 0
-178 -191 -23 30 200 0
-178 -191 23 -30 200 0
-178 -191 23 30 -200 0
-178 -191 -24 -31 -201 0
-178 -191 -24 31 201 0
-178 -191 24 -31 201 0
-178 -191 24 31 -201 0
-178 -191 -25 -32 -202 0
-178 -191 -25 32 202 0
-178 -191 25 -32 202 0
-178 -191 25 32 -202 0
-178 -191 -26 -33 -203 0
-178 -191 -26 33 203 0
-178 -191 26 -33 203 0
-178 -191 26 33 -203 0
-178 -191 -27 -34 -204 0
-178 -191 -27 34 204 0
-178 -191 27 -34 204 0
-178 -191 27 34 -204 0
-178 -191 -28 -35 -205 0
-178 -191 -28 35 205 0
-178 -191 28 -35 205 0
-178 -191 28 35 -205 0
-178 -192 -22 -36 -199 0
-178 -192 -22 36 199 0
-178 -192 22 -36 199 0
-178 -192 22 36 -199 0
-178 -192 -23 -37 -200 0
-178 -192 -23 37 200 0
-178 -192 23 -37 200 0
-178 -192 23 37 -200 0
-178 -192 -24 -38 -201 0
-178 -192 -24 38 201 0
-178 -192 24 -38 201 0
-178 -192 24 38 -201 0
-178 -192 -25 -39 -202 0
-178 -192 -25 39 202 0
-178 -192 25 -39 202 0
-178 -192 25 39 -202 0
-178 -192 -26 -40 -203 0
-178 -192 -26 40 203 0
-178 -192 26 -40 203 0
-178 -192 26 40 -203 0
-178 -192 -27 -41 -204 0
-178 -192 -27 41 204 0
-178 -192 27 -41 204 0
-178 -192 27 41 -204 0
-178 -192 -28 -42 -205 0
-178 -192 -28 42 205 0
-178 -192 28 -42 205 0
-178 -192 28 42 -205 0
-178 -193 -22 -43 -199 0
-178 -193 -22 43 199 0
-178 -193 22 -43 199 0
-178 -193 22 43 -199 0
-178 -193 -23 -44 -200 0
-178 -193 -23 44 200 0
-178 -193 23 -44 200 0
-178 -193 23 44 -200 0
-178 -193 -24 -45 -201 0
-178 -193 -24 45 201 0
-178 -193 24 -45 201 0
-178 -193 24 45 -201 0
-178 -193 -25 -46 -202 0
-178 -193 -25 46 202 0
-178 -193 25 -46 202 0
-178 -193 25 46 -202 0
-178 -193 -26 -47 -203 0
-178 -193 -26 47 203 0
-178 -193 26 -47 203 0
-178 -193 26 47 -203 0
-178 -193 -27 -48 -204 0
-178 -193 -27 48 204 0
-178 -193 27 -48 204 0
-178 -193 27 48 -204 0
-178 -193 -28 -49 -205 0
-178 -193 -28 49 205 0
-178 -193 28 -49 205 0
-178 -193 28 49 -205 0
-178 -194 -22 -64 -199 0
-178 -194 -22 64 199 0
-178 -194 22 -64 199 0
-178 -194 22 64 -199 0
-178 -194 -23 -65 -200 0
-178 -194 -23 65 200 0
-178 -194 23 -65 200 0
-178 -194 23 65 -200 0
-178 -194 -24 -66 -201 0
-178 -194 -24 66 201 0
-178 -194 24 -66 201 0
-178 -194 24 66 -201 0
-178 -194 -25 -67 -202 0
-178 -194 -25 67 202 0
-178 -194 25 -67 202 0
-178 -194 25 67 -202 0
-178 -194 -26 -68 -203 0
-178 -194 -26 68 203 0
-178 -194 26 -68 203 0
-178 -194 26 68 -203 0
-178 -194 -27 -69 -204 0
-178 -194 -27 69 204 0
-178 -194 27 -69 204 0
-178 -194 27 69 -204 0
-178 -194 -28 -70 -205 0
-178 -194 -28 70 205 0
-178 -194 28 -70 205 0
-178 -194 28 70 -205 0
-178 -195 -22 -87 -199 0
-178 -195 -22 87 199 0
-178 -195 22 -87 199 0
-178 -195 22 87 -199 0
-178 -195 -23 -88 -200 0
-178 -195 -23 88 200 0
-178 -195 23 -88 200 0
-178 -195 23 88 -200 0
-178 -195 -24 -89 -201 0
-178 -195 -24 89 201 0
-178 -195 24 -89 201 0
-178 -195 24 89 -201 0
-178 -195 -25 -90 -202 0
-178 -195 -25 90 202 0
-178 -195 25 -90 202 0
-178 -195 25 90 -202 0
-178 -195 -26 -91 -203 0
-178 -195 -26 91 203 0
-178 -195 26 -91 203 0
-178 -195 26 91 -203 0
-178 -195 -27 -92 -204 0
-178 -195 -27 92 204 0
-178 -195 27 -92 204 0
-178 -195 27 92 -204 0
-178 -195 -28 -93 -205 0
-178 -195 -28 93 205 0
-178 -195 28 -93 205 0
-178 -195 28 93 -205 0
-178 -196 -22 -112 -199 0
-178 -196 -22 112 199 0
-178 -196 22 -112 199 0
-178 -196 22 112 -199 0
-178 -196 -23 -113 -200 0
-178 -196 -23 113 200 0
-178 -196 23 -113 200 0
-178 -196 23 113 -200 0
-178 -196 -24 -114 -201 0
-178 -196 -24 114 201 0
-178 -196 24 -114 201 0
-178 -196 24 114 -201 0
-178 -196 -25 -115 -202 0
-178 -196 -25 115 202 0
-178 -196 25 -115 202 0
-178 -196 25 115 -202 0
-178 -196 -26 -116 -203 0
-178 -196 -26 116 203 0
-178 -196 26 -116 203 0
-178 -196 26 116 -203 0
-178 -196 -27 -117 -204 0
-178 -196 -27 117 204 0
-178 -196 27 -117 204 0
-178 -196 27 117 -204 0
-178 -196 -28 -118 -205 0
-178 -196 -28 118 205 0
-178 -196 28 -118 205 0
-178 -196 28 118 -205 0
-178 -197 -22 -139 -199 0
-178 -197 -22 139 199 0
-178 -197 22 -139 199 0
-178 -197 22 139 -199 0
-178 -197 -23 -140 -200 0
-178 -197 -23 140 200 0
-178 -197 23 -140 200 0
-178 -197 23 140 -200 0
-178 -197 -24 -141 -201 0
-178 -197 -24 141 201 0
-178 -197 24 -141 201 0
-178 -197 24 141 -201 0
-178 -197 -25 -142 -202 0
-178 -197 -25 142 202 0
-178 -197 25 -142 202 0
-178 -197 25 142 -202 0
-178 -197 -26 -143 -203 0
-178 -197 -26 143 203 0
-178 -197 26 -143 203 0
-178 -197 26 143 -203 0
-178 -197 -27 -144 -204 0
-178 -197 -27 144 204 0
-178 -197 27 -144 204 0
-178 -197 27 144 -204 0
-178 -197 -28 -145 -205 0
-178 -197 -28 145 205 0
-178 -197 28 -145 205 0
-178 -197 28 145 -205 0
-178 -198 -22 -168 -199 0
-178 -198 -22 168 199 0
-178 -198 22 -168 199 0
-178 -198 22 168 -199 0
-178 -198 -23 -169 -200 0
-178 -198 -23 169 200 0
-178 -198 23 -169 200 0
-178 -198 23 169 -200 0
-178 -198 -24 -170 -201 0
-178 -198 -24 170 201 0
-178 -198 24 -170 201 0
-178 -198 24 170 -201 0
-178 -198 -25 -171 -202 0
-178 -198 -25 171 202 0
-178 -198 25 -171 202 0
-178 -198 25 171 -202 0
-178 -198 -26 -172 -203 0
-178 -198 -26 172 203 0
-178 -198 26 -172 203 0
-178 -198 26 172 -203 0
-178 -198 -27 -173 -204 0
-178 -198 -27 173 204 0
-178 -198 27 -173 204 0
-178 -198 27 173 -204 0
-178 -198 -28 -174 -205 0
-178 -198 -28 174 205 0
-178 -198 28 -174 205 0
-178 -198 28 174 -205 0
-179 -192 -29 -36 -199 0
-179 -192 -29 36 199 0
-179 -192 29 -36 199 0
-179 -192 29 36 -199 0
-179 -192 -30 -37 -200 0
-179 -192 -30 37 200 0
-179 -192 30 -37 200 0
-179 -192 30 37 -200 0
-179 -192 -31 -38 -201 0
-179 -192 -31 38 201 0
-179 -192 31 -38 201 0
-179 -192 31 38 -201 0
-179 -192 -32 -39 -202 0
-179 -192 -32 39 202 0
-179 -192 32 -39 202 0
-179 -192 32 39 -202 0
-179 -192 -33 -40 -203 0
-179 -192 -33 40 203 0
-179 -192 33 -40 203 0
-179 -192 33 40 -203 0
-179 -192 -34 -41 -204 0
-179 -192 -34 41 204 0
-179 -192 34 -41 204 0
-179 -192 34 41 -204 0
-179 -192 -35 -42 -205 0
-179 -192 -35 42 205 0
-179 -192 35 -42 205 0
-179 -192 35 42 -205 0
-179 -193 -29 -43 -199 0
-179 -193 -29 43 199 0
-179 -193 29 -43 199 0
-179 -193 29 43 -199 0
-179 -193 -30 -44 -200 0
-179 -193 -30 44 200 0
-179 -193 30 -44 200 0
-179 -193 30 44 -200 0
-179 -193 -31 -45 -201 0
-179 -193 -31 45 201 0
-179 -193 31 -45 201 0
-179 -193 31 45 -201 0
-179 -193 -32 -46 -202 0
-179 -193 -32 46 202 0
-179 -193 32 -46 202 0
-179 -193 32 46 -202 0
-179 -193 -33 -47 -203 0
-179 -193 -33 47 203 0
-179 -193 33 -47 203 0
-179 -193 33 47 -203 0
-179 -193 -34 -48 -204 0
-179 -193 -34 48 204 0
-179 -193 34 -48 204 0
-179 -193 34 48 -204 0
-179 -193 -35 -49 -205 0
-179 -193 -35 49 205 0
-179 -193 35 -49 205 0
-179 -193 35 49 -205 0
-179 -194 -29 -64 -199 0
-179 -194 -29 64 199 0
-179 -194 29 -64 199 0
-179 -194 29 64 -199 0
-179 -194 -30 -65 -200 0
-179 -194 -30 65 200 0
-179 -194 30 -65 200 0
-179 -194 30 65 -200 0
-179 -194 -31 -66 -201 0
-179 -194 -31 66 201 0
-179 -194 31 -66 201 0
-179 -194 31 66 -201 0
-179 -194 -32 -67 -202 0
-179 -194 -32 67 202 0
-179 -194 32 -67 202 0
-179 -194 32 67 -202 0
-179 -194 -33 -68 -203 0
-179 -194 -33 68 203 0
-179 -194 33 -68 203 0
-179 -194 33 68 -203 0
-179 -194 -34 -69 -204 0
-179 -194 -34 69 204 0
-179 -194 34 -69 204 0
-179 -194 34 69 -204 0
-179 -194 -35 -70 -205 0
-179 -194 -35 70 205 0
-179 -194 35 -70 205 0
-179 -194 35 70 -205 0
-179 -195 -29 -87 -199 0
-179 -195 -29 87 199 0
-179 -195 29 -87 199 0
-179 -195 29 87 -199 0
-179 -195 -30 -88 -200 0
-179 -195 -30 88 200 0
-179 -195 30 -88 200 0
-179 -195 30 88 -200 0
-179 -195 -31 -89 -201 0
-179 -195 -31 89 201 0
-179 -195 31 -89 201 0
-179 -195 31 89 -201 0
-179 -195 -32 -90 -202 0
-179 -195 -32 90 202 0
-179 -195 32 -90 202 0
-179 -195 32 90 -202 0
-179 -195 -33 -91 -203 0
-179 -195 -33 91 203 0
-179 -195 33 -91 203 0
-179 -195 33 91 -203 0
-179 -195 -34 -92 -204 0
-179 -195 -34 92 204 0
-179 -195 34 -92 204 0
-179 -195 34 92 -204 0
-179 -195 -35 -93 -205 0
-179 -195 -35 93 205 0
-179 -195 35 -93 205 0
-179 -195 35 93 -205 0
-179 -196 -29 -112 -199 0
-179 -196 -29 112 199 0
-179 -196 29 -112 199 0
-179 -196 29 112 -199 0
-179 -196 -30 -113 -200 0
-179 -196 -30 113 200 0
-179 -196 30 -113 200 0
-179 -196 30 113 -200 0
-179 -196 -31 -114 -201 0
-179 -196 -31 114 201 0
-179 -196 31 -114 201 0
-179 -196 31 114 -201 0
-179 -196 -32 -115 -202 0
-179 -196 -32 115 202 0
-179 -196 32 -115 202 0
-179 -196 32 115 -202 0
-179 -196 -33 -116 -203 0
-179 -196 -33 116 203 0
-179 -196 33 -116 203 0
-179 -196 33 116 -203 0
-179 -196 -34 -117 -204 0
-179 -196 -34 117 204 0
-179 -196 34 -117 204 0
-179 -196 34 117 -204 0
-179 -196 -35 -118 -205 0
-179 -196 -35 118 205 0
-179 -196 35 -118 205 0
-179 -196 35 118 -205 0
-179 -197 -29 -139 -199 0
-179 -197 -29 139 199 0
-179 -197 29 -139 199 0
-179 -197 29 139 -199 0
-179 -197 -30 -140 -200 0
-179 -197 -30 140 200 0
-179 -197 30 -140 200 0
-179 -197 30 140 -200 0
-179 -197 -31 -141 -201 0
-179 -197 -31 141 201 0
-179 -197 31 -141 201 0
-179 -197 31 141 -201 0
-179 -197 -32 -142 -202 0
-179 -197 -32 142 202 0
-179 -197 32 -142 202 0
-179 -197 32 142 -202 0
-179 -197 -33 -143 -203 0
-179 -197 -33 143 203 0
-179 -197 33 -143 203 0
-179 -197 33 143 -203 0
-179 -197 -34 -144 -204 0
-179 -197 -34 144 204 0
-179 -197 34 -144 204 0
-179 -197 34 144 -204 0
-179 -197 -35 -145 -205 0
-179 -197 -35 145 205 0
-179 -197 35 -145 205 0
-179 -197 35 145 -205 0
-179 -198 -29 -168 -199 0
-179 -198 -29 168 199 0
-179 -198 29 -168 199 0
-179 -198 29 168 -199 0
-179 -198 -30 -169 -200 0
-179 -198 -30 169 200 0
-179 -198 30 -169 200 0
-179 -198 30 169 -200 0
-179 -198 -31 -170 -201 0
-179 -198 -31 170 201 0
-179 -198 31 -170 201 0
-179 -198 31 170 -201 0
-179 -198 -32 -171 -202 0
-179 -198 -32 171 202 0
-179 -198 32 -171 202 0
-179 -198 32 171 -202 0
-179 -198 -33 -172 -203 0
-179 -198 -33 172 203 0
-179 -198 33 -172 203 0
-179 -198 33 172 -203 0
-179 -198 -34 -173 -204 0
-179 -198 -34 173 204 0
-179 -198 34 -173 204 0
-179 -198 34 173 -204 0
-179 -198 -35 -174 -205 0
-179 -198 -35 174 205 0
-179 -198 35 -174 205 0
-179 -198 35 174 -205 0
-180 -193 -36 -43 -199 0
-180 -193 -36 43 199 0
-180 -193 36 -43 199 0
-180 -193 36 43 -199 0
-180 -193 -37 -44 -200 0
-180 -193 -37 44 200 0
-180 -193 37 -44 200 0
-180 -193 37 44 -200 0
-180 -193 -38 -45 -201 0
-180 -193 -38 45 201 0
-180 -193 38 -45 201 0
-180 -193 38 45 -201 0
-180 -193 -39 -46 -202 0
-180 -193 -39 46 202 0
-180 -193 39 -46 202 0
-180 -193 39 46 -202 0
-180 -193 -40 -47 -203 0
-180 -193 -40 47 203 0
-180 -193 40 -47 203 0
-180 -193 40 47 -203 0
-180 -193 -41 -48 -204 0
-180 -193 -41 48 204 0
-180 -193 41 -48 204 0
-180 -193 41 48 -204 0
-180 -193 -42 -49 -205 0
-180 -193 -42 49 205 0
-180 -193 42 -49 205 0
-180 -193 42 49 -205 0
-180 -194 -36 -64 -199 0
-180 -194 -36 64 199 0
-180 -194 36 -64 199 0
-180 -194 36 64 -199 0
-180 -194 -37 -65 -200 0
-180 -194 -37 65 200 0
-180 -194 37 -65 200 0
-180 -194 37 65 -200 0
-180 -194 -38 -66 -201 0
-180 -194 -38 66 201 0
-180 -194 38 -66 201 0
-180 -194 38 66 -201 0
-180 -194 -39 -67 -202 0
-180 -194 -39 67 202 0
-180 -194 39 -67 202 0
-180 -194 39 67 -202 0
-180 -194 -40 -68 -203 0
-180 -194 -40 68 203 0
-180 -194 40 -68 203 0
-180 -194 40 68 -203 0
-180 -194 -41 -69 -204 0
-180 -194 -41 69 204 0
-180 -194 41 -69 204 0
-180 -194 41 69 -204 0
-180 -194 -42 -70 -205 0
-180 -194 -42 70 205 0
-180 -194 42 -70 205 0
-180 -194 42 70 -205 0
-180 -195 -36 -87 -199 0
-180 -195 -36 87 199 0
-180 -195 36 -87 199 0
-180 -195 36 87 -199 0
-180 -195 -37 -88 -200 0
-180 -195 -37 88 200 0
-180 -195 37 -88 200 0
-180 -195 37 88 -200 0
-180 -195 -38 -89 -201 0
-180 -195 -38 89 201 0
-180 -195 38 -89 201 0
-180 -195 38 89 -201 0
-180 -195 -39 -90 -202 0
-180 -195 -39 90 202 0
-180 -195 39 -90 202 0
-180 -195 39 90 -202 0
-180 -195 -40 -91 -203 0
-180 -195 -40 91 203 0
-180 -195 40 -91 203 0
-180 -195 40 91 -203 0
-180 -195 -41 -92 -204 0
-180 -195 -41 92 204 0
-180 -195 41 -92 204 0
-180 -195 41 92 -204 0
-180 -195 -42 -93 -205 0
-180 -195 -42 93 205 0
-180 -195 42 -93 205 0
-180 -195 42 93 -205 0
-180 -196 -36 -112 -199 0
-180 -196 -36 112 199 0
-180 -196 36 -112 199 0
-180 -196 36 112 -199 0
-180 -196 -37 -113 -200 0
-180 -196 -37 113 200 0
-180 -196 37 -113 200 0
-180 -196 37 113 -200 0
-180 -196 -38 -114 -201 0
-180 -196 -38 114 201 0
-180 -196 38 -114 201 0
-180 -196 38 114 -201 0
-180 -196 -39 -115 -202 0
-180 -196 -39 115 202 0
-180 -196 39 -115 202 0
-180 -196 39 115 -202 0
-180 -196 -40 -116 -203 0
-180 -196 -40 116 203 0
-180 -196 40 -116 203 0
-180 -196 40 116 -203 0
-180 -196 -41 -117 -204 0
-180 -196 -41 117 204 0
-180 -196 41 -117 204 0
-180 -196 41 117 -204 0
-180 -196 -42 -118 -205 0
-180 -196 -42 118 205 0
-180 -196 42 -118 205 0
-180 -196 42 118 -205 0
-180 -197 -36 -139 -199 0
-180 -197 -36 139 199 0
-180 -197 36 -139 199 0
-180 -197 36 139 -199 0
-180 -197 -37 -140 -200 0
-180 -197 -37 140 200 0
-180 -197 37 -140 200 0
-180 -197 37 140 -200 0
-180 -197 -38 -141 -201 0
-180 -197 -38 141 201 0
-180 -197 38 -141 201 0
-180 -197 38 141 -201 0
-180 -197 -39 -142 -202 0
-180 -197 -39 142 202 0
-180 -197 39 -142 202 0
-180 -197 39 142 -202 0
-180 -197 -40 -143 -203 0
-180 -197 -40 143 203 0
-180 -197 40 -143 203 0
-180 -197 40 143 -203 0
-180 -197 -41 -144 -204 0
-180 -197 -41 144 204 0
-180 -197 41 -144 204 0
-180 -197 41 144 -204 0
-180 -197 -42 -145 -205 0
-180 -197 -42 145 205 0
-180 -197 42 -145 205 0
-180 -197 42 145 -205 0
-180 -198 -36 -168 -199 0
-180 -198 -36 168 199 0
-180 -198 36 -168 199 0
-180 -198 36 168 -199 0
-180 -198 -37 -169 -200 0
-180 -198 -37 169 200 0
-180 -198 37 -169 200 0
-180 -198 37 169 -200 0
-180 -198 -38 -170 -201 0
-180 -198 -38 170 201 0
-180 -198 38 -170 201 0
-180 -198 38 170 -201 0
-180 -198 -39 -171 -202 0
-180 -198 -39 171 202 0
-180 -198 39 -171 202 0
-180 -198 39 171 -202 0
-180 -198 -40 -172 -203 0
-180 -198 -40 172 203 0
-180 -198 40 -172 203 0
-180 -198 40 172 -203 0
-180 -198 -41 -173 -204 0
-180 -198 -41 173 204 0
-180 -198 41 -173 204 0
-180 -198 41 173 -204 0
-180 -198 -42 -174 -205 0
-180 -198 -42 174 205 0
-180 -198 42 -174 205 0
-180 -198 42 174 -205 0
-181 -194 -43 -64 -199 0
-181 -194 -43 64 199 0
-181 -194 43 -64 199 0
-181 -194 43 64 -199 0
-181 -194 -44 -65 -200 0
-181 -194 -44 65 200 0
-181 -194 44 -65 200 0
-181 -194 44 65 -200 0
-181 -194 -45 -66 -201 0
-181 -194 -45 66 201 0
-181 -194 45 -66 201 0
-181 -194 45 66 -201 0
-181 -194 -46 -67 -202 0
-181 -194 -46 67 202 0
-181 -194 46 -67 202 0
-181 -194 46 67 -202 0
-181 -194 -47 -68 -203 0
-181 -194 -47 68 203 0
-181 -194 47 -68 203 0
-181 -194 47 68 -203 0
-181 -194 -48 -69 -204 0
-181 -194 -48 69 204 0
-181 -194 48 -69 204 0
-181 -194 48 69 -204 0
-181 -194 -49 -70 -205 0
-181 -194 -49 70 205 0
-181 -194 49 -70 205 0
-181 -194 49 70 -205 0
-181 -195 -43 -87 -199 0
-181 -195 -43 87 199 0
-181 -195 43 -87 199 0
-181 -195 43 87 -199 0
-181 -195 -44 -88 -200 0
-181 -195 -44 88 200 0
-181 -195 44 -88 200 0
-181 -195 44 88 -200 0
-181 -195 -45 -89 -201 0
-181 -195 -45 89 201 0
-181 -195 45 -89 201 0
-181 -195 45 89 -201 0
-181 -195 -46 -90 -202 0
-181 -195 -46 90 202 0
-181 -195 46 -90 202 0
-181 -195 46 90 -202 0
-181 -195 -47 -91 -203 0
-181 -195 -47 91 203 0
-181 -195 47 -91 203 0
-181 -195 47 91 -203 0
-181 -195 -48 -92 -204 0
-181 -195 -48 92 204 0
-181 -195 48 -92 204 0
-181 -195 48 92 -204 0
-181 -195 -49 -93 -205 0
-181 -195 -49 93 205 0
-181 -195 49 -93 205 0
-181 -195 49 93 -205 0
-181 -196 -43 -112 -199 0
-181 -196 -43 112 199 0
-181 -196 43 -112 199 0
-181 -196 43 112 -199 0
-181 -196 -44 -113 -200 0
-181 -196 -44 113 200 0
-181 -196 44 -113 200 0
-181 -196 44 113 -200 0
-181 -196 -45 -114 -201 0
-181 -196 -45 114 201 0
-181 -196 45 -114 201 0
-181 -196 45 114 -201 0
-181 -196 -46 -115 -202 0
-181 -196 -46 115 202 0
-181 -196 46 -115 202 0
-181 -196 46 115 -202 0
-181 -196 -47 -116 -203 0
-181 -196 -47 116 203 0
-181 -196 47 -116 203 0
-181 -196 47 116 -203 0
-181 -196 -48 -117 -204 0
-181 -196 -48 117 204 0
-181 -196 48 -117 204 0
-181 -196 48 117 -204 0
-181 -196 -49 -118 -205 0
-181 -196 -49 118 205 0
-181 -196 49 -118 205 0
-181 -196 49 118 -205 0
-181 -197 -43 -139 -199 0
-181 -197 -43 139 199 0
-181 -197 43 -139 199 0
-181 -197 43 139 -199 0
-181 -197 -44 -140 -200 0
-181 -197 -44 140 200 0
-181 -197 44 -140 200 0
-181 -197 44 140 -200 0
-181 -197 -45 -141 -201 0
-181 -197 -45 141 201 0
-181 -197 45 -141 201 0
-181 -197 45 141 -201 0
-181 -197 -46 -142 -202 0
-181 -197 -46 142 202 0
-181 -197 46 -142 202 0
-181 -197 46 142 -202 0
-181 -197 -47 -143 -203 0
-181 -197 -47 143 203 0
-181 -197 47 -143 203 0
-181 -197 47 143 -203 0
-181 -197 -48 -144 -204 0
-181 -197 -48 144 204 0
-181 -197 48 -144 204 0
-181 -197 48 144 -204 0
-181 -197 -49 -145 -205 0
-181 -197 -49 145 205 0
-181 -197 49 -145 205 0
-181 -197 49 145 -205 0
-181 -198 -43 -168 -199 0
-181 -198 -43 168 199 0
-181 -198 43 -168 199 0
-181 -198 43 168 -199 0
-181 -198 -44 -169 -200 0
-181 -198 -44 169 200 0
-181 -198 44 -169 200 0
-181 -198 44 169 -200 0
-181 -198 -45 -170 -201 0
-181 -198 -45 170 201 0
-181 -198 45 -170 201 0
-181 -198 45 170 -201 0
-181 -198 -46 -171 -202 0
-181 -198 -46 171 202 0
-181 -198 46 -171 202 0
-181 -198 46 171 -202 0
-181 -198 -47 -172 -203 0
-181 -198 -47 172 203 0
-181 -198 47 -172 203 0
-181 -198 47 172 -203 0
-181 -198 -48 -173 -204 0
-181 -198 -48 173 204 0
-181 -198 48 -173 204 0
-181 -198 48 173 -204 0
-181 -198 -49 -174 -205 0
-181 -198 -49 174 205 0
-181 -198 49 -174 205 0
-181 -198 49 174 -205 0
-182 -195 -64 -87 -199 0
-182 -195 -64 87 199 0
-182 -195 64 -87 199 0
-182 -195 64 87 -199 0
-182 -195 -65 -88 -200 0
-182 -195 -65 88 200 0
-182 -195 65 -88 200 0
-182 -195 65 88 -200 0
-182 -195 -66 -89 -201 0
-182 -195 -66 89 201 0
-182 -195 66 -89 201 0
-182 -195 66 89 -201 0
-182 -195 -67 -90 -202 0
-182 -195 -67 90 202 0
-182 -195 67 -90 202 0
-182 -195 67 90 -202 0
-182 -195 -68 -91 -203 0
-182 -195 -68 91 203 0
-182 -195 68 -91 203 0
-182 -195 68 91 -203 0
-182 -195 -69 -92 -204 0
-182 -195 -69 92 204 0
-182 -195 69 -92 204 0
-182 -195 69 92 -204 0
-182 -195 -70 -93 -205 0
-182 -195 -70 93 205 0
-182 -195 70 -93 205 0
-182 -195 70 93 -205 0
-182 -196 -64 -112 -199 0
-182 -196 -64 112 199 0
-182 -196 64 -112 199 0
-182 -196 64 112 -199 0
-182 -196 -65 -113 -200 0
-182 -196 -65 113 200 0
-182 -196 65 -113 200 0
-182 -196 65 113 -200 0
-182 -196 -66 -114 -201 0
-182 -196 -66 114 201 0
-182 -196 66 -114 201 0
-182 -196 66 114 -201 0
-182 -196 -67 -115 -202 0
-182 -196 -67 115 202 0
-182 -196 67 -115 202 0
-182 -196 67 115 -202 0
-182 -196 -68 -116 -203 0
-182 -196 -68 116 203 0
-182 -196 68 -116 203 0
-182 -196 68 116 -203 0
-182 -196 -69 -117 -204 0
-182 -196 -69 117 204 0
-182 -196 69 -117 204 0
-182 -196 69 117 -204 0
-182 -196 -70 -118 -205 0
-182 -196 -70 118 205 0
-182 -196 70 -118 205 0
-182 -196 70 118 -205 0
-182 -197 -64 -139 -199 0
-182 -197 -64 139 199 0
-182 -197 64 -139 199 0
-182 -197 64 139 -199 0
-182 -197 -65 -140 -200 0
-182 -197 -65 140 200 0
-182 -197 65 -140 200 0
-182 -197 65 140 -200 0
-182 -197 -66 -141 -201 0
-182 -197 -66 141 201 0
-182 -197 66 -141 201 0
-182 -197 66 141 -201 0
-182 -197 -67 -142 -202 0
-182 -197 -67 142 202 0
-182 -197 67 -142 202 0
-182 -197 67 142 -202 0
-182 -197 -68 -143 -203 0
-182 -197 -68 143 203 0
-182 -197 68 -143 203 0
-182 -197 68 143 -203 0
-182 -197 -69 -144 -204 0
-182 -197 -69 144 204 0
-182 -197 69 -144 204 0
-182 -197 69 144 -204 0
-182 -197 -70 -145 -205 0
-182 -197 -70 145 205 0
-182 -197 70 -145 205 0
-182 -197 70 145 -205 0
-182 -198 -64 -168 -199 0
-182 -198 -64 168 199 0
-182 -198 64 -168 199 0
-182 -198 64 168 -199 0
-182 -198 -65 -169 -200 0
-182 -198 -65 169 200 0
-182 -198 65 -169 200 0
-182 -198 65 169 -200 0
-182 -198 -66 -170 -201 0
-182 -198 -66 170 201 0
-182 -198 66 -170 201 0
-182 -198 66 170 -201 0
-182 -198 -67 -171 -202 0
-182 -198 -67 171 202 0
-182 -198 67 -171 202 0
-182 -198 67 171 -202 0
-182 -198 -68 -172 -203 0
-182 -198 -68 172 203 0
-182 -198 68 -172 203 0
-182 -198 68 172 -203 0
-182 -198 -69 -173 -204 0
-182 -198 -69 173 204 0
-182 -198 69 -173 204 0
-182 -198 69 173 -204 0
-182 -198 -70 -174 -205 0
-182 -198 -70 174 205 0
-182 -198 70 -174 205 0
-182 -198 70 174 -205 0
-183 -196 -87 -112 -199 0
-183 -196 -87 112 199 0
-183 -196 87 -112 199 0
-183 -196 87 112 -199 0
-183 -196 -88 -113 -200 0
-183 -196 -88 113 200 0
-183 -196 88 -113 200 0
-183 -196 88 113 -200 0
-183 -196 -89 -114 -201 0
-183 -196 -89 114 201 0
-183 -196 89 -114 201 0
-183 -196 89 114 -201 0
-183 -196 -90 -115 -202 0
-183 -196 -90 115 202 0
-183 -196 90 -115 202 0
-183 -196 90 115 -202 0
-183 -196 -91 -116 -203 0
-183 -196 -91 116 203 0
-183 -196 91 -116 203 0
-183 -196 91 116 -203 0
-183 -196 -92 -117 -204 0
-183 -196 -92 117 204 0
-183 -196 92 -117 204 0
-183 -196 92 117 -204 0
-183 -196 -93 -118 -205 0
-183 -196 -93 118 205 0
-183 -196 93 -118 205 0
-183 -196 93 118 -205 0
-183 -197 -87 -139 -199 0
-183 -197 -87 139 199 0
-183 -197 87 -139 199 0
-183 -197 87 139 -199 0
-183 -197 -88 -140 -200 0
-183 -197 -88 140 200 0
-183 -197 88 -140 200 0
-183 -197 88 140 -200 0
-183 -197 -89 -141 -201 0
-183 -197 -89 141 201 0
-183 -197 89 -141 201 0
-183 -197 89 141 -201 0
-183 -197 -90 -142 -202 0
-183 -197 -90 142 202 0
-183 -197 90 -142 202 0
-183 -197 90 142 -202 0
-183 -197 -91 -143 -203 0
-183 -197 -91 143 203 0
-183 -197 91 -143 203 0
-183 -197 91 143 -203 0
-183 -197 -92 -144 -204 0
-183 -197 -92 144 204 0
-183 -197 92 -144 204 0
-183 -197 92 144 -204 0
-183 -197 -93 -145 -205 0
-183 -197 -93 145 205 0
-183 -197 93 -145 205 0
-183 -197 93 145 -205 0
-183 -198 -87 -168 -199 0
-183 -198 -87 168 199 0
-183 -198 87 -168 199 0
-183 -198 87 168 -199 0
-183 -198 -88 -169 -200 0
-183 -198 -88 169 200 0
-183 -198 88 -169 200 0
-183 -198 88 169 -200 0
-183 -198 -89 -170 -201 0
-183 -198 -89 170 201 0
-183 -198 89 -170 201 0
-183 -198 89 170 -201 0
-183 -198 -90 -171 -202 0
-183 -198 -90 171 202 0
-183 -198 90 -171 202 0
-183 -198 90 171 -202 0
-183 -198 -91 -172 -203 0
-183 -198 -91 172 203 0
-183 -198 91 -172 203 0
-183 -198 91 172 -203 0
-183 -198 -92 -173 -204 0
-183 -198 -92 173 204 0
-183 -198 92 -173 204 0
-183 -198 92 173 -204 0
-183 -198 -93 -174 -205 0
-183 -198 -93 174 205 0
-183 -198 93 -174 205 0
-183 -198 93 174 -205 0
-184 -197 -112 -139 -199 0
-184 -197 -112 139 199 0
-184 -197 112 -139 199 0
-184 -197 112 139 -199 0
-184 -197 -113 -140 -200 0
-184 -197 -113 140 200 0
-184 -197 113 -140 200 0
-184 -197 113 140 -200 0
-184 -197 -114 -141 -201 0
-184 -197 -114 141 201 0
-184 -197 114 -141 201 0
-184 -197 114 141 -201 0
-184 -197 -115 -142 -202 0
-184 -197 -115 142 202 0
-184 -197 115 -142 202 0
-184 -197 115 142 -202 0
-184 -197 -116 -143 -203 0
-184 -197 -116 143 203 0
-184 -197 116 -143 203 0
-184 -197 116 143 -203 0
-184 -197 -117 -144 -204 0
-184 -197 -117 144 204 0
-184 -197 117 -144 204 0
-184 -197 117 144 -204 0
-184 -197 -118 -145 -205 0
-184 -197 -118 145 205 0
-184 -197 118 -145 205 0
-184 -197 118 145 -205 0
-184 -198 -112 -168 -199 0
-184 -198 -112 168 199 0
-184 -198 112 -168 199 0
-184 -198 112 168 -199 0
-184 -198 -113 -169 -200 0
-184 -198 -113 169 200 0
-184 -198 113 -169 200 0
-184 -198 113 169 -200 0
-184 -198 -114 -170 -201 0
-184 -198 -114 170 201 0
-184 -198 114 -170 201 0
-184 -198 114 170 -201 0
-184 -198 -115 -171 -202 0
-184 -198 -115 171 202 0
-184 -198 115 -171 202 0
-184 -198 115 171 -202 0
-184 -198 -116 -172 -203 0
-184 -198 -116 172 203 0
-184 -198 116 -172 203 0
-184 -198 116 172 -203 0
-184 -198 -117 -173 -204 0
-184 -198 -117 173 204 0
-184 -198 117 -173 204 0
-184 -198 117 173 -204 0
-184 -198 -118 -174 -205 0
-184 -198 -118 174 205 0
-184 -198 118 -174 205 0
-184 -198 118 174 -205 0
-185 -198 -139 -168 -199 0
-185 -198 -139 168 199 0
-185 -198 139 -168 199 0
-185 -198 139 168 -199 0
-185 -198 -140 -169 -200 0
-185 -198 -140 169 200 0
-185 -198 140 -169 200 0
-185 -198 140 169 -200 0
-185 -198 -141 -170 -201 0
-185 -198 -141 170 201 0
-185 -198 141 -170 201 0
-185 -198 141 170 -201 0
-185 -198 -142 -171 -202 0
-185 -198 -142 171 202 0
-185 -198 142 -171 202 0
-185 -198 142 171 -202 0
-185 -198 -143 -172 -203 0
-185 -198 -143 172 203 0
-185 -198 143 -172 203 0
-185 -198 143 172 -203 0
-185 -198 -144 -173 -204 0
-185 -198 -144 173 204 0
-185 -198 144 -173 204 0
-185 -198 144 173 -204 0
-185 -198 -145 -174 -205 0
-185 -198 -145 174 205 0
-185 -198 145 -174 205 0
-185 -198 145 174 -205 0
199 200 201 202 203 204 205 0
206 207 208 209 210 211 212 213 214 215 216 217 218 0
-206 -207 0
-206 -208 0
-206 -209 0
-206 -210 0
-206 -211 0
-206 -212 0
-206 -213 0
-206 -214 0
-206 -215 0
-206 -216 0
-206 -217 0
-206 -218 0
-207 -208 0
-207 -209 0
-207 -210 0
-207 -211 0
-207 -212 0
-207 -213 0
-207 -214 0
-207 -215 0
-207 -216 0
-207 -217 0
-207 -218 0
-208 -209 0
-208 -210 0
-208 -211 0
-208 -212 0
-208 -213 0
-208 -214 0
-208 -215 0
-208 -216 0
-208 -217 0
-208 -218 0
-209 -210 0
-209 -211 0
-209 -212 0
-209 -213 0
-209 -214 0
-209 -215 0
-209 -216 0
-209 -217 0
-209 -218 0
-210 -211 0
-210 -212 0
-210 -213 0
-210 -214 0
-210 -215 0
-210 -216 0
-210 -217 0
-210 -218 0
-211 -212 0
-211 -213 0
-211 -214 0
-211 -215 0
-211 -216 0
-211 -217 0
-211 -218 0
-212 -213 0
-212 -214 0
-212 -215 0
-212 -216 0
-212 -217 0
-212 -218 0
-213 -214 0
-213 -215 0
-213 -216 0
-213 -217 0
-213 -218 0
-214 -215 0
-214 -216 0
-214 -217 0
-214 -218 0
-215 -216 0
-215 -217 0
-215 -218 0
-216 -217 0
-216 -218 0
-217 -218 0
219 220 221 222 223 224 225 226 227 228 229 230 231 0
-219 -220 0
-219 -221 0
-219 -222 0
-219 -223 0
-219 -224 0
-219 -225 0
-219 -226 0
-219 -227 0
-219 -228 0
-219 -229 0
-219 -230 0
-219 -231 0
-220 -221 0
-220 -222 0
-220 -223 0
-220 -224 0
-220 -225 0
-220 -226 0
-220 -227 0
-220 -228 0
-220 -229 0
-220 -230 0
-220 -231 0
-221 -222 0
-221 -223 0
-221 -224 0
-221 -225 0
-221 -226 0
-221 -227 0
-221 -228 0
-221 -229 0
-221 -230 0
-221 -231 0
-222 -223 0
-222 -224 0
-222 -225 0
-222 -226 0
-222 -227 0
-222 -228 0
-222 -229 0
-222 -230 0
-222 -231 0
-223 -224 0
-223 -225 0
-223 -226 0
-223 -227 0
-223 -228 0
-223 -229 0
-223 -230 0
-223 -231 0
-224 -225 0
-224 -226 0
-224 -227 0
-224 -228 0
-224 -229 0
-224 -230 0
-224 -231 0
-225 -226 0
-225 -227 0
-225 -228 0
-225 -229 0
-225 -230 0
-225 -231 0
-226 -227 0
-226 -228 0
-226 -229 0
-226 -230 0
-226 -231 0
-227 -228 0
-227 -229 0
-227 -230 0
-227 -231 0
-228 -229 0
-228 -230 0
-228 -231 0
-229 -230 0
-229 -231 0
-230 -231 0
-206 -219 0
-207 -219 0
-207 -220 0
-208 -219 0
-208 -220 0
-208 -221 0
-209 -219 0
-209 -220 0
-209 -221 0
-209 -222 0
-210 -219 0
-210 -220 0
-210 -221 0
-210 -222 0
-210 -223 0
-211 -219 0
-211 -220 0
-211 -221 0
-211 -222 0
-211 -223 0
-211 -224 0
-212 -219 0
-212 -220 0
-212 -221 0
-212 -222 0
-212 -223 0
-212 -224 0
-212 -225 0
-213 -219 0
-213 -220 0
-213 -221 0
-213 -222 0
-213 -223 0
-213 -224 0
-213 -225 0
-213 -226 0
-214 -219 0
-214 -220 0
-214 -221 0
-214 -222 0
-214 -223 0
-214 -224 0
-214 -225 0
-214 -226 0
-214 -227 0
-215 -219 0
-215 -220 0
-215 -221 0
-215 -222 0
-215 -223 0
-215 -224 0
-215 -225 0
-215 -226 0
-215 -227 0
-215 -228 0
-216 -219 0
-216 -220 0
-216 -221 0
-216 -222 0
-216 -223 0
-216 -224 0
-216 -225 0
-216 -226 0
-216 -227 0
-216 -228 0
-216 -229 0
-217 -219 0
-217 -220 0
-217 -221 0
-217 -222 0
-217 -223 0
-217 -224 0
-217 -225 0
-217 -226 0
-217 -227 0
-217 -228 0
-217 -229 0
-217 -230 0
-218 -219 0
-218 -220 0
-218 -221 0
-218 -222 0
-218 -223 0
-218 -224 0
-218 -225 0
-218 -226 0
-218 -227 0
-218 -228 0
-218 -229 0
-218 -230 0
-218 -231 0
-206 -220 -1 -8 -232 0
-206 -220 -1 8 232 0
-206 -220 1 -8 232 0
-206 -220 1 8 -232 0
-206 -220 -2 -9 -233 0
-206 -220 -2 9 233 0
-206 -220 2 -9 233 0
-206 -220 2 9 -233 0
-206 -220 -3 -10 -234 0
-206 -220 -3 10 234 0
-206 -220 3 -10 234 0
-206 -220 3 10 -234 0
-206 -220 -4 -11 -235 0
-206 -220 -4 11 235 0
-206 -220 4 -11 235 0
-206 -220 4 11 -235 0
-206 -220 -5 -12 -236 0
-206 -220 -5 12 236 0
-206 -220 5 -12 236 0
-206 -220 5 12 -236 0
-206 -220 -6 -13 -237 0
-206 -220 -6 13 237 0
-206 -220 6 -13 237 0
-206 -220 6 13 -237 0
-206 -220 -7 -14 -238 0
-206 -220 -7 14 238 0
-206 -220 7 -14 238 0
-206 -220 7 14 -238 0
-206 -221 -1 -15 -232 0
-206 -221 -1 15 232 0
-206 -221 1 -15 232 0
-206 -221 1 15 -232 0
-206 -221 -2 -16 -233 0
-206 -221 -2 16 233 0
-206 -221 2 -16 233 0
-206 -221 2 16 -233 0
-206 -221 -3 -17 -234 0
-206 -221 -3 17 234 0
-206 -221 3 -17 234 0
-206 -221 3 17 -234 0
-206 -221 -4 -18 -235 0
-206 -221 -4 18 235 0
-206 -221 4 -18 235 0
-206 -221 4 18 -235 0
-206 -221 -5 -19 -236 0
-206 -221 -5 19 236 0
-206 -221 5 -19 236 0
-206 -221 5 19 -236 0
-206 -221 -6 -20 -237 0
-206 -221 -6 20 237 0
-206 -221 6 -20 237 0
-206 -221 6 20 -237 0
-206 -221 -7 -21 -238 0
-206 -221 -7 21 238 0
-206 -221 7 -21 238 0
-206 -221 7 21 -238 0
-206 -222 -1 -22 -232 0
-206 -222 -1 22 232 0
-206 -222 1 -22 232 0
-206 -222 1 22 -232 0
-206 -222 -2 -23 -233 0
-206 -222 -2 23 233 0
-206 -222 2 -23 233 0
-206 -222 2 23 -233 0
-206 -222 -3 -24 -234 0
-206 -222 -3 24 234 0
-206 -222 3 -24 234 0
-206 -222 3 24 -234 0
-206 -222 -4 -25 -235 0
-206 -222 -4 25 235 0
-206 -222 4 -25 235 0
-206 -222 4 25 -235 0
-206 -222 -5 -26 -236 0
-206 -222 -5 26 236 0
-206 -222 5 -26 236 0
-206 -222 5 26 -236 0
-206 -222 -6 -27 -237 0
-206 -222 -6 27 237 0
-206 -222 6 -27 237 0
-206 -222 6 27 -237 0
-206 -222 -7 -28 -238 0
-206 -222 -7 28 238 0
-206 -222 7 -28 238 0
-206 -222 7 28 -238 0
-206 -223 -1 -29 -232 0
-206 -223 -1 29 232 0
-206 -223 1 -29 232 0
-206 -223 1 29 -232 0
-206 -223 -2 -30 -233 0
-206 -223 -2 30 233 0
-206 -223 2 -30 233 0
-206 -223 2 30 -233 0
-206 -223 -3 -31 -234 0
-206 -223 -3 31 234 0
-206 -223 3 -31 234 0
-206 -223 3 31 -234 0
-206 -223 -4 -32 -235 0
-206 -223 -4 32 235 0
-206 -223 4 -32 235 0
-206 -223 4 32 -235 0
-206 -223 -5 -33 -236 0
-206 -223 -5 33 236 0
-206 -223 5 -33 236 0
-206 -223 5 33 -236 0
-206 -223 -6 -34 -237 0
-206 -223 -6 34 237 0
-206 -223 6 -34 237 0
-206 -223 6 34 -237 0
-206 -223 -7 -35 -238 0
-206 -223 -7 35 238 0
-206 -223 7 -35 238 0
-206 -223 7 35 -238 0
-206 -224 -1 -36 -232 0
-206 -224 -1 36 232 0
-206 -224 1 -36 232 0
-206 -224 1 36 -232 0
-206 -224 -2 -37 -233 0
-206 -224 -2 37 233 0
-206 -224 2 -37 233 0
-206 -224 2 37 -233 0
-206 -224 -3 -38 -234 0
-206 -224 -3 38 234 0
-206 -224 3 -38 234 0
-206 -224 3 38 -234 0
-206 -224 -4 -39 -235 0
-206 -224 -4 39 235 0
-206 -224 4 -39 235 0
-206 -224 4 39 -235 0
-206 -224 -5 -40 -236 0
-206 -224 -5 40 236 0
-206 -224 5 -40 236 0
-206 -224 5 40 -236 0
-206 -224 -6 -41 -237 0
-206 -224 -6 41 237 0
-206 -224 6 -41 237 0
-206 -224 6 41 -237 0
-206 -224 -7 -42 -238 0
-206 -224 -7 42 238 0
-206 -224 7 -42 238 0
-206 -224 7 42 -238 0
-206 -225 -1 -43 -232 0
-206 -225 -1 43 232 0
-206 -225 1 -43 232 0
-206 -225 1 43 -232 0
-206 -225 -2 -44 -233 0
-206 -225 -2 44 233 0
-206 -225 2 -44 233 0
-206 -225 2 44 -233 0
-206 -225 -3 -45 -234 0
-206 -225 -3 45 234 0
-206 -225 3 -45 234 0
-206 -225 3 45 -234 0
-206 -225 -4 -46 -235 0
-206 -225 -4 46 235 0
-206 -225 4 -46 235 0
-206 -225 4 46 -235 0
-206 -225 -5 -47 -236 0
-206 -225 -5 47 236 0
-206 -225 5 -47 236 0
-206 -225 5 47 -236 0
-206 -225 -6 -48 -237 0
-206 -225 -6 48 237 0
-206 -225 6 -48 237 0
-206 -225 6 48 -237 0
-206 -225 -7 -49 -238 0
-206 -225 -7 49 238 0
-206 -225 7 -49 238 0
-206 -225 7 49 -238 0
-206 -226 -1 -64 -232 0
-206 -226 -1 64 232 0
-206 -226 1 -64 232 0
-206 -226 1 64 -232 0
-206 -226 -2 -65 -233 0
-206 -226 -2 65 233 0
-206 -226 2 -65 233 0
-206 -226 2 65 -233 0
-206 -226 -3 -66 -234 0
-206 -226 -3 66 234 0
-206 -226 3 -66 234 0
-206 -226 3 66 -234 0
-206 -226 -4 -67 -235 0
-206 -226 -4 67 235 0
-206 -226 4 -67 235 0
-206 -226 4 67 -235 0
-206 -226 -5 -68 -236 0
-206 -226 -5 68 236 0
-206 -226 5 -68 236 0
-206 -226 5 68 -236 0
-206 -226 -6 -69 -237 0
-206 -226 -6 69 237 0
-206 -226 6 -69 237 0
-206 -226 6 69 -237 0
-206 -226 -7 -70 -238 0
-206 -226 -7 70 238 0
-206 -226 7 -70 238 0
-206 -226 7 70 -238 0
-206 -227 -1 -87 -232 0
-206 -227 -1 87 232 0
-206 -227 1 -87 232 0
-206 -227 1 87 -232 0
-206 -227 -2 -88 -233 0
-206 -227 -2 88 233 0
-206 -227 2 -88 233 0
-206 -227 2 88 -233 0
-206 -227 -3 -89 -234 0
-206 -227 -3 89 234 0
-206 -227 3 -89 234 0
-206 -227 3 89 -234 0
-206 -227 -4 -90 -235 0
-206 -227 -4 90 235 0
-206 -227 4 -90 235 0
-206 -227 4 90 -235 0
-206 -227 -5 -91 -236 0
-206 -227 -5 91 236 0
-206 -227 5 -91 236 0
-206 -227 5 91 -236 0
-206 -227 -6 -92 -237 0
-206 -227 -6 92 237 0
-206 -227 6 -92 237 0
-206 -227 6 92 -237 0
-206 -227 -7 -93 -238 0
-206 -227 -7 93 238 0
-206 -227 7 -93 238 0
-206 -227 7 93 -238 0
-206 -228 -1 -112 -232 0
-206 -228 -1 112 232 0
-206 -228 1 -112 232 0
-206 -228 1 112 -232 0
-206 -228 -2 -113 -233 0
-206 -228 -2 113 233 0
-206 -228 2 -113 233 0
-206 -228 2 113 -233 0
-206 -228 -3 -114 -234 0
-206 -228 -3 114 234 0
-206 -228 3 -114 234 0
-206 -228 3 114 -234 0
-206 -228 -4 -115 -235 0
-206 -228 -4 115 235 0
-206 -228 4 -115 235 0
-206 -228 4 115 -235 0
-206 -228 -5 -116 -236 0
-206 -228 -5 116 236 0
-206 -228 5 -116 236 0
-206 -228 5 116 -236 0
-206 -228 -6 -117 -237 0
-206 -228 -6 117 237 0
-206 -228 6 -117 237 0
-206 -228 6 117 -237 0
-206 -228 -7 -118 -238 0
-206 -228 -7 118 238 0
-206 -228 7 -118 238 0
-206 -228 7 118 -238 0
-206 -229 -1 -139 -232 0
-206 -229 -1 139 232 0
-206 -229 1 -139 232 0
-206 -229 1 139 -232 0
-206 -229 -2 -140 -233 0
-206 -229 -2 140 233 0
-206 -229 2 -140 233 0
-206 -229 2 140 -233 0
-206 -229 -3 -141 -234 0
-206 -229 -3 141 234 0
-206 -229 3 -141 234 0
-206 -229 3 141 -234 0
-206 -229 -4 -142 -235 0
-206 -229 -4 142 235 0
-206 -229 4 -142 235 0
-206 -229 4 142 -235 0
-206 -229 -5 -143 -236 0
-206 -229 -5 143 236 0
-206 -229 5 -143 236 0
-206 -229 5 143 -236 0
-206 -229 -6 -144 -237 0
-206 -229 -6 144 237 0
-206 -229 6 -144 237 0
-206 -229 6 144 -237 0
-206 -229 -7 -145 -238 0
-206 -229 -7 145 238 0
-206 -229 7 -145 238 0
-206 -229 7 145 -238 0
-206 -230 -1 -168 -232 0
-206 -230 -1 168 232 0
-206 -230 1 -168 232 0
-206 -230 1 168 -232 0
-206 -230 -2 -169 -233 0
-206 -230 -2 169 233 0
-206 -230 2 -169 233 0
-206 -230 2 169 -233 0
-206 -230 -3 -170 -234 0
-206 -230 -3 170 234 0
-206 -230 3 -170 234 0
-206 -230 3 170 -234 0
-206 -230 -4 -171 -235 0
-206 -230 -4 171 235 0
-206 -230 4 -171 235 0
-206 -230 4 171 -235 0
-206 -230 -5 -172 -236 0
-206 -230 -5 172 236 0
-206 -230 5 -172 236 0
-206 -230 5 172 -236 0
-206 -230 -6 -173 -237 0
-206 -230 -6 173 237 0
-206 -230 6 -173 237 0
-206 -230 6 173 -237 0
-206 -230 -7 -174 -238 0
-206 -230 -7 174 238 0
-206 -230 7 -174 238 0
-206 -230 7 174 -238 0
-206 -231 -1 -199 -232 0
-206 -231 -1 199 232 0
-206 -231 1 -199 232 0
-206 -231 1 199 -232 0
-206 -231 -2 -200 -233 0
-206 -231 -2 200 233 0
-206 -231 2 -200 233 0
-206 -231 2 200 -233 0
-206 -231 -3 -201 -234 0
-206 -231 -3 201 234 0
-206 -231 3 -201 234 0
-206 -231 3 201 -234 0
-206 -231 -4 -202 -235 0
-206 -231 -4 202 235 0
-206 -231 4 -202 235 0
-206 -231 4 202 -235 0
-206 -231 -5 -203 -236 0
-206 -231 -5 203 236 0
-206 -231 5 -203 236 0
-206 -231 5 203 -236 0
-206 -231 -6 -204 -237 0
-206 -231 -6 204 237 0
-206 -231 6 -204 237 0
-206 -231 6 204 -237 0
-206 -231 -7 -205 -238 0
-206 -231 -7 205 238 0
-206 -231 7 -205 238 0
-206 -231 7 205 -238 0
-207 -221 -8 -15 -232 0
-207 -221 -8 15 232 0
-207 -221 8 -15 232 0
-207 -221 8 15 -232 0
-207 -221 -9 -16 -233 0
-207 -221 -9 16 233 0
-207 -221 9 -16 233 0
-207 -221 9 16 -233 0
-207 -221 -10 -17 -234 0
-207 -221 -10 17 234 0
-207 -221 10 -17 234 0
-207 -221 10 17 -234 0
-207 -221 -11 -18 -235 0
-207 -221 -11 18 235 0
-207 -221 11 -18 235 0
-207 -221 11 18 -235 0
-207 -221 -12 -19 -236 0
-207 -221 -12 19 236 0
-207 -221 12 -19 236 0
-207 -221 12 19 -236 0
-207 -221 -13 -20 -237 0
-207 -221 -13 20 237 0
-207 -221 13 -20 237 0
-207 -221 13 20 -237 0
-207 -221 -14 -21 -238 0
-207 -221 -14 21 238 0
-207 -221 14 -21 238 0
-207 -221 14 21 -238 0
-207 -222 -8 -22 -232 0
-207 -222 -8 22 232 0
-207 -222 8 -22 232 0
-207 -222 8 22 -232 0
-207 -222 -9 -23 -233 0
-207 -222 -9 23 233 0
-207 -222 9 -23 233 0
-207 -222 9 23 -233 0
-207 -222 -10 -24 -234 0
-207 -222 -10 24 234 0
-207 -222 10 -24 234 0
-207 -222 10 24 -234 0
-207 -222 -11 -25 -235 0
-207 -222 -11 25 235 0
-207 -222 11 -25 235 0
-207 -222 11 25 -235 0
-207 -222 -12 -26 -236 0
-207 -222 -12 26 236 0
-207 -222 12 -26 236 0
-207 -222 12 26 -236 0
-207 -222 -13 -27 -237 0
-207 -222 -13 27 237 0
-207 -222 13 -27 237 0
-207 -222 13 27 -237 0
-207 -222 -14 -28 -238 0
-207 -222 -14 28 238 0
-207 -222 14 -28 238 0
-207 -222 14 28 -238 0
-207 -223 -8 -29 -232 0
-207 -223 -8 29 232 0
-207 -223 8 -29 232 0
-207 -223 8 29 -232 0
-207 -223 -9 -30 -233 0
-207 -223 -9 30 233 0
-207 -223 9 -30 233 0
-207 -223 9 30 -233 0
-207 -223 -10 -31 -234 0
-207 -223 -10 31 234 0
-207 -223 10 -31 234 0
-207 -223 10 31 -234 0
-207 -223 -11 -32 -235 0
-207 -223 -11 32 235 0
-207 -223 11 -32 235 0
-207 -223 11 32 -235 0
-207 -223 -12 -33 -236 0
-207 -223 -12 33 236 0
-207 -223 12 -33 236 0
-207 -223 12 33 -236 0
-207 -223 -13 -34 -237 0
-207 -223 -13 34 237 0
-207 -223 13 -34 237 0
-207 -223 13 34 -237 0
-207 -223 -14 -35 -238 0
-207 -223 -14 35 238 0
-207 -223 14 -35 238 0
-207 -223 14 35 -238 0
-207 -224 -8 -36 -232 0
-207 -224 -8 36 232 0
-207 -224 8 -36 232 0
-207 -224 8 36 -232 0
-207 -224 -9 -37 -233 0
-207 -224 -9 37 233 0
-207 -224 9 -37 233 0
-207 -224 9 37 -233 0
-207 -224 -10 -38 -234 0
-207 -224 -10 38 234 0
-207 -224 10 -38 234 0
-207 -224 10 38 -234 0
-207 -224 -11 -39 -235 0
-207 -224 -11 39 235 0
-207 -224 11 -39 235 0
-207 -224 11 39 -235 0
-207 -224 -12 -40 -236 0
-207 -224 -12 40 236 0
-207 -224 12 -40 236 0
-207 -224 12 40 -236 0
-207 -224 -13 -41 -237 0
-207 -224 -13 41 237 0
-207 -224 13 -41 237 0
-207 -224 13 41 -237 0
-207 -224 -14 -42 -238 0
-207 -224 -14 42 238 0
-207 -224 14 -42 238 0
-207 -224 14 42 -238 0
-207 -225 -8 -43 -232 0
-207 -225 -8 43 232 0
-207 -225 8 -43 232 0
-207 -225 8 43 -232 0
-207 -225 -9 -44 -233 0
-207 -225 -9 44 233 0
-207 -225 9 -44 233 0
-207 -225 9 44 -233 0
-207 -225 -10 -45 -234 0
-207 -225 -10 45 234 0
-207 -225 10 -45 234 0
-207 -225 10 45 -234 0
-207 -225 -11 -46 -235 0
-207 -225 -11 46 235 0
-207 -225 11 -46 235 0
-207 -225 11 46 -235 0
-207 -225 -12 -47 -236 0
-207 -225 -12 47 236 0
-207 -225 12 -47 236 0
-207 -225 12 47 -236 0
-207 -225 -13 -48 -237 0
-207 -225 -13 48 237 0
-207 -225 13 -48 237 0
-207 -225 13 48 -237 0
-207 -225 -14 -49 -238 0
-207 -225 -14 49 238 0
-207 -225 14 -49 238 0
-207 -225 14 49 -238 0
-207 -226 -8 -64 -232 0
-207 -226 -8 64 232 0
-207 -226 8 -64 232 0
-207 -226 8 64 -232 0
-207 -226 -9 -65 -233 0
-207 -226 -9 65 233 0
-207 -226 9 -65 233 0
-207 -226 9 65 -233 0
-207 -226 -10 -66 -234 0
-207 -226 -10 66 234 0
-207 -226 10 -66 234 0
-207 -226 10 66 -234 0
-207 -226 -11 -67 -235 0
-207 -226 -11 67 235 0
-207 -226 11 -67 235 0
-207 -226 11 67 -235 0
-207 -226 -12 -68 -236 0
-207 -226 -12 68 236 0
-207 -226 12 -68 236 0
-207 -226 12 68 -236 0
-207 -226 -13 -69 -237 0
-207 -226 -13 69 237 0
-207 -226 13 -69 237 0
-207 -226 13 69 -237 0
-207 -226 -14 -70 -238 0
-207 -226 -14 70 238 0
-207 -226 14 -70 238 0
-207 -226 14 70 -238 0
-207 -227 -8 -87 -232 0
-207 -227 -8 87 232 0
-207 -227 8 -87 232 0
-207 -227 8 87 -232 0
-207 -227 -9 -88 -233 0
-207 -227 -9 88 233 0
-207 -227 9 -88 233 0
-207 -227 9 88 -233 0
-207 -227 -10 -89 -234 0
-207 -227 -10 89 234 0
-207 -227 10 -89 234 0
-207 -227 10 89 -234 0
-207 -227 -11 -90 -235 0
-207 -227 -11 90 235 0
-207 -227 11 -90 235 0
-207 -227 11 90 -235 0
-207 -227 -12 -91 -236 0
-207 -227 -12 91 236 0
-207 -227 12 -91 236 0
-207 -227 12 91 -236 0
-207 -227 -13 -92 -237 0
-207 -227 -13 92 237 0
-207 -227 13 -92 237 0
-207 -227 13 92 -237 0
-207 -227 -14 -93 -238 0
-207 -227 -14 93 238 0
-207 -227 14 -93 238 0
-207 -227 14 93 -238 0
-207 -228 -8 -112 -232 0
-207 -228 -8 112 232 0
-207 -228 8 -112 232 0
-207 -228 8 112 -232 0
-207 -228 -9 -113 -233 0
-207 -228 -9 113 233 0
-207 -228 9 -113 233 0
-207 -228 9 113 -233 0
-207 -228 -10 -114 -234 0
-207 -228 -10 114 234 0
-207 -228 10 -114 234 0
-207 -228 10 114 -234 0
-207 -228 -11 -115 -235 0
-207 -228 -11 115 235 0
-207 -228 11 -115 235 0
-207 -228 11 115 -235 0
-207 -228 -12 -116 -236 0
-207 -228 -12 116 236 0
-207 -228 12 -116 236 0
-207 -228 12 116 -236 0
-207 -228 -13 -117 -237 0
-207 -228 -13 117 237 0
-207 -228 13 -117 237 0
-207 -228 13 117 -237 0
-207 -228 -14 -118 -238 0
-207 -228 -14 118 238 0
-207 -228 14 -118 238 0
-207 -228 14 118 -238 0
-207 -229 -8 -139 -232 0
-207 -229 -8 139 232 0
-207 -229 8 -139 232 0
-207 -229 8 139 -232 0
-207 -229 -9 -140 -233 0
-207 -229 -9 140 233 0
-207 -229 9 -140 233 0
-207 -229 9 140 -233 0
-207 -229 -10 -141 -234 0
-207 -229 -10 141 234 0
-207 -229 10 -141 234 0
-207 -229 10 141 -234 0
-207 -229 -11 -142 -235 0
-207 -229 -11 142 235 0
-207 -229 11 -142 235 0
-207 -229 11 142 -235 0
-207 -229 -12 -143 -236 0
-207 -229 -12 143 236 0
-207 -229 12 -143 236 0
-207 -229 12 143 -236 0
-207 -229 -13 -144 -237 0
-207 -229 -13 144 237 0
-207 -229 13 -144 237 0
-207 -229 13 144 -237 0
-207 -229 -14 -145 -238 0
-207 -229 -14 145 238 0
-207 -229 14 -145 238 0
-207 -229 14 145 -238 0
-207 -230 -8 -168 -232 0
-207 -230 -8 168 232 0
-207 -230 8 -168 232 0
-207 -230 8 168 -232 0
-207 -230 -9 -169 -233 0
-207 -230 -9 169 233 0
-207 -230 9 -169 233 0
-207 -230 9 169 -233 0
-207 -230 -10 -170 -234 0
-207 -230 -10 170 234 0
-207 -230 10 -170 234 0
-207 -230 10 170 -234 0
-207 -230 -11 -171 -235 0
-207 -230 -11 171 235 0
-207 -230 11 -171 235 0
-207 -230 11 171 -235 0
-207 -230 -12 -172 -236 0
-207 -230 -12 172 236 0
-207 -230 12 -172 236 0
-207 -230 12 172 -236 0
-207 -230 -13 -173 -237 0
-207 -230 -13 173 237 0
-207 -230 13 -173 237 0
-207 -230 13 173 -237 0
-207 -230 -14 -174 -238 0
-207 -230 -14 174 238 0
-207 -230 14 -174 238 0
-207 -230 14 174 -238 0
-207 -231 -8 -199 -232 0
-207 -231 -8 199 232 0
-207 -231 8 -199 232 0
-207 -231 8 199 -232 0
-207 -231 -9 -200 -233 0
-207 -231 -9 200 233 0
-207 -231 9 -200 233 0
-207 -231 9 200 -233 0
-207 -231 -10 -201 -234 0
-207 -231 -10 201 234 0
-207 -231 10 -201 234 0
-207 -231 10 201 -234 0
-207 -231 -11 -202 -235 0
-207 -231 -11 202 235 0
-207 -231 11 -202 235 0
-207 -231 11 202 -235 0
-207 -231 -12 -203 -236 0
-207 -231 -12 203 236 0
-207 -231 12 -203 236 0
-207 -231 12 203 -236 0
-207 -231 -13 -204 -237 0
-207 -231 -13 204 237 0
-207 -231 13 -204 237 0
-207 -231 13 204 -237 0
-207 -231 -14 -205 -238 0
-207 -231 -14 205 238 0
-207 -231 14 -205 238 0
-207 -231 14 205 -238 0
-208 -222 -15 -22 -232 0
-208 -222 -15 22 232 0
-208 -222 15 -22 232 0
-208 -222 15 22 -232 0
-208 -222 -16 -23 -233 0
-208 -222 -16 23 233 0
-208 -222 16 -23 233 0
-208 -222 16 23 -233 0
-208 -222 -17 -24 -234 0
-208 -222 -17 24 234 0
-208 -222 17 -24 234 0
-208 -222 17 24 -234 0
-208 -222 -18 -25 -235 0
-208 -222 -18 25 235 0
-208 -222 18 -25 235 0
-208 -222 18 25 -235 0
-208 -222 -19 -26 -236 0
-208 -222 -19 26 236 0
-208 -222 19 -26 236 0
-208 -222 19 26 -236 0
-208 -222 -20 -27 -237 0
-208 -222 -20 27 237 0
-208 -222 20 -27 237 0
-208 -222 20 27 -237 0
-208 -222 -21 -28 -238 0
-208 -222 -21 28 238 0
-208 -222 21 -28 238 0
-208 -222 21 28 -238 0
-208 -223 -15 -29 -232 0
-208 -223 -15 29 232 0
-208 -223 15 -29 232 0
-208 -223 15 29 -232 0
-208 -223 -16 -30 -233 0
-208 -223 -16 30 233 0
-208 -223 16 -30 233 0
-208 -223 16 30 -233 0
-208 -223 -17 -31 -234 0
-208 -223 -17 31 234 0
-208 -223 17 -31 234 0
-208 -223 17 31 -234 0
-208 -223 -18 -32 -235 0
-208 -223 -18 32 235 0
-208 -223 18 -32 235 0
-208 -223 18 32 -235 0
-208 -223 -19 -33 -236 0
-208 -223 -19 33 236 0
-208 -223 19 -33 236 0
-208 -223 19 33 -236 0
-208 -223 -20 -34 -237 0
-208 -223 -20 34 237 0
-208 -223 20 -34 237 0
-208 -223 20 34 -237 0
-208 -223 -21 -35 -238 0
-208 -223 -21 35 238 0
-208 -223 21 -35 238 0
-208 -223 21 35 -238 0
-208 -224 -15 -36 -232 0
-208 -224 -15 36 232 0
-208 -224 15 -36 232 0
-208 -224 15 36 -232 0
-208 -224 -16 -37 -233 0
-208 -224 -16 37 233 0
-208 -224 16 -37 233 0
-208 -224 16 37 -233 0
-208 -224 -17 -38 -234 0
-208 -224 -17 38 234 0
-208 -224 17 -38 234 0
-208 -224 17 38 -234 0
-208 -224 -18 -39 -235 0
-208 -224 -18 39 235 0
-208 -224 18 -39 235 0
-208 -224 18 39 -235 0
-208 -224 -19 -40 -236 0
-208 -224 -19 40 236 0
-208 -224 19 -40 236 0
-208 -224 19 40 -236 0
-208 -224 -20 -41 -237 0
-208 -224 -20 41 237 0
-208 -224 20 -41 237 0
-208 -224 20 41 -237 0
-208 -224 -21 -42 -238 0
-208 -224 -21 42 238 0
-208 -224 21 -42 238 0
-208 -224 21 42 -238 0
-208 -225 -15 -43 -232 0
-208 -225 -15 43 232 0
-208 -225 15 -43 232 0
-208 -225 15 43 -232 0
-208 -225 -16 -44 -233 0
-208 -225 -16 44 233 0
-208 -225 16 -44 233 0
-208 -225 16 44 -233 0
-208 -225 -17 -45 -234 0
-208 -225 -17 45 234 0
-208 -225 17 -45 234 0
-208 -225 17 45 -234 0
-208 -225 -18 -46 -235 0
-208 -225 -18 46 235 0
-208 -225 18 -46 235 0
-208 -225 18 46 -235 0
-208 -225 -19 -47 -236 0
-208 -225 -19 47 236 0
-208 -225 19 -47 236 0
-208 -225 19 47 -236 0
-208 -225 -20 -48 -237 0
-208 -225 -20 48 237 0
-208 -225 20 -48 237 0
-208 -225 20 48 -237 0
-208 -225 -21 -49 -238 0
-208 -225 -21 49 238 0
-208 -225 21 -49 238 0
-208 -225 21 49 -238 0
-208 -226 -15 -64 -232 0
-208 -226 -15 64 232 0
-208 -226 15 -64 232 0
-208 -226 15 64 -232 0
-208 -226 -16 -65 -233 0
-208 -226 -16 65 233 0
-208 -226 16 -65 233 0
-208 -226 16 65 -233 0
-208 -226 -17 -66 -234 0
-208 -226 -17 66 234 0
-208 -226 17 -66 234 0
-208 -226 17 66 -234 0
-208 -226 -18 -67 -235 0
-208 -226 -18 67 235 0
-208 -226 18 -67 235 0
-208 -226 18 67 -235 0
-208 -226 -19 -68 -236 0
-208 -226 -19 68 236 0
-208 -226 19 -68 236 0
-208 -226 19 68 -236 0
-208 -226 -20 -69 -237 0
-208 -226 -20 69 237 0
-208 -226 20 -69 237 0
-208 -226 20 69 -237 0
-208 -226 -21 -70 -238 0
-208 -226 -21 70 238 0
-208 -226 21 -70 238 0
-208 -226 21 70 -238 0
-208 -227 -15 -87 -232 0
-208 -227 -15 87 232 0
-208 -227 15 -87 232 0
-208 -227 15 87 -232 0
-208 -227 -16 -88 -233 0
-208 -227 -16 88 233 0
-208 -227 16 -88 233 0
-208 -227 16 88 -233 0
-208 -227 -17 -89 -234 0
-208 -227 -17 89 234 0
-208 -227 17 -89 234 0
-208 -227 17 89 -234 0
-208 -227 -18 -90 -235 0
-208 -227 -18 90 235 0
-208 -227 18 -90 235 0
-208 -227 18 90 -235 0
-208 -227 -19 -91 -236 0
-208 -227 -19 91 236 0
-208 -227 19 -91 236 0
-208 -227 19 91 -236 0
-208 -227 -20 -92 -237 0
-208 -227 -20 92 237 0
-208 -227 20 -92 237 0
-208 -227 20 92 -237 0
-208 -227 -21 -93 -238 0
-208 -227 -21 93 238 0
-208 -227 21 -93 238 0
-208 -227 21 93 -238 0
-208 -228 -15 -112 -232 0
-208 -228 -15 112 232 0
-208 -228 15 -112 232 0
-208 -228 15 112 -232 0
-208 -228 -16 -113 -233 0
-208 -228 -16 113 233 0
-208 -228 16 -113 233 0
-208 -228 16 113 -233 0
-208 -228 -17 -114 -234 0
-208 -228 -17 114 234 0
-208 -228 17 -114 234 0
-208 -228 17 114 -234 0
-208 -228 -18 -115 -235 0
-208 -228 -18 115 235 0
-208 -228 18 -115 235 0
-208 -228 18 115 -235 0
-208 -228 -19 -116 -236 0
-208 -228 -19 116 236 0
-208 -228 19 -116 236 0
-208 -228 19 116 -236 0
-208 -228 -20 -117 -237 0
-208 -228 -20 117 237 0
-208 -228 20 -117 237 0
-208 -228 20 117 -237 0
-208 -228 -21 -118 -238 0
-208 -228 -21 118 238 0
-208 -228 21 -118 238 0
-208 -228 21 118 -238 0
-208 -229 -15 -139 -232 0
-208 -229 -15 139 232 0
-208 -229 15 -139 232 0
-208 -229 15 139 -232 0
-208 -229 -16 -140 -233 0
-208 -229 -16 140 233 0
-208 -229 16 -140 233 0
-208 -229 16 140 -233 0
-208 -229 -17 -141 -234 0
-208 -229 -17 141 234 0
-208 -229 17 -141 234 0
-208 -229 17 141 -234 0
-208 -229 -18 -142 -235 0
-208 -229 -18 142 235 0
-208 -229 18 -142 235 0
-208 -229 18 142 -235 0
-208 -229 -19 -143 -236 0
-208 -229 -19 143 236 0
-208 -229 19 -143 236 0
-208 -229 19 143 -236 0
-208 -229 -20 -144 -237 0
-208 -229 -20 144 237 0
-208 -229 20 -144 237 0
-208 -229 20 144 -237 0
-208 -229 -21 -145 -238 0
-208 -229 -21 145 238 0
-208 -229 21 -145 238 0
-208 -229 21 145 -238 0
-208 -230 -15 -168 -232 0
-208 -230 -15 168 232 0
-208 -230 15 -168 232 0
-208 -230 15 168 -232 0
-208 -230 -16 -169 -233 0
-208 -230 -16 169 233 0
-208 -230 16 -169 233 0
-208 -230 16 169 -233 0
-208 -230 -17 -170 -234 0
-208 -230 -17 170 234 0
-208 -230 17 -170 234 0
-208 -230 17 170 -234 0
-208 -230 -18 -171 -235 0
-208 -230 -18 171 235 0
-208 -230 18 -171 235 0
-208 -230 18 171 -235 0
-208 -230 -19 -172 -236 0
-208 -230 -19 172 236 0
-208 -230 19 -172 236 0
-208 -230 19 172 -236 0
-208 -230 -20 -173 -237 0
-208 -230 -20 173 237 0
-208 -230 20 -173 237 0
-208 -230 20 173 -237 0
-208 -230 -21 -174 -238 0
-208 -230 -21 174 238 0
-208 -230 21 -174 238 0
-208 -230 21 174 -238 0
-208 -231 -15 -199 -232 0
-208 -231 -15 199 232 0
-208 -231 15 -199 232 0
-208 -231 15 199 -232 0
-208 -231 -16 -200 -233 0
-208 -231 -16 200 233 0
-208 -231 16 -200 233 0
-208 -231 16 200 -233 0
-208 -231 -17 -201 -234 0
-208 -231 -17 201 234 0
-208 -231 17 -201 234 0
-208 -231 17 201 -234 0
-208 -231 -18 -202 -235 0
-208 -231 -18 202 235 0
-208 -231 18 -202 235 0
-208 -231 18 202 -235 0
-208 -231 -19 -203 -236 0
-208 -231 -19 203 236 0
-208 -231 19 -203 236 0
-208 -231 19 203 -236 0
-208 -231 -20 -204 -237 0
-208 -231 -20 204 237 0
-208 -231 20 -204 237 0
-208 -231 20 204 -237 0
-208 -231 -21 -205 -238 0
-208 -231 -21 205 238 0
-208 -231 21 -205 238 0
-208 -231 21 205 -238 0
-209 -223 -22 -29 -232 0
-209 -223 -22 29 232 0
-209 -223 22 -29 232 0
-209 -223 22 29 -232 0
-209 -223 -23 -30 -233 0
-209 -223 -23 30 233 0
-209 -223 23 -30 233 0
-209 -223 23 30 -233 0
-209 -223 -24 -31 -234 0
-209 -223 -24 31 234 0
-209 -223 24 -31 234 0
-209 -223 24 31 -234 0
-209 -223 -25 -32 -235 0
-209 -223 -25 32 235 0
-209 -223 25 -32 235 0
-209 -223 25 32 -235 0
-209 -223 -26 -33 -236 0
-209 -223 -26 33 236 0
-209 -223 26 -33 236 0
-209 -223 26 33 -236 0
-209 -223 -27 -34 -237 0
-209 -223 -27 34 237 0
-209 -223 27 -34 237 0
-209 -223 27 34 -237 0
-209 -223 -28 -35 -238 0
-209 -223 -28 35 238 0
-209 -223 28 -35 238 0
-209 -223 28 35 -238 0
-209 -224 -22 -36 -232 0
-209 -224 -22 36 232 0
-209 -224 22 -36 232 0
-209 -224 22 36 -232 0
-209 -224 -23 -37 -233 0
-209 -224 -23 37 233 0
-209 -224 23 -37 233 0
-209 -224 23 37 -233 0
-209 -224 -24 -38 -234 0
-209 -224 -24 38 234 0
-209 -224 24 -38 234 0
-209 -224 24 38 -234 0
-209 -224 -25 -39 -235 0
-209 -224 -25 39 235 0
-209 -224 25 -39 235 0
-209 -224 25 39 -235 0
-209 -224 -26 -40 -236 0
-209 -224 -26 40 236 0
-209 -224 26 -40 236 0
-209 -224 26 40 -236 0
-209 -224 -27 -41 -237 0
-209 -224 -27 41 237 0
-209 -224 27 -41 237 0
-209 -224 27 41 -237 0
-209 -224 -28 -42 -238 0
-209 -224 -28 42 238 0
-209 -224 28 -42 238 0
-209 -224 28 42 -238 0
-209 -225 -22 -43 -232 0
-209 -225 -22 43 232 0
-209 -225 22 -43 232 0
-209 -225 22 43 -232 0
-209 -225 -23 -44 -233 0
-209 -225 -23 44 233 0
-209 -225 23 -44 233 0
-209 -225 23 44 -233 0
-209 -225 -24 -45 -234 0
-209 -225 -24 45 234 0
-209 -225 24 -45 234 0
-209 -225 24 45 -234 0
-209 -225 -25 -46 -235 0
-209 -225 -25 46 235 0
-209 -225 25 -46 235 0
-209 -225 25 46 -235 0
-209 -225 -26 -47 -236 0
-209 -225 -26 47 236 0
-209 -225 26 -47 236 0
-209 -225 26 47 -236 0
-209 -225 -27 -48 -237 0
-209 -225 -27 48 237 0
-209 -225 27 -48 237 0
-209 -225 27 48 -237 0
-209 -225 -28 -49 -238 0
-209 -225 -28 49 238 0
-209 -225 28 -49 238 0
-209 -225 28 49 -238 0
-209 -226 -22 -64 -232 0
-209 -226 -22 64 232 0
-209 -226 22 -64 232 0
-209 -226 22 64 -232 0
-209 -226 -23 -65 -233 0
-209 -226 -23 65 233 0
-209 -226 23 -65 233 0
-209 -226 23 65 -233 0
-209 -226 -24 -66 -234 0
-209 -226 -24 66 234 0
-209 -226 24 -66 234 0
-209 -226 24 66 -234 0
-209 -226 -25 -67 -235 0
-209 -226 -25 67 235 0
-209 -226 25 -67 235 0
-209 -226 25 67 -235 0
-209 -226 -26 -68 -236 0
-209 -226 -26 68 236 0
-209 -226 26 -68 236 0
-209 -226 26 68 -236 0
-209 -226 -27 -69 -237 0
-209 -226 -27 69 237 0
-209 -226 27 -69 237 0
-209 -226 27 69 -237 0
-209 -226 -28 -70 -238 0
-209 -226 -28 70 238 0
-209 -226 28 -70 238 0
-209 -226 28 70 -238 0
-209 -227 -22 -87 -232 0
-209 -227 -22 87 232 0
-209 -227 22 -87 232 0
-209 -227 22 87 -232 0
-209 -227 -23 -88 -233 0
-209 -227 -23 88 233 0
-209 -227 23 -88 233 0
-209 -227 23 88 -233 0
-209 -227 -24 -89 -234 0
-209 -227 -24 89 234 0
-209 -227 24 -89 234 0
-209 -227 24 89 -234 0
-209 -227 -25 -90 -235 0
-209 -227 -25 90 235 0
-209 -227 25 -90 235 0
-209 -227 25 90 -235 0
-209 -227 -26 -91 -236 0
-209 -227 -26 91 236 0
-209 -227 26 -91 236 0
-209 -227 26 91 -236 0
-209 -227 -27 -92 -237 0
-209 -227 -27 92 237 0
-209 -227 27 -92 237 0
-209 -227 27 92 -237 0
-209 -227 -28 -93 -238 0
-209 -227 -28 93 238 0
-209 -227 28 -93 238 0
-209 -227 28 93 -238 0
-209 -228 -22 -112 -232 0
-209 -228 -22 112 232 0
-209 -228 22 -112 232 0
-209 -228 22 112 -232 0
-209 -228 -23 -113 -233 0
-209 -228 -23 113 233 0
-209 -228 23 -113 233 0
-209 -228 23 113 -233 0
-209 -228 -24 -114 -234 0
-209 -228 -24 114 234 0
-209 -228 24 -114 234 0
-209 -228 24 114 -234 0
-209 -228 -25 -115 -235 0
-209 -228 -25 115 235 0
-209 -228 25 -115 235 0
-209 -228 25 115 -235 0
-209 -228 -26 -116 -236 0
-209 -228 -26 116 236 0
-209 -228 26 -116 236 0
-209 -228 26 116 -236 0
-209 -228 -27 -117 -237 0
-209 -228 -27 117 237 0
-209 -228 27 -117 237 0
-209 -228 27 117 -237 0
-209 -228 -28 -118 -238 0
-209 -228 -28 118 238 0
-209 -228 28 -118 238 0
-209 -228 28 118 -238 0
-209 -229 -22 -139 -232 0
-209 -229 -22 139 232 0
-209 -229 22 -139 232 0
-209 -229 22 139 -232 0
-209 -229 -23 -140 -233 0
-209 -229 -23 140 233 0
-209 -229 23 -140 233 0
-209 -229 23 140 -233 0
-209 -229 -24 -141 -234 0
-209 -229 -24 141 234 0
-209 -229 24 -141 234 0
-209 -229 24 141 -234 0
-209 -229 -25 -142 -235 0
-209 -229 -25 142 235 0
-209 -229 25 -142 235 0
-209 -229 25 142 -235 0
-209 -229 -26 -143 -236 0
-209 -229 -26 143 236 0
-209 -229 26 -143 236 0
-209 -229 26 143 -236 0
-209 -229 -27 -144 -237 0
-209 -229 -27 144 237 0
-209 -229 27 -144 237 0
-209 -229 27 144 -237 0
-209 -229 -28 -145 -238 0
-209 -229 -28 145 238 0
-209 -229 28 -145 238 0
-209 -229 28 145 -238 0
-209 -230 -22 -168 -232 0
-209 -230 -22 168 232 0
-209 -230 22 -168 232 0
-209 -230 22 168 -232 0
-209 -230 -23 -169 -233 0
-209 -230 -23 169 233 0
-209 -230 23 -169 233 0
-209 -230 23 169 -233 0
-209 -230 -24 -170 -234 0
-209 -230 -24 170 234 0
-209 -230 24 -170 234 0
-209 -230 24 170 -234 0
-209 -230 -25 -171 -235 0
-209 -230 -25 171 235 0
-209 -230 25 -171 235 0
-209 -230 25 171 -235 0
-209 -230 -26 -172 -236 0
-209 -230 -26 172 236 0
-209 -230 26 -172 236 0
-209 -230 26 172 -236 0
-209 -230 -27 -173 -237 0
-209 -230 -27 173 237 0
-209 -230 27 -173 237 0
-209 -230 27 173 -237 0
-209 -230 -28 -174 -238 0
-209 -230 -28 174 238 0
-209 -230 28 -174 238 0
-209 -230 28 174 -238 0
-209 -231 -22 -199 -232 0
-209 -231 -22 199 232 0
-209 -231 22 -199 232 0
-209 -231 22 199 -232 0
-209 -231 -23 -200 -233 0
-209 -231 -23 200 233 0
-209 -231 23 -200 233 0
-209 -231 23 200 -233 0
-209 -231 -24 -201 -234 0
-209 -231 -24 201 234 0
-209 -231 24 -201 234 0
-209 -231 24 201 -234 0
-209 -231 -25 -202 -235 0
-209 -231 -25 202 235 0
-209 -231 25 -202 235 0
-209 -231 25 202 -235 0
-209 -231 -26 -203 -236 0
-209 -231 -26 203 236 0
-209 -231 26 -203 236 0
-209 -231 26 203 -236 0
-209 -231 -27 -204 -237 0
-209 -231 -27 204 237 0
-209 -231 27 -204 237 0
-209 -231 27 204 -237 0
-209 -231 -28 -205 -238 0
-209 -231 -28 205 238 0
-209 -231 28 -205 238 0
-209 -231 28 205 -238 0
-210 -224 -29 -36 -232 0
-210 -224 -29 36 232 0
-210 -224 29 -36 232 0
-210 -224 29 36 -232 0
-210 -224 -30 -37 -233 0
-210 -224 -30 37 233 0
-210 -224 30 -37 233 0
-210 -224 30 37 -233 0
-210 -224 -31 -38 -234 0
-210 -224 -31 38 234 0
-210 -224 31 -38 234 0
-210 -224 31 38 -234 0
-210 -224 -32 -39 -235 0
-210 -224 -32 39 235 0
-210 -224 32 -39 235 0
-210 -224 32 39 -235 0
-210 -224 -33 -40 -236 0
-210 -224 -33 40 236 0
-210 -224 33 -40 236 0
-210 -224 33 40 -236 0
-210 -224 -34 -41 -237 0
-210 -224 -34 41 237 0
-210 -224 34 -41 237 0
-210 -224 34 41 -237 0
-210 -224 -35 -42 -238 0
-210 -224 -35 42 238 0
-210 -224 35 -42 238 0
-210 -224 35 42 -238 0
-210 -225 -29 -43 -232 0
-210 -225 -29 43 232 0
-210 -225 29 -43 232 0
-210 -225 29 43 -232 0
-210 -225 -30 -44 -233 0
-210 -225 -30 44 233 0
-210 -225 30 -44 233 0
-210 -225 30 44 -233 0
-210 -225 -31 -45 -234 0
-210 -225 -31 45 234 0
-210 -225 31 -45 234 0
-210 -225 31 45 -234 0
-210 -225 -32 -46 -235 0
-210 -225 -32 46 235 0
-210 -225 32 -46 235 0
-210 -225 32 46 -235 0
-210 -225 -33 -47 -236 0
-210 -225 -33 47 236 0
-210 -225 33 -47 236 0
-210 -225 33 47 -236 0
-210 -225 -34 -48 -237 0
-210 -225 -34 48 237 0
-210 -225 34 -48 237 0
-210 -225 34 48 -237 0
-210 -225 -35 -49 -238 0
-210 -225 -35 49 238 0
-210 -225 35 -49 238 0
-210 -225 35 49 -238 0
-210 -226 -29 -64 -232 0
-210 -226 -29 64 232 0
-210 -226 29 -64 232 0
-210 -226 29 64 -232 0
-210 -226 -30 -65 -233 0
-210 -226 -30 65 233 0
-210 -226 30 -65 233 0
-210 -226 30 65 -233 0
-210 -226 -31 -66 -234 0
-210 -226 -31 66 234 0
-210 -226 31 -66 234 0
-210 -226 31 66 -234 0
-210 -226 -32 -67 -235 0
-210 -226 -32 67 235 0
-210 -226 32 -67 235 0
-210 -226 32 67 -235 0
-210 -226 -33 -68 -236 0
-210 -226 -33 68 236 0
-210 -226 33 -68 236 0
-210 -226 33 68 -236 0
-210 -226 -34 -69 -237 0
-210 -226 -34 69 237 0
-210 -226 34 -69 237 0
-210 -226 34 69 -237 0
-210 -226 -35 -70 -238 0
-210 -226 -35 70 238 0
-210 -226 35 -70 238 0
-210 -226 35 70 -238 0
-210 -227 -29 -87 -232 0
-210 -227 -29 87 232 0
-210 -227 29 -87 232 0
-210 -227 29 87 -232 0
-210 -227 -30 -88 -233 0
-210 -227 -30 88 233 0
-210 -227 30 -88 233 0
-210 -227 30 88 -233 0
-210 -227 -31 -89 -234 0
-210 -227 -31 89 234 0
-210 -227 31 -89 234 0
-210 -227 31 89 -234 0
-210 -227 -32 -90 -235 0
-210 -227 -32 90 235 0
-210 -227 32 -90 235 0
-210 -227 32 90 -235 0
-210 -227 -33 -91 -236 0
-210 -227 -33 91 236 0
-210 -227 33 -91 236 0
-210 -227 33 91 -236 0
-210 -227 -34 -92 -237 0
-210 -227 -34 92 237 0
-210 -227 34 -92 237 0
-210 -227 34 92 -237 0
-210 -227 -35 -93 -238 0
-210 -227 -35 93 238 0
-210 -227 35 -93 238 0
-210 -227 35 93 -238 0
-210 -228 -29 -112 -232 0
-210 -228 -29 112 232 0
-210 -228 29 -112 232 0
-210 -228 29 112 -232 0
-210 -228 -30 -113 -233 0
-210 -228 -30 113 233 0
-210 -228 30 -113 233 0
-210 -228 30 113 -233 0
-210 -228 -31 -114 -234 0
-210 -228 -31 114 234 0
-210 -228 31 -114 234 0
-210 -228 31 114 -234 0
-210 -228 -32 -115 -235 0
-210 -228 -32 115 235 0
-210 -228 32 -115 235 0
-210 -228 32 115 -235 0
-210 -228 -33 -116 -236 0
-210 -228 -33 116 236 0
-210 -228 33 -116 236 0
-210 -228 33 116 -236 0
-210 -228 -34 -117 -237 0
-210 -228 -34 117 237 0
-210 -228 34 -117 237 0
-210 -228 34 117 -237 0
-210 -228 -35 -118 -238 0
-210 -228 -35 118 238 0
-210 -228 35 -118 238 0
-210 -228 35 118 -238 0
-210 -229 -29 -139 -232 0
-210 -229 -29 139 232 0
-210 -229 29 -139 232 0
-210 -229 29 139 -232 0
-210 -229 -30 -140 -233 0
-210 -229 -30 140 233 0
-210 -229 30 -140 233 0
-210 -229 30 140 -233 0
-210 -229 -31 -141 -234 0
-210 -229 -31 141 234 0
-210 -229 31 -141 234 0
-210 -229 31 141 -234 0
-210 -229 -32 -142 -235 0
-210 -229 -32 142 235 0
-210 -229 32 -142 235 0
-210 -229 32 142 -235 0
-210 -229 -33 -143 -236 0
-210 -229 -33 143 236 0
-210 -229 33 -143 236 0
-210 -229 33 143 -236 0
-210 -229 -34 -144 -237 0
-210 -229 -34 144 237 0
-210 -229 34 -144 237 0
-210 -229 34 144 -237 0
-210 -229 -35 -145 -238 0
-210 -229 -35 145 238 0
-210 -229 35 -145 238 0
-210 -229 35 145 -238 0
-210 -230 -29 -168 -232 0
-210 -230 -29 168 232 0
-210 -230 29 -168 232 0
-210 -230 29 168 -232 0
-210 -230 -30 -169 -233 0
-210 -230 -30 169 233 0
-210 -230 30 -169 233 0
-210 -230 30 169 -233 0
-210 -230 -31 -170 -234 0
-210 -230 -31 170 234 0
-210 -230 31 -170 234 0
-210 -230 31 170 -234 0
-210 -230 -32 -171 -235 0
-210 -230 -32 171 235 0
-210 -230 32 -171 235 0
-210 -230 32 171 -235 0
-210 -230 -33 -172 -236 0
-210 -230 -33 172 236 0
-210 -230 33 -172 236 0
-210 -230 33 172 -236 0
-210 -230 -34 -173 -237 0
-210 -230 -34 173 237 0
-210 -230 34 -173 237 0
-210 -230 34 173 -237 0
-210 -230 -35 -174 -238 0
-210 -230 -35 174 238 0
-210 -230 35 -174 238 0
-210 -230 35 174 -238 0
-210 -231 -29 -199 -232 0
-210 -231 -29 199 232 0
-210 -231 29 -199 232 0
-210 -231 29 199 -232 0
-210 -231 -30 -200 -233 0
-210 -231 -30 200 233 0
-210 -231 30 -200 233 0
-210 -231 30 200 -233 0
-210 -231 -31 -201 -234 0
-210 -231 -31 201 234 0
-210 -231 31 -201 234 0
-210 -231 31 201 -234 0
-210 -231 -32 -202 -235 0
-210 -231 -32 202 235 0
-210 -231 32 -202 235 0
-210 -231 32 202 -235 0
-210 -231 -33 -203 -236 0
-210 -231 -33 203 236 0
-210 -231 33 -203 236 0
-210 -231 33 203 -236 0
-210 -231 -34 -204 -237 0
-210 -231 -34 204 237 0
-210 -231 34 -204 237 0
-210 -231 34 204 -237 0
-210 -231 -35 -205 -238 0
-210 -231 -35 205 238 0
-210 -231 35 -205 238 0
-210 -231 35 205 -238 0
-211 -225 -36 -43 -232 0
-211 -225 -36 43 232 0
-211 -225 36 -43 232 0
-211 -225 36 43 -232 0
-211 -225 -37 -44 -233 0
-211 -225 -37 44 233 0
-211 -225 37 -44 233 0
-211 -225 37 44 -233 0
-211 -225 -38 -45 -234 0
-211 -225 -38 45 234 0
-211 -225 38 -45 234 0
-211 -225 38 45 -234 0
-211 -225 -39 -46 -235 0
-211 -225 -39 46 235 0
-211 -225 39 -46 235 0
-211 -225 39 46 -235 0
-211 -225 -40 -47 -236 0
-211 -225 -40 47 236 0
-211 -225 40 -47 236 0
-211 -225 40 47 -236 0
-211 -225 -41 -48 -237 0
-211 -225 -41 48 237 0
-211 -225 41 -48 237 0
-211 -225 41 48 -237 0
-211 -225 -42 -49 -238 0
-211 -225 -42 49 238 0
-211 -225 42 -49 238 0
-211 -225 42 49 -238 0
-211 -226 -36 -64 -232 0
-211 -226 -36 64 232 0
-211 -226 36 -64 232 0
-211 -226 36 64 -232 0
-211 -226 -37 -65 -233 0
-211 -226 -37 65 233 0
-211 -226 37 -65 233 0
-211 -226 37 65 -233 0
-211 -226 -38 -66 -234 0
-211 -226 -38 66 234 0
-211 -226 38 -66 234 0
-211 -226 38 66 -234 0
-211 -226 -39 -67 -235 0
-211 -226 -39 67 235 0
-211 -226 39 -67 235 0
-211 -226 39 67 -235 0
-211 -226 -40 -68 -236 0
-211 -226 -40 68 236 0
-211 -226 40 -68 236 0
-211 -226 40 68 -236 0
-211 -226 -41 -69 -237 0
-211 -226 -41 69 237 0
-211 -226 41 -69 237 0
-211 -226 41 69 -237 0
-211 -226 -42 -70 -238 0
-211 -226 -42 70 238 0
-211 -226 42 -70 238 0
-211 -226 42 70 -238 0
-211 -227 -36 -87 -232 0
-211 -227 -36 87 232 0
-211 -227 36 -87 232 0
-211 -227 36 87 -232 0
-211 -227 -37 -88 -233 0
-211 -227 -37 88 233 0
-211 -227 37 -88 233 0
-211 -227 37 88 -233 0
-211 -227 -38 -89 -234 0
-211 -227 -38 89 234 0
-211 -227 38 -89 234 0
-211 -227 38 89 -234 0
-211 -227 -39 -90 -235 0
-211 -227 -39 90 235 0
-211 -227 39 -90 235 0
-211 -227 39 90 -235 0
-211 -227 -40 -91 -236 0
-211 -227 -40 91 236 0
-211 -227 40 -91 236 0
-211 -227 40 91 -236 0
-211 -227 -41 -92 -237 0
-211 -227 -41 92 237 0
-211 -227 41 -92 237 0
-211 -227 41 92 -237 0
-211 -227 -42 -93 -238 0
-211 -227 -42 93 238 0
-211 -227 42 -93 238 0
-211 -227 42 93 -238 0
-211 -228 -36 -112 -232 0
-211 -228 -36 112 232 0
-211 -228 36 -112 232 0
-211 -228 36 112 -232 0
-211 -228 -37 -113 -233 0
-211 -228 -37 113 233 0
-211 -228 37 -113 233 0
-211 -228 37 113 -233 0
-211 -228 -38 -114 -234 0
-211 -228 -38 114 234 0
-211 -228 38 -114 234 0
-211 -228 38 114 -234 0
-211 -228 -39 -115 -235 0
-211 -228 -39 115 235 0
-211 -228 39 -115 235 0
-211 -228 39 115 -235 0
-211 -228 -40 -116 -236 0
-211 -228 -40 116 236 0
-211 -228 40 -116 236 0
-211 -228 40 116 -236 0
-211 -228 -41 -117 -237 0
-211 -228 -41 117 237 0
-211 -228 41 -117 237 0
-211 -228 41 117 -237 0
-211 -228 -42 -118 -238 0
-211 -228 -42 118 238 0
-211 -228 42 -118 238 0
-211 -228 42 118 -238 0
-211 -229 -36 -139 -232 0
-211 -229 -36 139 232 0
-211 -229 36 -139 232 0
-211 -229 36 139 -232 0
-211 -229 -37 -140 -233 0
-211 -229 -37 140 233 0
-211 -229 37 -140 233 0
-211 -229 37 140 -233 0
-211 -229 -38 -141 -234 0
-211 -229 -38 141 234 0
-211 -229 38 -141 234 0
-211 -229 38 141 -234 0
-211 -229 -39 -142 -235 0
-211 -229 -39 142 235 0
-211 -229 39 -142 235 0
-211 -229 39 142 -235 0
-211 -229 -40 -143 -236 0
-211 -229 -40 143 236 0
-211 -229 40 -143 236 0
-211 -229 40 143 -236 0
-211 -229 -41 -144 -237 0
-211 -229 -41 144 237 0
-211 -229 41 -144 237 0
-211 -229 41 144 -237 0
-211 -229 -42 -145 -238 0
-211 -229 -42 145 238 0
-211 -229 42 -145 238 0
-211 -229 42 145 -238 0
-211 -230 -36 -168 -232 0
-211 -230 -36 168 232 0
-211 -230 36 -168 232 0
-211 -230 36 168 -232 0
-211 -230 -37 -169 -233 0
-211 -230 -37 169 233 0
-211 -230 37 -169 233 0
-211 -230 37 169 -233 0
-211 -230 -38 -170 -234 0
-211 -230 -38 170 234 0
-211 -230 38 -170 234 0
-211 -230 38 170 -234 0
-211 -230 -39 -171 -235 0
-211 -230 -39 171 235 0
-211 -230 39 -171 235 0
-211 -230 39 171 -235 0
-211 -230 -40 -172 -236 0
-211 -230 -40 172 236 0
-211 -230 40 -172 236 0
-211 -230 40 172 -236 0
-211 -230 -41 -173 -237 0
-211 -230 -41 173 237 0
-211 -230 41 -173 237 0
-211 -230 41 173 -237 0
-211 -230 -42 -174 -238 0
-211 -230 -42 174 238 0
-211 -230 42 -174 238 0
-211 -230 42 174 -238 0
-211 -231 -36 -199 -232 0
-211 -231 -36 199 232 0
-211 -231 36 -199 232 0
-211 -231 36 199 -232 0
-211 -231 -37 -200 -233 0
-211 -231 -37 200 233 0
-211 -231 37 -200 233 0
-211 -231 37 200 -233 0
-211 -231 -38 -201 -234 0
-211 -231 -38 201 234 0
-211 -231 38 -201 234 0
-211 -231 38 201 -234 0
-211 -231 -39 -202 -235 0
-211 -231 -39 202 235 0
-211 -231 39 -202 235 0
-211 -231 39 202 -235 0
-211 -231 -40 -203 -236 0
-211 -231 -40 203 236 0
-211 -231 40 -203 236 0
-211 -231 40 203 -236 0
-211 -231 -41 -204 -237 0
-211 -231 -41 204 237 0
-211 -231 41 -204 237 0
-211 -231 41 204 -237 0
-211 -231 -42 -205 -238 0
-211 -231 -42 205 238 0
-211 -231 42 -205 238 0
-211 -231 42 205 -238 0
-212 -226 -43 -64 -232 0
-212 -226 -43 64 232 0
-212 -226 43 -64 232 0
-212 -226 43 64 -232 0
-212 -226 -44 -65 -233 0
-212 -226 -44 65 233 0
-212 -226 44 -65 233 0
-212 -226 44 65 -233 0
-212 -226 -45 -66 -234 0
-212 -226 -45 66 234 0
-212 -226 45 -66 234 0
-212 -226 45 66 -234 0
-212 -226 -46 -67 -235 0
-212 -226 -46 67 235 0
-212 -226 46 -67 235 0
-212 -226 46 67 -235 0
-212 -226 -47 -68 -236 0
-212 -226 -47 68 236 0
-212 -226 47 -68 236 0
-212 -226 47 68 -236 0
-212 -226 -48 -69 -237 0
-212 -226 -48 69 237 0
-212 -226 48 -69 237 0
-212 -226 48 69 -237 0
-212 -226 -49 -70 -238 0
-212 -226 -49 70 238 0
-212 -226 49 -70 238 0
-212 -226 49 70 -238 0
-212 -227 -43 -87 -232 0
-212 -227 -43 87 232 0
-212 -227 43 -87 232 0
-212 -227 43 87 -232 0
-212 -227 -44 -88 -233 0
-212 -227 -44 88 233 0
-212 -227 44 -88 233 0
-212 -227 44 88 -233 0
-212 -227 -45 -89 -234 0
-212 -227 -45 89 234 0
-212 -227 45 -89 234 0
-212 -227 45 89 -234 0
-212 -227 -46 -90 -235 0
-212 -227 -46 90 235 0
-212 -227 46 -90 235 0
-212 -227 46 90 -235 0
-212 -227 -47 -91 -236 0
-212 -227 -47 91 236 0
-212 -227 47 -91 236 0
-212 -227 47 91 -236 0
-212 -227 -48 -92 -237 0
-212 -227 -48 92 237 0
-212 -227 48 -92 237 0
-212 -227 48 92 -237 0
-212 -227 -49 -93 -238 0
-212 -227 -49 93 238 0
-212 -227 49 -93 238 0
-212 -227 49 93 -238 0
-212 -228 -43 -112 -232 0
-212 -228 -43 112 232 0
-212 -228 43 -112 232 0
-212 -228 43 112 -232 0
-212 -228 -44 -113 -233 0
-212 -228 -44 113 233 0
-212 -228 44 -113 233 0
-212 -228 44 113 -233 0
-212 -228 -45 -114 -234 0
-212 -228 -45 114 234 0
-212 -228 45 -114 234 0
-212 -228 45 114 -234 0
-212 -228 -46 -115 -235 0
-212 -228 -46 115 235 0
-212 -228 46 -115 235 0
-212 -228 46 115 -235 0
-212 -228 -47 -116 -236 0
-212 -228 -47 116 236 0
-212 -228 47 -116 236 0
-212 -228 47 116 -236 0
-212 -228 -48 -117 -237 0
-212 -228 -48 117 237 0
-212 -228 48 -117 237 0
-212 -228 48 117 -237 0
-212 -228 -49 -118 -238 0
-212 -228 -49 118 238 0
-212 -228 49 -118 238 0
-212 -228 49 118 -238 0
-212 -229 -43 -139 -232 0
-212 -229 -43 139 232 0
-212 -229 43 -139 232 0
-212 -229 43 139 -232 0
-212 -229 -44 -140 -233 0
-212 -229 -44 140 233 0
-212 -229 44 -140 233 0
-212 -229 44 140 -233 0
-212 -229 -45 -141 -234 0
-212 -229 -45 141 234 0
-212 -229 45 -141 234 0
-212 -229 45 141 -234 0
-212 -229 -46 -142 -235 0
-212 -229 -46 142 235 0
-212 -229 46 -142 235 0
-212 -229 46 142 -235 0
-212 -229 -47 -143 -236 0
-212 -229 -47 143 236 0
-212 -229 47 -143 236 0
-212 -229 47 143 -236 0
-212 -229 -48 -144 -237 0
-212 -229 -48 144 237 0
-212 -229 48 -144 237 0
-212 -229 48 144 -237 0
-212 -229 -49 -145 -238 0
-212 -229 -49 145 238 0
-212 -229 49 -145 238 0
-212 -229 49 145 -238 0
-212 -230 -43 -168 -232 0
-212 -230 -43 168 232 0
-212 -230 43 -168 232 0
-212 -230 43 168 -232 0
-212 -230 -44 -169 -233 0
-212 -230 -44 169 233 0
-212 -230 44 -169 233 0
-212 -230 44 169 -233 0
-212 -230 -45 -170 -234 0
-212 -230 -45 170 234 0
-212 -230 45 -170 234 0
-212 -230 45 170 -234 0
-212 -230 -46 -171 -235 0
-212 -230 -46 171 235 0
-212 -230 46 -171 235 0
-212 -230 46 171 -235 0
-212 -230 -47 -172 -236 0
-212 -230 -47 172 236 0
-212 -230 47 -172 236 0
-212 -230 47 172 -236 0
-212 -230 -48 -173 -237 0
-212 -230 -48 173 237 0
-212 -230 48 -173 237 0
-212 -230 48 173 -237 0
-212 -230 -49 -174 -238 0
-212 -230 -49 174 238 0
-212 -230 49 -174 238 0
-212 -230 49 174 -238 0
-212 -231 -43 -199 -232 0
-212 -231 -43 199 232 0
-212 -231 43 -199 232 0
-212 -231 43 199 -232 0
-212 -231 -44 -200 -233 0
-212 -231 -44 200 233 0
-212 -231 44 -200 233 0
-212 -231 44 200 -233 0
-212 -231 -45 -201 -234 0
-212 -231 -45 201 234 0
-212 -231 45 -201 234 0
-212 -231 45 201 -234 0
-212 -231 -46 -202 -235 0
-212 -231 -46 202 235 0
-212 -231 46 -202 235 0
-212 -231 46 202 -235 0
-212 -231 -47 -203 -236 0
-212 -231 -47 203 236 0
-212 -231 47 -203 236 0
-212 -231 47 203 -236 0
-212 -231 -48 -204 -237 0
-212 -231 -48 204 237 0
-212 -231 48 -204 237 0
-212 -231 48 204 -237 0
-212 -231 -49 -205 -238 0
-212 -231 -49 205 238 0
-212 -231 49 -205 238 0
-212 -231 49 205 -238 0
-213 -227 -64 -87 -232 0
-213 -227 -64 87 232 0
-213 -227 64 -87 232 0
-213 -227 64 87 -232 0
-213 -227 -65 -88 -233 0
-213 -227 -65 88 233 0
-213 -227 65 -88 233 0
-213 -227 65 88 -233 0
-213 -227 -66 -89 -234 0
-213 -227 -66 89 234 0
-213 -227 66 -89 234 0
-213 -227 66 89 -234 0
-213 -227 -67 -90 -235 0
-213 -227 -67 90 235 0
-213 -227 67 -90 235 0
-213 -227 67 90 -235 0
-213 -227 -68 -91 -236 0
-213 -227 -68 91 236 0
-213 -227 68 -91 236 0
-213 -227 68 91 -236 0
-213 -227 -69 -92 -237 0
-213 -227 -69 92 237 0
-213 -227 69 -92 237 0
-213 -227 69 92 -237 0
-213 -227 -70 -93 -238 0
-213 -227 -70 93 238 0
-213 -227 70 -93 238 0
-213 -227 70 93 -238 0
-213 -228 -64 -112 -232 0
-213 -228 -64 112 232 0
-213 -228 64 -112 232 0
-213 -228 64 112 -232 0
-213 -228 -65 -113 -233 0
-213 -228 -65 113 233 0
-213 -228 65 -113 233 0
-213 -228 65 113 -233 0
-213 -228 -66 -114 -234 0
-213 -228 -66 114 234 0
-213 -228 66 -114 234 0
-213 -228 66 114 -234 0
-213 -228 -67 -115 -235 0
-213 -228 -67 115 235 0
-213 -228 67 -115 235 0
-213 -228 67 115 -235 0
-213 -228 -68 -116 -236 0
-213 -228 -68 116 236 0
-213 -228 68 -116 236 0
-213 -228 68 116 -236 0
-213 -228 -69 -117 -237 0
-213 -228 -69 117 237 0
-213 -228 69 -117 237 0
-213 -228 69 117 -237 0
-213 -228 -70 -118 -238 0
-213 -228 -70 118 238 0
-213 -228 70 -118 238 0
-213 -228 70 118 -238 0
-213 -229 -64 -139 -232 0
-213 -229 -64 139 232 0
-213 -229 64 -139 232 0
-213 -229 64 139 -232 0
-213 -229 -65 -140 -233 0
-213 -229 -65 140 233 0
-213 -229 65 -140 233 0
-213 -229 65 140 -233 0
-213 -229 -66 -141 -234 0
-213 -229 -66 141 234 0
-213 -229 66 -141 234 0
-213 -229 66 141 -234 0
-213 -229 -67 -142 -235 0
-213 -229 -67 142 235 0
-213 -229 67 -142 235 0
-213 -229 67 142 -235 0
-213 -229 -68 -143 -236 0
-213 -229 -68 143 236 0
-213 -229 68 -143 236 0
-213 -229 68 143 -236 0
-213 -229 -69 -144 -237 0
-213 -229 -69 144 237 0
-213 -229 69 -144 237 0
-213 -229 69 144 -237 0
-213 -229 -70 -145 -238 0
-213 -229 -70 145 238 0
-213 -229 70 -145 238 0
-213 -229 70 145 -238 0
-213 -230 -64 -168 -232 0
-213 -230 -64 168 232 0
-213 -230 64 -168 232 0
-213 -230 64 168 -232 0
-213 -230 -65 -169 -233 0
-213 -230 -65 169 233 0
-213 -230 65 -169 233 0
-213 -230 65 169 -233 0
-213 -230 -66 -170 -234 0
-213 -230 -66 170 234 0
-213 -230 66 -170 234 0
-213 -230 66 170 -234 0
-213 -230 -67 -171 -235 0
-213 -230 -67 171 235 0
-213 -230 67 -171 235 0
-213 -230 67 171 -235 0
-213 -230 -68 -172 -236 0
-213 -230 -68 172 236 0
-213 -230 68 -172 236 0
-213 -230 68 172 -236 0
-213 -230 -69 -173 -237 0
-213 -230 -69 173 237 0
-213 -230 69 -173 237 0
-213 -230 69 173 -237 0
-213 -230 -70 -174 -238 0
-213 -230 -70 174 238 0
-213 -230 70 -174 238 0
-213 -230 70 174 -238 0
-213 -231 -64 -199 -232 0
-213 -231 -64 199 232 0
-213 -231 64 -199 232 0
-213 -231 64 199 -232 0
-213 -231 -65 -200 -233 0
-213 -231 -65 200 233 0
-213 -231 65 -200 233 0
-213 -231 65 200 -233 0
-213 -231 -66 -201 -234 0
-213 -231 -66 201 234 0
-213 -231 66 -201 234 0
-213 -231 66 201 -234 0
-213 -231 -67 -202 -235 0
-213 -231 -67 202 235 0
-213 -231 67 -202 235 0
-213 -231 67 202 -235 0
-213 -231 -68 -203 -236 0
-213 -231 -68 203 236 0
-213 -231 68 -203 236 0
-213 -231 68 203 -236 0
-213 -231 -69 -204 -237 0
-213 -231 -69 204 237 0
-213 -231 69 -204 237 0
-213 -231 69 204 -237 0
-213 -231 -70 -205 -238 0
-213 -231 -70 205 238 0
-213 -231 70 -205 238 0
-213 -231 70 205 -238 0
-214 -228 -87 -112 -232 0
-214 -228 -87 112 232 0
-214 -228 87 -112 232 0
-214 -228 87 112 -232 0
-214 -228 -88 -113 -233 0
-214 -228 -88 113 233 0
-214 -228 88 -113 233 0
-214 -228 88 113 -233 0
-214 -228 -89 -114 -234 0
-214 -228 -89 114 234 0
-214 -228 89 -114 234 0
-214 -228 89 114 -234 0
-214 -228 -90 -115 -235 0
-214 -228 -90 115 235 0
-214 -228 90 -115 235 0
-214 -228 90 115 -235 0
-214 -228 -91 -116 -236 0
-214 -228 -91 116 236 0
-214 -228 91 -116 236 0
-214 -228 91 116 -236 0
-214 -228 -92 -117 -237 0
-214 -228 -92 117 237 0
-214 -228 92 -117 237 0
-214 -228 92 117 -237 0
-214 -228 -93 -118 -238 0
-214 -228 -93 118 238 0
-214 -228 93 -118 238 0
-214 -228 93 118 -238 0
-214 -229 -87 -139 -232 0
-214 -229 -87 139 232 0
-214 -229 87 -139 232 0
-214 -229 87 139 -232 0
-214 -229 -88 -140 -233 0
-214 -229 -88 140 233 0
-214 -229 88 -140 233 0
-214 -229 88 140 -233 0
-214 -229 -89 -141 -234 0
-214 -229 -89 141 234 0
-214 -229 89 -141 234 0
-214 -229 89 141 -234 0
-214 -229 -90 -142 -235 0
-214 -229 -90 142 235 0
-214 -229 90 -142 235 0
-214 -229 90 142 -235 0
-214 -229 -91 -143 -236 0
-214 -229 -91 143 236 0
-214 -229 91 -143 236 0
-214 -229 91 143 -236 0
-214 -229 -92 -144 -237 0
-214 -229 -92 144 237 0
-214 -229 92 -144 237 0
-214 -229 92 144 -237 0
-214 -229 -93 -145 -238 0
-214 -229 -93 145 238 0
-214 -229 93 -145 238 0
-214 -229 93 145 -238 0
-214 -230 -87 -168 -232 0
-214 -230 -87 168 232 0
-214 -230 87 -168 232 0
-214 -230 87 168 -232 0
-214 -230 -88 -169 -233 0
-214 -230 -88 169 233 0
-214 -230 88 -169 233 0
-214 -230 88 169 -233 0
-214 -230 -89 -170 -234 0
-214 -230 -89 170 234 0
-214 -230 89 -170 234 0
-214 -230 89 170 -234 0
-214 -230 -90 -171 -235 0
-214 -230 -90 171 235 0
-214 -230 90 -171 235 0
-214 -230 90 171 -235 0
-214 -230 -91 -172 -236 0
-214 -230 -91 172 236 0
-214 -230 91 -172 236 0
-214 -230 91 172 -236 0
-214 -230 -92 -173 -237 0
-214 -230 -92 173 237 0
-214 -230 92 -173 237 0
-214 -230 92 173 -237 0
-214 -230 -93 -174 -238 0
-214 -230 -93 174 238 0
-214 -230 93 -174 238 0
-214 -230 93 174 -238 0
-214 -231 -87 -199 -232 0
-214 -231 -87 199 232 0
-214 -231 87 -199 232 0
-214 -231 87 199 -232 0
-214 -231 -88 -200 -233 0
-214 -231 -88 200 233 0
-214 -231 88 -200 233 0
-214 -231 88 200 -233 0
-214 -231 -89 -201 -234 0
-214 -231 -89 201 234 0
-214 -231 89 -201 234 0
-214 -231 89 201 -234 0
-214 -231 -90 -202 -235 0
-214 -231 -90 202 235 0
-214 -231 90 -202 235 0
-214 -231 90 202 -235 0
-214 -231 -91 -203 -236 0
-214 -231 -91 203 236 0
-214 -231 91 -203 236 0
-214 -231 91 203 -236 0
-214 -231 -92 -204 -237 0
-214 -231 -92 204 237 0
-214 -231 92 -204 237 0
-214 -231 92 204 -237 0
-214 -231 -93 -205 -238 0
-214 -231 -93 205 238 0
-214 -231 93 -205 238 0
-214 -231 93 205 -238 0
-215 -229 -112 -139 -232 0
-215 -229 -112 139 232 0
-215 -229 112 -139 232 0
-215 -229 112 139 -232 0
-215 -229 -113 -140 -233 0
-215 -229 -113 140 233 0
-215 -229 113 -140 233 0
-215 -229 113 140 -233 0
-215 -229 -114 -141 -234 0
-215 -229 -114 141 234 0
-215 -229 114 -141 234 0
-215 -229 114 141 -234 0
-215 -229 -115 -142 -235 0
-215 -229 -115 142 235 0
-215 -229 115 -142 235 0
-215 -229 115 142 -235 0
-215 -229 -116 -143 -236 0
-215 -229 -116 143 236 0
-215 -229 116 -143 236 0
-215 -229 116 143 -236 0
-215 -229 -117 -144 -237 0
-215 -229 -117 144 237 0
-215 -229 117 -144 237 0
-215 -229 117 144 -237 0
-215 -229 -118 -145 -238 0
-215 -229 -118 145 238 0
-215 -229 118 -145 238 0
-215 -229 118 145 -238 0
-215 -230 -112 -168 -232 0
-215 -230 -112 168 232 0
-215 -230 112 -168 232 0
-215 -230 112 168 -232 0
-215 -230 -113 -169 -233 0
-215 -230 -113 169 233 0
-215 -230 113 -169 233 0
-215 -230 113 169 -233 0
-215 -230 -114 -170 -234 0
-215 -230 -114 170 234 0
-215 -230 114 -170 234 0
-215 -230 114 170 -234 0
-215 -230 -115 -171 -235 0
-215 -230 -115 171 235 0
-215 -230 115 -171 235 0
-215 -230 115 171 -235 0
-215 -230 -116 -172 -236 0
-215 -230 -116 172 236 0
-215 -230 116 -172 236 0
-215 -230 116 172 -236 0
-215 -230 -117 -173 -237 0
-215 -230 -117 173 237 0
-215 -230 117 -173 237 0
-215 -230 117 173 -237 0
-215 -230 -118 -174 -238 0
-215 -230 -118 174 238 0
-215 -230 118 -174 238 0
-215 -230 118 174 -238 0
-215 -231 -112 -199 -232 0
-215 -231 -112 199 232 0
-215 -231 112 -199 232 0
-215 -231 112 199 -232 0
-215 -231 -113 -200 -233 0
-215 -231 -113 200 233 0
-215 -231 113 -200 233 0
-215 -231 113 200 -233 0
-215 -231 -114 -201 -234 0
-215 -231 -114 201 234 0
-215 -231 114 -201 234 0
-215 -231 114 201 -234 0
-215 -231 -115 -202 -235 0
-215 -231 -115 202 235 0
-215 -231 115 -202 235 0
-215 -231 115 202 -235 0
-215 -231 -116 -203 -236 0
-215 -231 -116 203 236 0
-215 -231 116 -203 236 0
-215 -231 116 203 -236 0
-215 -231 -117 -204 -237 0
-215 -231 -117 204 237 0
-215 -231 117 -204 237 0
-215 -231 117 204 -237 0
-215 -231 -118 -205 -238 0
-215 -231 -118 205 238 0
-215 -231 118 -205 238 0
-215 -231 118 205 -238 0
-216 -230 -139 -168 -232 0
-216 -230 -139 168 232 0
-216 -230 139 -168 232 0
-216 -230 139 168 -232 0
-216 -230 -140 -169 -233 0
-216 -230 -140 169 233 0
-216 -230 140 -169 233 0
-216 -230 140 169 -233 0
-216 -230 -141 -170 -234 0
-216 -230 -141 170 234 0
-216 -230 141 -170 234 0
-216 -230 141 170 -234 0
-216 -230 -142 -171 -235 0
-216 -230 -142 171 235 0
-216 -230 142 -171 235 0
-216 -230 142 171 -235 0
-216 -230 -143 -172 -236 0
-216 -230 -143 172 236 0
-216 -230 143 -172 236 0
-216 -230 143 172 -236 0
-216 -230 -144 -173 -237 0
-216 -230 -144 173 237 0
-216 -230 144 -173 237 0
-216 -230 144 173 -237 0
-216 -230 -145 -174 -238 0
-216 -230 -145 174 238 0
-216 -230 145 -174 238 0
-216 -230 145 174 -238 0
-216 -231 -139 -199 -232 0
-216 -231 -139 199 232 0
-216 -231 139 -199 232 0
-216 -231 139 199 -232 0
-216 -231 -140 -200 -233 0
-216 -231 -140 200 233 0
-216 -231 140 -200 233 0
-216 -231 140 200 -233 0
-216 -231 -141 -201 -234 0
-216 -231 -141 201 234 0
-216 -231 141 -201 234 0
-216 -231 141 201 -234 0
-216 -231 -142 -202 -235 0
-216 -231 -142 202 235 0
-216 -231 142 -202 235 0
-216 -231 142 202 -235 0
-216 -231 -143 -203 -236 0
-216 -231 -143 203 236 0
-216 -231 143 -203 236 0
-216 -231 143 203 -236 0
-216 -231 -144 -204 -237 0
-216 -231 -144 204 237 0
-216 -231 144 -204 237 0
-216 -231 144 204 -237 0
-216 -231 -145 -205 -238 0
-216 -231 -145 205 238 0
-216 -231 145 -205 238 0
-216 -231 145 205 -238 0
-217 -231 -168 -199 -232 0
-217 -231 -168 199 232 0
-217 -231 168 -199 232 0
-217 -231 168 199 -232 0
-217 -231 -169 -200 -233 0
-217 -231 -169 200 233 0
-217 -231 169 -200 233 0
-217 -231 169 200 -233 0
-217 -231 -170 -201 -234 0
-217 -231 -170 201 234 0
-217 -231 170 -201 234 0
-217 -231 170 201 -234 0
-217 -231 -171 -202 -235 0
-217 -231 -171 202 235 0
-217 -231 171 -202 235 0
-217 -231 171 202 -235 0
-217 -231 -172 -203 -236 0
-217 -231 -172 203 236 0
-217 -231 172 -203 236 0
-217 -231 172 203 -236 0
-217 -231 -173 -204 -237 0
-217 -231 -173 204 237 0
-217 -231 173 -204 237 0
-217 -231 173 204 -237 0
-217 -231 -174 -205 -238 0
-217 -231 -174 205 238 0
-217 -231 174 -205 238 0
-217 -231 174 205 -238 0
232 233 234 235 236 237 238 0
239 240 241 242 243 244 245 246 247 248 249 250 251 252 0
-239 -240 0
-239 -241 0
-239 -242 0
-239 -243 0
-239 -244 0
-239 -245 0
-239 -246 0
-239 -247 0
-239 -248 0
-239 -249 0
-239 -250 0
-239 -251 0
-239 -252 0
-240 -241 0
-240 -242 0
-240 -243 0
-240 -244 0
-240 -245 0
-240 -246 0
-240 -247 0
-240 -248 0
-240 -249 0
-240 -250 0
-240 -251 0
-240 -252 0
-241 -242 0
-241 -243 0
-241 -244 0
-241 -245 0
-241 -246 0
-241 -247 0
-241 -248 0
-241 -249 0
-241 -250 0
-241 -251 0
-241 -252 0
-242 -243 0
-242 -244 0
-242 -245 0
-242 -246 0
-242 -247 0
-242 -248 0
-242 -249 0
-242 -250 0
-242 -251 0
-242 -252 0
-243 -244 0
-243 -245 0
-243 -246 0
-243 -247 0
-243 -248 0
-243 -249 0
-243 -250 0
-243 -251 0
-243 -252 0
-244 -245 0
-244 -246 0
-244 -247 0
-244 -248 0
-244 -249 0
-244 -250 0
-244 -251 0
-244 -252 0
-245 -246 0
-245 -247 0
-245 -248 0
-245 -249 0
-245 -250 0
-245 -251 0
-245 -252 0
-246 -247 0
-246 -248 0
-246 -249 0
-246 -250 0
-246 -251 0
-246 -252 0
-247 -248 0
-247 -249 0
-247 -250 0
-247 -251 0
-247 -252 0
-248 -249 0
-248 -250 0
-248 -251 0
-248 -252 0
-249 -250 0
-249 -251 0
-249 -252 0
-250 -251 0
-250 -252 0
-251 -252 0
253 254 255 256 257 258 259 260 261 262 263 264 265 266 0
-253 -254 0
-253 -255 0
-253 -256 0
-253 -257 0
-253 -258 0
-253 -259 0
-253 -260 0
-253 -261 0
-253 -262 0
-253 -263 0
-253 -264 0
-253 -265 0
-253 -266 0
-254 -255 0
-254 -256 0
-254 -257 0
-254 -258 0
-254 -259 0
-254 -260 0
-254 -261 0
-254 -262 0
-254 -263 0
-254 -264 0
-254 -265 0
-254 -266 0
-255 -256 0
-255 -257 0
-255 -258 0
-255 -259 0
-255 -260 0
-255 -261 0
-255 -262 0
-255 -263 0
-255 -264 0
-255 -265 0
-255 -266 0
-256 -257 0
-256 -258 0
-256 -259 0
-256 -260 0
-256 -261 0
-256 -262 0
-256 -263 0
-256 -264 0
-256 -265 0
-256 -266 0
-257 -258 0
-257 -259 0
-257 -260 0
-257 -261 0
-257 -262 0
-257 -263 0
-257 -264 0
-257 -265 0
-257 -266 0
-258 -259 0
-258 -260 0
-258 -261 0
-258 -262 0
-258 -263 0
-258 -264 0
-258 -265 0
-258 -266 0
-259 -260 0
-259 -261 0
-259 -262 0
-259 -263 0
-259 -264 0
-259 -265 0
-259 -266 0
-260 -261 0
-260 -262 0
-260 -263 0
-260 -264 0
-260 -265 0
-260 -266 0
-261 -262 0
-261 -263 0
-261 -264 0
-261 -265 0
-261 -266 0
-262 -263 0
-262 -264 0
-262 -265 0
-262 -266 0
-263 -264 0
-263 -265 0
-263 -266 0
-264 -265 0
-264 -266 0
-265 -266 0
-239 -253 0
-240 -253 0
-240 -254 0
-241 -253 0
-241 -254 0
-241 -255 0
-242 -253 0
-242 -254 0
-242 -255 0
-242 -256 0
-243 -253 0
-243 -254 0
-243 -255 0
-243 -256 0
-243 -257 0
-244 -253 0
-244 -254 0
-244 -255 0
-244 -256 0
-244 -257 0
-244 -258 0
-245 -253 0
-245 -254 0
-245 -255 0
-245 -256 0
-245 -257 0
-245 -258 0
-245 -259 0
-246 -253 0
-246 -254 0
-246 -255 0
-246 -256 0
-246 -257 0
-246 -258 0
-246 -259 0
-246 -260 0
-247 -253 0
-247 -254 0
-247 -255 0
-247 -256 0
-247 -257 0
-247 -258 0
-247 -259 0
-247 -260 0
-247 -261 0
-248 -253 0
-248 -254 0
-248 -255 0
-248 -256 0
-248 -257 0
-248 -258 0
-248 -259 0
-248 -260 0
-248 -261 0
-248 -262 0
-249 -253 0
-249 -254 0
-249 -255 0
-249 -256 0
-249 -257 0
-249 -258 0
-249 -259 0
-249 -260 0
-249 -261 0
-249 -262 0
-249 -263 0
-250 -253 0
-250 -254 0
-250 -255 0
-250 -256 0
-250 -257 0
-250 -258 0
-250 -259 0
-250 -260 0
-250 -261 0
-250 -262 0
-250 -263 0
-250 -264 0
-251 -253 0
-251 -254 0
-251 -255 0
-251 -256 0
-251 -257 0
-251 -258 0
-251 -259 0
-251 -260 0
-251 -261 0
-251 -262 0
-251 -263 0
-251 -264 0
-251 -265 0
-252 -253 0
-252 -254 0
-252 -255 0
-252 -256 0
-252 -257 0
-252 -258 0
-252 -259 0
-252 -260 0
-252 -261 0
-252 -262 0
-252 -263 0
-252 -264 0
-252 -265 0
-252 -266 0
-239 -254 -1 -8 -267 0
-239 -254 -1 8 267 0
-239 -254 1 -8 267 0
-239 -254 1 8 -267 0
-239 -254 -2 -9 -268 0
-239 -254 -2 9 268 0
-239 -254 2 -9 268 0
-239 -254 2 9 -268 0
-239 -254 -3 -10 -269 0
-239 -254 -3 10 269 0
-239 -254 3 -10 269 0
-239 -254 3 10 -269 0
-239 -254 -4 -11 -270 0
-239 -254 -4 11 270 0
-239 -254 4 -11 270 0
-239 -254 4 11 -270 0
-239 -254 -5 -12 -271 0
-239 -254 -5 12 271 0
-239 -254 5 -12 271 0
-239 -254 5 12 -271 0
-239 -254 -6 -13 -272 0
-239 -254 -6 13 272 0
-239 -254 6 -13 272 0
-239 -254 6 13 -272 0
-239 -254 -7 -14 -273 0
-239 -254 -7 14 273 0
-239 -254 7 -14 273 0
-239 -254 7 14 -273 0
-239 -255 -1 -15 -267 0
-239 -255 -1 15 267 0
-239 -255 1 -15 267 0
-239 -255 1 15 -267 0
-239 -255 -2 -16 -268 0
-239 -255 -2 16 268 0
-239 -255 2 -16 268 0
-239 -255 2 16 -268 0
-239 -255 -3 -17 -269 0
-239 -255 -3 17 269 0
-239 -255 3 -17 269 0
-239 -255 3 17 -269 0
-239 -255 -4 -18 -270 0
-239 -255 -4 18 270 0
-239 -255 4 -18 270 0
-239 -255 4 18 -270 0
-239 -255 -5 -19 -271 0
-239 -255 -5 19 271 0
-239 -255 5 -19 271 0
-239 -255 5 19 -271 0
-239 -255 -6 -20 -272 0
-239 -255 -6 20 272 0
-239 -255 6 -20 272 0
-239 -255 6 20 -272 0
-239 -255 -7 -21 -273 0
-239 -255 -7 21 273 0
-239 -255 7 -21 273 0
-239 -255 7 21 -273 0
-239 -256 -1 -22 -267 0
-239 -256 -1 22 267 0
-239 -256 1 -22 267 0
-239 -256 1 22 -267 0
-239 -256 -2 -23 -268 0
-239 -256 -2 23 268 0
-239 -256 2 -23 268 0
-239 -256 2 23 -268 0
-239 -256 -3 -24 -269 0
-239 -256 -3 24 269 0
-239 -256 3 -24 269 0
-239 -256 3 24 -269 0
-239 -256 -4 -25 -270 0
-239 -256 -4 25 270 0
-239 -256 4 -25 270 0
-239 -256 4 25 -270 0
-239 -256 -5 -26 -271 0
-239 -256 -5 26 271 0
-239 -256 5 -26 271 0
-239 -256 5 26 -271 0
-239 -256 -6 -27 -272 0
-239 -256 -6 27 272 0
-239 -256 6 -27 272 0
-239 -256 6 27 -272 0
-239 -256 -7 -28 -273 0
-239 -256 -7 28 273 0
-239 -256 7 -28 273 0
-239 -256 7 28 -273 0
-239 -257 -1 -29 -267 0
-239 -257 -1 29 267 0
-239 -257 1 -29 267 0
-239 -257 1 29 -267 0
-239 -257 -2 -30 -268 0
-239 -257 -2 30 268 0
-239 -257 2 -30 268 0
-239 -257 2 30 -268 0
-239 -257 -3 -31 -269 0
-239 -257 -3 31 269 0
-239 -257 3 -31 269 0
-239 -257 3 31 -269 0
-239 -257 -4 -32 -270 0
-239 -257 -4 32 270 0
-239 -257 4 -32 270 0
-239 -257 4 32 -270 0
-239 -257 -5 -33 -271 0
-239 -257 -5 33 271 0
-239 -257 5 -33 271 0
-239 -257 5 33 -271 0
-239 -257 -6 -34 -272 0
-239 -257 -6 34 272 0
-239 -257 6 -34 272 0
-239 -257 6 34 -272 0
-239 -257 -7 -35 -273 0
-239 -257 -7 35 273 0
-239 -257 7 -35 273 0
-239 -257 7 35 -273 0
-239 -258 -1 -36 -267 0
-239 -258 -1 36 267 0
-239 -258 1 -36 267 0
-239 -258 1 36 -267 0
-239 -258 -2 -37 -268 0
-239 -258 -2 37 268 0
-239 -258 2 -37 268 0
-239 -258 2 37 -268 0
-239 -258 -3 -38 -269 0
-239 -258 -3 38 269 0
-239 -258 3 -38 269 0
-239 -258 3 38 -269 0
-239 -258 -4 -39 -270 0
-239 -258 -4 39 270 0
-239 -258 4 -39 270 0
-239 -258 4 39 -270 0
-239 -258 -5 -40 -271 0
-239 -258 -5 40 271 0
-239 -258 5 -40 271 0
-239 -258 5 40 -271 0
-239 -258 -6 -41 -272 0
-239 -258 -6 41 272 0
-239 -258 6 -41 272 0
-239 -258 6 41 -272 0
-239 -258 -7 -42 -273 0
-239 -258 -7 42 273 0
-239 -258 7 -42 273 0
-239 -258 7 42 -273 0
-239 -259 -1 -43 -267 0
-239 -259 -1 43 267 0
-239 -259 1 -43 267 0
-239 -259 1 43 -267 0
-239 -259 -2 -44 -268 0
-239 -259 -2 44 268 0
-239 -259 2 -44 268 0
-239 -259 2 44 -268 0
-239 -259 -3 -45 -269 0
-239 -259 -3 45 269 0
-239 -259 3 -45 269 0
-239 -259 3 45 -269 0
-239 -259 -4 -46 -270 0
-239 -259 -4 46 270 0
-239 -259 4 -46 270 0
-239 -259 4 46 -270 0
-239 -259 -5 -47 -271 0
-239 -259 -5 47 271 0
-239 -259 5 -47 271 0
-239 -259 5 47 -271 0
-239 -259 -6 -48 -272 0
-239 -259 -6 48 272 0
-239 -259 6 -48 272 0
-239 -259 6 48 -272 0
-239 -259 -7 -49 -273 0
-239 -259 -7 49 273 0
-239 -259 7 -49 273 0
-239 -259 7 49 -273 0
-239 -260 -1 -64 -267 0
-239 -260 -1 64 267 0
-239 -260 1 -64 267 0
-239 -260 1 64 -267 0
-239 -260 -2 -65 -268 0
-239 -260 -2 65 268 0
-239 -260 2 -65 268 0
-239 -260 2 65 -268 0
-239 -260 -3 -66 -269 0
-239 -260 -3 66 269 0
-239 -260 3 -66 269 0
-239 -260 3 66 -269 0
-239 -260 -4 -67 -270 0
-239 -260 -4 67 270 0
-239 -260 4 -67 270 0
-239 -260 4 67 -270 0
-239 -260 -5 -68 -271 0
-239 -260 -5 68 271 0
-239 -260 5 -68 271 0
-239 -260 5 68 -271 0
-239 -260 -6 -69 -272 0
-239 -260 -6 69 272 0
-239 -260 6 -69 272 0
-239 -260 6 69 -272 0
-239 -260 -7 -70 -273 0
-239 -260 -7 70 273 0
-239 -260 7 -70 273 0
-239 -260 7 70 -273 0
-239 -261 -1 -87 -267 0
-239 -261 -1 87 267 0
-239 -261 1 -87 267 0
-239 -261 1 87 -267 0
-239 -261 -2 -88 -268 0
-239 -261 -2 88 268 0
-239 -261 2 -88 268 0
-239 -261 2 88 -268 0
-239 -261 -3 -89 -269 0
-239 -261 -3 89 269 0
-239 -261 3 -89 269 0
-239 -261 3 89 -269 0
-239 -261 -4 -90 -270 0
-239 -261 -4 90 270 0
-239 -261 4 -90 270 0
-239 -261 4 90 -270 0
-239 -261 -5 -91 -271 0
-239 -261 -5 91 271 0
-239 -261 5 -91 271 0
-239 -261 5 91 -271 0
-239 -261 -6 -92 -272 0
-239 -261 -6 92 272 0
-239 -261 6 -92 272 0
-239 -261 6 92 -272 0
-239 -261 -7 -93 -273 0
-239 -261 -7 93 273 0
-239 -261 7 -93 273 0
-239 -261 7 93 -273 0
-239 -262 -1 -112 -267 0
-239 -262 -1 112 267 0
-239 -262 1 -112 267 0
-239 -262 1 112 -267 0
-239 -262 -2 -113 -268 0
-239 -262 -2 113 268 0
-239 -262 2 -113 268 0
-239 -262 2 113 -268 0
-239 -262 -3 -114 -269 0
-239 -262 -3 114 269 0
-239 -262 3 -114 269 0
-239 -262 3 114 -269 0
-239 -262 -4 -115 -270 0
-239 -262 -4 115 270 0
-239 -262 4 -115 270 0
-239 -262 4 115 -270 0
-239 -262 -5 -116 -271 0
-239 -262 -5 116 271 0
-239 -262 5 -116 271 0
-239 -262 5 116 -271 0
-239 -262 -6 -117 -272 0
-239 -262 -6 117 272 0
-239 -262 6 -117 272 0
-239 -262 6 117 -272 0
-239 -262 -7 -118 -273 0
-239 -262 -7 118 273 0
-239 -262 7 -118 273 0
-239 -262 7 118 -273 0
-239 -263 -1 -139 -267 0
-239 -263 -1 139 267 0
-239 -263 1 -139 267 0
-239 -263 1 139 -267 0
-239 -263 -2 -140 -268 0
-239 -263 -2 140 268 0
-239 -263 2 -140 268 0
-239 -263 2 140 -268 0
-239 -263 -3 -141 -269 0
-239 -263 -3 141 269 0
-239 -263 3 -141 269 0
-239 -263 3 141 -269 0
-239 -263 -4 -142 -270 0
-239 -263 -4 142 270 0
-239 -263 4 -142 270 0
-239 -263 4 142 -270 0
-239 -263 -5 -143 -271 0
-239 -263 -5 143 271 0
-239 -263 5 -143 271 0
-239 -263 5 143 -271 0
-239 -263 -6 -144 -272 0
-239 -263 -6 144 272 0
-239 -263 6 -144 272 0
-239 -263 6 144 -272 0
-239 -263 -7 -145 -273 0
-239 -263 -7 145 273 0
-239 -263 7 -145 273 0
-239 -263 7 145 -273 0
-239 -264 -1 -168 -267 0
-239 -264 -1 168 267 0
-239 -264 1 -168 267 0
-239 -264 1 168 -267 0
-239 -264 -2 -169 -268 0
-239 -264 -2 169 268 0
-239 -264 2 -169 268 0
-239 -264 2 169 -268 0
-239 -264 -3 -170 -269 0
-239 -264 -3 170 269 0
-239 -264 3 -170 269 0
-239 -264 3 170 -269 0
-239 -264 -4 -171 -270 0
-239 -264 -4 171 270 0
-239 -264 4 -171 270 0
-239 -264 4 171 -270 0
-239 -264 -5 -172 -271 0
-239 -264 -5 172 271 0
-239 -264 5 -172 271 0
-239 -264 5 172 -271 0
-239 -264 -6 -173 -272 0
-239 -264 -6 173 272 0
-239 -264 6 -173 272 0
-239 -264 6 173 -272 0
-239 -264 -7 -174 -273 0
-239 -264 -7 174 273 0
-239 -264 7 -174 273 0
-239 -264 7 174 -273 0
-239 -265 -1 -199 -267 0
-239 -265 -1 199 267 0
-239 -265 1 -199 267 0
-239 -265 1 199 -267 0
-239 -265 -2 -200 -268 0
-239 -265 -2 200 268 0
-239 -265 2 -200 268 0
-239 -265 2 200 -268 0
-239 -265 -3 -201 -269 0
-239 -265 -3 201 269 0
-239 -265 3 -201 269 0
-239 -265 3 201 -269 0
-239 -265 -4 -202 -270 0
-239 -265 -4 202 270 0
-239 -265 4 -202 270 0
-239 -265 4 202 -270 0
-239 -265 -5 -203 -271 0
-239 -265 -5 203 271 0
-239 -265 5 -203 271 0
-239 -265 5 203 -271 0
-239 -265 -6 -204 -272 0
-239 -265 -6 204 272 0
-239 -265 6 -204 272 0
-239 -265 6 204 -272 0
-239 -265 -7 -205 -273 0
-239 -265 -7 205 273 0
-239 -265 7 -205 273 0
-239 -265 7 205 -273 0
-239 -266 -1 -232 -267 0
-239 -266 -1 232 267 0
-239 -266 1 -232 267 0
-239 -266 1 232 -267 0
-239 -266 -2 -233 -268 0
-239 -266 -2 233 268 0
-239 -266 2 -233 268 0
-239 -266 2 233 -268 0
-239 -266 -3 -234 -269 0
-239 -266 -3 234 269 0
-239 -266 3 -234 269 0
-239 -266 3 234 -269 0
-239 -266 -4 -235 -270 0
-239 -266 -4 235 270 0
-239 -266 4 -235 270 0
-239 -266 4 235 -270 0
-239 -266 -5 -236 -271 0
-239 -266 -5 236 271 0
-239 -266 5 -236 271 0
-239 -266 5 236 -271 0
-239 -266 -6 -237 -272 0
-239 -266 -6 237 272 0
-239 -266 6 -237 272 0
-239 -266 6 237 -272 0
-239 -266 -7 -238 -273 0
-239 -266 -7 238 273 0
-239 -266 7 -238 273 0
-239 -266 7 238 -273 0
-240 -255 -8 -15 -267 0
-240 -255 -8 15 267 0
-240 -255 8 -15 267 0
-240 -255 8 15 -267 0
-240 -255 -9 -16 -268 0
-240 -255 -9 16 268 0
-240 -255 9 -16 268 0
-240 -255 9 16 -268 0
-240 -255 -10 -17 -269 0
-240 -255 -10 17 269 0
-240 -255 10 -17 269 0
-240 -255 10 17 -269 0
-240 -255 -11 -18 -270 0
-240 -255 -11 18 270 0
-240 -255 11 -18 270 0
-240 -255 11 18 -270 0
-240 -255 -12 -19 -271 0
-240 -255 -12 19 271 0
-240 -255 12 -19 271 0
-240 -255 12 19 -271 0
-240 -255 -13 -20 -272 0
-240 -255 -13 20 272 0
-240 -255 13 -20 272 0
-240 -255 13 20 -272 0
-240 -255 -14 -21 -273 0
-240 -255 -14 21 273 0
-240 -255 14 -21 273 0
-240 -255 14 21 -273 0
-240 -256 -8 -22 -267 0
-240 -256 -8 22 267 0
-240 -256 8 -22 267 0
-240 -256 8 22 -267 0
-240 -256 -9 -23 -268 0
-240 -256 -9 23 268 0
-240 -256 9 -23 268 0
-240 -256 9 23 -268 0
-240 -256 -10 -24 -269 0
-240 -256 -10 24 269 0
-240 -256 10 -24 269 0
-240 -256 10 24 -269 0
-240 -256 -11 -25 -270 0
-240 -256 -11 25 270 0
-240 -256 11 -25 270 0
-240 -256 11 25 -270 0
-240 -256 -12 -26 -271 0
-240 -256 -12 26 271 0
-240 -256 12 -26 271 0
-240 -256 12 26 -271 0
-240 -256 -13 -27 -272 0
-240 -256 -13 27 272 0
-240 -256 13 -27 272 0
-240 -256 13 27 -272 0
-240 -256 -14 -28 -273 0
-240 -256 -14 28 273 0
-240 -256 14 -28 273 0
-240 -256 14 28 -273 0
-240 -257 -8 -29 -267 0
-240 -257 -8 29 267 0
-240 -257 8 -29 267 0
-240 -257 8 29 -267 0
-240 -257 -9 -30 -268 0
-240 -257 -9 30 268 0
-240 -257 9 -30 268 0
-240 -257 9 30 -268 0
-240 -257 -10 -31 -269 0
-240 -257 -10 31 269 0
-240 -257 10 -31 269 0
-240 -257 10 31 -269 0
-240 -257 -11 -32 -270 0
-240 -257 -11 32 270 0
-240 -257 11 -32 270 0
-240 -257 11 32 -270 0
-240 -257 -12 -33 -271 0
-240 -257 -12 33 271 0
-240 -257 12 -33 271 0
-240 -257 12 33 -271 0
-240 -257 -13 -34 -272 0
-240 -257 -13 34 272 0
-240 -257 13 -34 272 0
-240 -257 13 34 -272 0
-240 -257 -14 -35 -273 0
-240 -257 -14 35 273 0
-240 -257 14 -35 273 0
-240 -257 14 35 -273 0
-240 -258 -8 -36 -267 0
-240 -258 -8 36 267 0
-240 -258 8 -36 267 0
-240 -258 8 36 -267 0
-240 -258 -9 -37 -268 0
-240 -258 -9 37 268 0
-240 -258 9 -37 268 0
-240 -258 9 37 -268 0
-240 -258 -10 -38 -269 0
-240 -258 -10 38 269 0
-240 -258 10 -38 269 0
-240 -258 10 38 -269 0
-240 -258 -11 -39 -270 0
-240 -258 -11 39 270 0
-240 -258 11 -39 270 0
-240 -258 11 39 -270 0
-240 -258 -12 -40 -271 0
-240 -258 -12 40 271 0
-240 -258 12 -40 271 0
-240 -258 12 40 -271 0
-240 -258 -13 -41 -272 0
-240 -258 -13 41 272 0
-240 -258 13 -41 272 0
-240 -258 13 41 -272 0
-240 -258 -14 -42 -273 0
-240 -258 -14 42 273 0
-240 -258 14 -42 273 0
-240 -258 14 42 -273 0
-240 -259 -8 -43 -267 0
-240 -259 -8 43 267 0
-240 -259 8 -43 267 0
-240 -259 8 43 -267 0
-240 -259 -9 -44 -268 0
-240 -259 -9 44 268 0
-240 -259 9 -44 268 0
-240 -259 9 44 -268 0
-240 -259 -10 -45 -269 0
-240 -259 -10 45 269 0
-240 -259 10 -45 269 0
-240 -259 10 45 -269 0
-240 -259 -11 -46 -270 0
-240 -259 -11 46 270 0
-240 -259 11 -46 270 0
-240 -259 11 46 -270 0
-240 -259 -12 -47 -271 0
-240 -259 -12 47 271 0
-240 -259 12 -47 271 0
-240 -259 12 47 -271 0
-240 -259 -13 -48 -272 0
-240 -259 -13 48 272 0
-240 -259 13 -48 272 0
-240 -259 13 48 -272 0
-240 -259 -14 -49 -273 0
-240 -259 -14 49 273 0
-240 -259 14 -49 273 0
-240 -259 14 49 -273 0
-240 -260 -8 -64 -267 0
-240 -260 -8 64 267 0
-240 -260 8 -64 267 0
-240 -260 8 64 -267 0
-240 -260 -9 -65 -268 0
-240 -260 -9 65 268 0
-240 -260 9 -65 268 0
-240 -260 9 65 -268 0
-240 -260 -10 -66 -269 0
-240 -260 -10 66 269 0
-240 -260 10 -66 269 0
-240 -260 10 66 -269 0
-240 -260 -11 -67 -270 0
-240 -260 -11 67 270 0
-240 -260 11 -67 270 0
-240 -260 11 67 -270 0
-240 -260 -12 -68 -271 0
-240 -260 -12 68 271 0
-240 -260 12 -68 271 0
-240 -260 12 68 -271 0
-240 -260 -13 -69 -272 0
-240 -260 -13 69 272 0
-240 -260 13 -69 272 0
-240 -260 13 69 -272 0
-240 -260 -14 -70 -273 0
-240 -260 -14 70 273 0
-240 -260 14 -70 273 0
-240 -260 14 70 -273 0
-240 -261 -8 -87 -267 0
-240 -261 -8 87 267 0
-240 -261 8 -87 267 0
-240 -261 8 87 -267 0
-240 -261 -9 -88 -268 0
-240 -261 -9 88 268 0
-240 -261 9 -88 268 0
-240 -261 9 88 -268 0
-240 -261 -10 -89 -269 0
-240 -261 -10 89 269 0
-240 -261 10 -89 269 0
-240 -261 10 89 -269 0
-240 -261 -11 -90 -270 0
-240 -261 -11 90 270 0
-240 -261 11 -90 270 0
-240 -261 11 90 -270 0
-240 -261 -12 -91 -271 0
-240 -261 -12 91 271 0
-240 -261 12 -91 271 0
-240 -261 12 91 -271 0
-240 -261 -13 -92 -272 0
-240 -261 -13 92 272 0
-240 -261 13 -92 272 0
-240 -261 13 92 -272 0
-240 -261 -14 -93 -273 0
-240 -261 -14 93 273 0
-240 -261 14 -93 273 0
-240 -261 14 93 -273 0
-240 -262 -8 -112 -267 0
-240 -262 -8 112 267 0
-240 -262 8 -112 267 0
-240 -262 8 112 -267 0
-240 -262 -9 -113 -268 0
-240 -262 -9 113 268 0
-240 -262 9 -113 268 0
-240 -262 9 113 -268 0
-240 -262 -10 -114 -269 0
-240 -262 -10 114 269 0
-240 -262 10 -114 269 0
-240 -262 10 114 -269 0
-240 -262 -11 -115 -270 0
-240 -262 -11 115 270 0
-240 -262 11 -115 270 0
-240 -262 11 115 -270 0
-240 -262 -12 -116 -271 0
-240 -262 -12 116 271 0
-240 -262 12 -116 271 0
-240 -262 12 116 -271 0
-240 -262 -13 -117 -272 0
-240 -262 -13 117 272 0
-240 -262 13 -117 272 0
-240 -262 13 117 -272 0
-240 -262 -14 -118 -273 0
-240 -262 -14 118 273 0
-240 -262 14 -118 273 0
-240 -262 14 118 -273 0
-240 -263 -8 -139 -267 0
-240 -263 -8 139 267 0
-240 -263 8 -139 267 0
-240 -263 8 139 -267 0
-240 -263 -9 -140 -268 0
-240 -263 -9 140 268 0
-240 -263 9 -140 268 0
-240 -263 9 140 -268 0
-240 -263 -10 -141 -269 0
-240 -263 -10 141 269 0
-240 -263 10 -141 269 0
-240 -263 10 141 -269 0
-240 -263 -11 -142 -270 0
-240 -263 -11 142 270 0
-240 -263 11 -142 270 0
-240 -263 11 142 -270 0
-240 -263 -12 -143 -271 0
-240 -263 -12 143 271 0
-240 -263 12 -143 271 0
-240 -263 12 143 -271 0
-240 -263 -13 -144 -272 0
-240 -263 -13 144 272 0
-240 -263 13 -144 272 0
-240 -263 13 144 -272 0
-240 -263 -14 -145 -273 0
-240 -263 -14 145 273 0
-240 -263 14 -145 273 0
-240 -263 14 145 -273 0
-240 -264 -8 -168 -267 0
-240 -264 -8 168 267 0
-240 -264 8 -168 267 0
-240 -264 8 168 -267 0
-240 -264 -9 -169 -268 0
-240 -264 -9 169 268 0
-240 -264 9 -169 268 0
-240 -264 9 169 -268 0
-240 -264 -10 -170 -269 0
-240 -264 -10 170 269 0
-240 -264 10 -170 269 0
-240 -264 10 170 -269 0
-240 -264 -11 -171 -270 0
-240 -264 -11 171 270 0
-240 -264 11 -171 270 0
-240 -264 11 171 -270 0
-240 -264 -12 -172 -271 0
-240 -264 -12 172 271 0
-240 -264 12 -172 271 0
-240 -264 12 172 -271 0
-240 -264 -13 -173 -272 0
-240 -264 -13 173 272 0
-240 -264 13 -173 272 0
-240 -264 13 173 -272 0
-240 -264 -14 -174 -273 0
-240 -264 -14 174 273 0
-240 -264 14 -174 273 0
-240 -264 14 174 -273 0
-240 -265 -8 -199 -267 0
-240 -265 -8 199 267 0
-240 -265 8 -199 267 0
-240 -265 8 199 -267 0
-240 -265 -9 -200 -268 0
-240 -265 -9 200 268 0
-240 -265 9 -200 268 0
-240 -265 9 200 -268 0
-240 -265 -10 -201 -269 0
-240 -265 -10 201 269 0
-240 -265 10 -201 269 0
-240 -265 10 201 -269 0
-240 -265 -11 -202 -270 0
-240 -265 -11 202 270 0
-240 -265 11 -202 270 0
-240 -265 11 202 -270 0
-240 -265 -12 -203 -271 0
-240 -265 -12 203 271 0
-240 -265 12 -203 271 0
-240 -265 12 203 -271 0
-240 -265 -13 -204 -272 0
-240 -265 -13 204 272 0
-240 -265 13 -204 272 0
-240 -265 13 204 -272 0
-240 -265 -14 -205 -273 0
-240 -265 -14 205 273 0
-240 -265 14 -205 273 0
-240 -265 14 205 -273 0
-240 -266 -8 -232 -267 0
-240 -266 -8 232 267 0
-240 -266 8 -232 267 0
-240 -266 8 232 -267 0
-240 -266 -9 -233 -268 0
-240 -266 -9 233 268 0
-240 -266 9 -233 268 0
-240 -266 9 233 -268 0
-240 -266 -10 -234 -269 0
-240 -266 -10 234 269 0
-240 -266 10 -234 269 0
-240 -266 10 234 -269 0
-240 -266 -11 -235 -270 0
-240 -266 -11 235 270 0
-240 -266 11 -235 270 0
-240 -266 11 235 -270 0
-240 -266 -12 -236 -271 0
-240 -266 -12 236 271 0
-240 -266 12 -236 271 0
-240 -266 12 236 -271 0
-240 -266 -13 -237 -272 0
-240 -266 -13 237 272 0
-240 -266 13 -237 272 0
-240 -266 13 237 -272 0
-240 -266 -14 -238 -273 0
-240 -266 -14 238 273 0
-240 -266 14 -238 273 0
-240 -266 14 238 -273 0
-241 -256 -15 -22 -267 0
-241 -256 -15 22 267 0
-241 -256 15 -22 267 0
-241 -256 15 22 -267 0
-241 -256 -16 -23 -268 0
-241 -256 -16 23 268 0
-241 -256 16 -23 268 0
-241 -256 16 23 -268 0
-241 -256 -17 -24 -269 0
-241 -256 -17 24 269 0
-241 -256 17 -24 269 0
-241 -256 17 24 -269 0
-241 -256 -18 -25 -270 0
-241 -256 -18 25 270 0
-241 -256 18 -25 270 0
-241 -256 18 25 -270 0
-241 -256 -19 -26 -271 0
-241 -256 -19 26 271 0
-241 -256 19 -26 271 0
-241 -256 19 26 -271 0
-241 -256 -20 -27 -272 0
-241 -256 -20 27 272 0
-241 -256 20 -27 272 0
-241 -256 20 27 -272 0
-241 -256 -21 -28 -273 0
-241 -256 -21 28 273 0
-241 -256 21 -28 273 0
-241 -256 21 28 -273 0
-241 -257 -15 -29 -267 0
-241 -257 -15 29 267 0
-241 -257 15 -29 267 0
-241 -257 15 29 -267 0
-241 -257 -16 -30 -268 0
-241 -257 -16 30 268 0
-241 -257 16 -30 268 0
-241 -257 16 30 -268 0
-241 -257 -17 -31 -269 0
-241 -257 -17 31 269 0
-241 -257 17 -31 269 0
-241 -257 17 31 -269 0
-241 -257 -18 -32 -270 0
-241 -257 -18 32 270 0
-241 -257 18 -32 270 0
-241 -257 18 32 -270 0
-241 -257 -19 -33 -271 0
-241 -257 -19 33 271 0
-241 -257 19 -33 271 0
-241 -257 19 33 -271 0
-241 -257 -20 -34 -272 0
-241 -257 -20 34 272 0
-241 -257 20 -34 272 0
-241 -257 20 34 -272 0
-241 -257 -21 -35 -273 0
-241 -257 -21 35 273 0
-241 -257 21 -35 273 0
-241 -257 21 35 -273 0
-241 -258 -15 -36 -267 0
-241 -258 -15 36 267 0
-241 -258 15 -36 267 0
-241 -258 15 36 -267 0
-241 -258 -16 -37 -268 0
-241 -258 -16 37 268 0
-241 -258 16 -37 268 0
-241 -258 16 37 -268 0
-241 -258 -17 -38 -269 0
-241 -258 -17 38 269 0
-241 -258 17 -38 269 0
-241 -258 17 38 -269 0
-241 -258 -18 -39 -270 0
-241 -258 -18 39 270 0
-241 -258 18 -39 270 0
-241 -258 18 39 -270 0
-241 -258 -19 -40 -271 0
-241 -258 -19 40 271 0
-241 -258 19 -40 271 0
-241 -258 19 40 -271 0
-241 -258 -20 -41 -272 0
-241 -258 -20 41 272 0
-241 -258 20 -41 272 0
-241 -258 20 41 -272 0
-241 -258 -21 -42 -273 0
-241 -258 -21 42 273 0
-241 -258 21 -42 273 0
-241 -258 21 42 -273 0
-241 -259 -15 -43 -267 0
-241 -259 -15 43 267 0
-241 -259 15 -43 267 0
-241 -259 15 43 -267 0
-241 -259 -16 -44 -268 0
-241 -259 -16 44 268 0
-241 -259 16 -44 268 0
-241 -259 16 44 -268 0
-241 -259 -17 -45 -269 0
-241 -259 -17 45 269 0
-241 -259 17 -45 269 0
-241 -259 17 45 -269 0
-241 -259 -18 -46 -270 0
-241 -259 -18 46 270 0
-241 -259 18 -46 270 0
-241 -259 18 46 -270 0
-241 -259 -19 -47 -271 0
-241 -259 -19 47 271 0
-241 -259 19 -47 271 0
-241 -259 19 47 -271 0
-241 -259 -20 -48 -272 0
-241 -259 -20 48 272 0
-241 -259 20 -48 272 0
-241 -259 20 48 -272 0
-241 -259 -21 -49 -273 0
-241 -259 -21 49 273 0
-241 -259 21 -49 273 0
-241 -259 21 49 -273 0
-241 -260 -15 -64 -267 0
-241 -260 -15 64 267 0
-241 -260 15 -64 267 0
-241 -260 15 64 -267 0
-241 -260 -16 -65 -268 0
-241 -260 -16 65 268 0
-241 -260 16 -65 268 0
-241 -260 16 65 -268 0
-241 -260 -17 -66 -269 0
-241 -260 -17 66 269 0
-241 -260 17 -66 269 0
-241 -260 17 66 -269 0
-241 -260 -18 -67 -270 0
-241 -260 -18 67 270 0
-241 -260 18 -67 270 0
-241 -260 18 67 -270 0
-241 -260 -19 -68 -271 0
-241 -260 -19 68 271 0
-241 -260 19 -68 271 0
-241 -260 19 68 -271 0
-241 -260 -20 -69 -272 0
-241 -260 -20 69 272 0
-241 -260 20 -69 272 0
-241 -260 20 69 -272 0
-241 -260 -21 -70 -273 0
-241 -260 -21 70 273 0
-241 -260 21 -70 273 0
-241 -260 21 70 -273 0
-241 -261 -15 -87 -267 0
-241 -261 -15 87 267 0
-241 -261 15 -87 267 0
-241 -261 15 87 -267 0
-241 -261 -16 -88 -268 0
-241 -261 -16 88 268 0
-241 -261 16 -88 268 0
-241 -261 16 88 -268 0
-241 -261 -17 -89 -269 0
-241 -261 -17 89 269 0
-241 -261 17 -89 269 0
-241 -261 17 89 -269 0
-241 -261 -18 -90 -270 0
-241 -261 -18 90 270 0
-241 -261 18 -90 270 0
-241 -261 18 90 -270 0
-241 -261 -19 -91 -271 0
-241 -261 -19 91 271 0
-241 -261 19 -91 271 0
-241 -261 19 91 -271 0
-241 -261 -20 -92 -272 0
-241 -261 -20 92 272 0
-241 -261 20 -92 272 0
-241 -261 20 92 -272 0
-241 -261 -21 -93 -273 0
-241 -261 -21 93 273 0
-241 -261 21 -93 273 0
-241 -261 21 93 -273 0
-241 -262 -15 -112 -267 0
-241 -262 -15 112 267 0
-241 -262 15 -112 267 0
-241 -262 15 112 -267 0
-241 -262 -16 -113 -268 0
-241 -262 -16 113 268 0
-241 -262 16 -113 268 0
-241 -262 16 113 -268 0
-241 -262 -17 -114 -269 0
-241 -262 -17 114 269 0
-241 -262 17 -114 269 0
-241 -262 17 114 -269 0
-241 -262 -18 -115 -270 0
-241 -262 -18 115 270 0
-241 -262 18 -115 270 0
-241 -262 18 115 -270 0
-241 -262 -19 -116 -271 0
-241 -262 -19 116 271 0
-241 -262 19 -116 271 0
-241 -262 19 116 -271 0
-241 -262 -20 -117 -272 0
-241 -262 -20 117 272 0
-241 -262 20 -117 272 0
-241 -262 20 117 -272 0
-241 -262 -21 -118 -273 0
-241 -262 -21 118 273 0
-241 -262 21 -118 273 0
-241 -262 21 118 -273 0
-241 -263 -15 -139 -267 0
-241 -263 -15 139 267 0
-241 -263 15 -139 267 0
-241 -263 15 139 -267 0
-241 -263 -16 -140 -268 0
-241 -263 -16 140 268 0
-241 -263 16 -140 268 0
-241 -263 16 140 -268 0
-241 -263 -17 -141 -269 0
-241 -263 -17 141 269 0
-241 -263 17 -141 269 0
-241 -263 17 141 -269 0
-241 -263 -18 -142 -270 0
-241 -263 -18 142 270 0
-241 -263 18 -142 270 0
-241 -263 18 142 -270 0
-241 -263 -19 -143 -271 0
-241 -263 -19 143 271 0
-241 -263 19 -143 271 0
-241 -263 19 143 -271 0
-241 -263 -20 -144 -272 0
-241 -263 -20 144 272 0
-241 -263 20 -144 272 0
-241 -263 20 144 -272 0
-241 -263 -21 -145 -273 0
-241 -263 -21 145 273 0
-241 -263 21 -145 273 0
-241 -263 21 145 -273 0
-241 -264 -15 -168 -267 0
-241 -264 -15 168 267 0
-241 -264 15 -168 267 0
-241 -264 15 168 -267 0
-241 -264 -16 -169 -268 0
-241 -264 -16 169 268 0
-241 -264 16 -169 268 0
-241 -264 16 169 -268 0
-241 -264 -17 -170 -269 0
-241 -264 -17 170 269 0
-241 -264 17 -170 269 0
-241 -264 17 170 -269 0
-241 -264 -18 -171 -270 0
-241 -264 -18 171 270 0
-241 -264 18 -171 270 0
-241 -264 18 171 -270 0
-241 -264 -19 -172 -271 0
-241 -264 -19 172 271 0
-241 -264 19 -172 271 0
-241 -264 19 172 -271 0
-241 -264 -20 -173 -272 0
-241 -264 -20 173 272 0
-241 -264 20 -173 272 0
-241 -264 20 173 -272 0
-241 -264 -21 -174 -273 0
-241 -264 -21 174 273 0
-241 -264 21 -174 273 0
-241 -264 21 174 -273 0
-241 -265 -15 -199 -267 0
-241 -265 -15 199 267 0
-241 -265 15 -199 267 0
-241 -265 15 199 -267 0
-241 -265 -16 -200 -268 0
-241 -265 -16 200 268 0
-241 -265 16 -200 268 0
-241 -265 16 200 -268 0
-241 -265 -17 -201 -269 0
-241 -265 -17 201 269 0
-241 -265 17 -201 269 0
-241 -265 17 201 -269 0
-241 -265 -18 -202 -270 0
-241 -265 -18 202 270 0
-241 -265 18 -202 270 0
-241 -265 18 202 -270 0
-241 -265 -19 -203 -271 0
-241 -265 -19 203 271 0
-241 -265 19 -203 271 0
-241 -265 19 203 -271 0
-241 -265 -20 -204 -272 0
-241 -265 -20 204 272 0
-241 -265 20 -204 272 0
-241 -265 20 204 -272 0
-241 -265 -21 -205 -273 0
-241 -265 -21 205 273 0
-241 -265 21 -205 273 0
-241 -265 21 205 -273 0
-241 -266 -15 -232 -267 0
-241 -266 -15 232 267 0
-241 -266 15 -232 267 0
-241 -266 15 232 -267 0
-241 -266 -16 -233 -268 0
-241 -266 -16 233 268 0
-241 -266 16 -233 268 0
-241 -266 16 233 -268 0
-241 -266 -17 -234 -269 0
-241 -266 -17 234 269 0
-241 -266 17 -234 269 0
-241 -266 17 234 -269 0
-241 -266 -18 -235 -270 0
-241 -266 -18 235 270 0
-241 -266 18 -235 270 0
-241 -266 18 235 -270 0
-241 -266 -19 -236 -271 0
-241 -266 -19 236 271 0
-241 -266 19 -236 271 0
-241 -266 19 236 -271 0
-241 -266 -20 -237 -272 0
-241 -266 -20 237 272 0
-241 -266 20 -237 272 0
-241 -266 20 237 -272 0
-241 -266 -21 -238 -273 0
-241 -266 -21 238 273 0
-241 -266 21 -238 273 0
-241 -266 21 238 -273 0
-242 -257 -22 -29 -267 0
-242 -257 -22 29 267 0
-242 -257 22 -29 267 0
-242 -257 22 29 -267 0
-242 -257 -23 -30 -268 0
-242 -257 -23 30 268 0
-242 -257 23 -30 268 0
-242 -257 23 30 -268 0
-242 -257 -24 -31 -269 0
-242 -257 -24 31 269 0
-242 -257 24 -31 269 0
-242 -257 24 31 -269 0
-242 -257 -25 -32 -270 0
-242 -257 -25 32 270 0
-242 -257 25 -32 270 0
-242 -257 25 32 -270 0
-242 -257 -26 -33 -271 0
-242 -257 -26 33 271 0
-242 -257 26 -33 271 0
-242 -257 26 33 -271 0
-242 -257 -27 -34 -272 0
-242 -257 -27 34 272 0
-242 -257 27 -34 272 0
-242 -257 27 34 -272 0
-242 -257 -28 -35 -273 0
-242 -257 -28 35 273 0
-242 -257 28 -35 273 0
-242 -257 28 35 -273 0
-242 -258 -22 -36 -267 0
-242 -258 -22 36 267 0
-242 -258 22 -36 267 0
-242 -258 22 36 -267 0
-242 -258 -23 -37 -268 0
-242 -258 -23 37 268 0
-242 -258 23 -37 268 0
-242 -258 23 37 -268 0
-242 -258 -24 -38 -269 0
-242 -258 -24 38 269 0
-242 -258 24 -38 269 0
-242 -258 24 38 -269 0
-242 -258 -25 -39 -270 0
-242 -258 -25 39 270 0
-242 -258 25 -39 270 0
-242 -258 25 39 -270 0
-242 -258 -26 -40 -271 0
-242 -258 -26 40 271 0
-242 -258 26 -40 271 0
-242 -258 26 40 -271 0
-242 -258 -27 -41 -272 0
-242 -258 -27 41 272 0
-242 -258 27 -41 272 0
-242 -258 27 41 -272 0
-242 -258 -28 -42 -273 0
-242 -258 -28 42 273 0
-242 -258 28 -42 273 0
-242 -258 28 42 -273 0
-242 -259 -22 -43 -267 0
-242 -259 -22 43 267 0
-242 -259 22 -43 267 0
-242 -259 22 43 -267 0
-242 -259 -23 -44 -268 0
-242 -259 -23 44 268 0
-242 -259 23 -44 268 0
-242 -259 23 44 -268 0
-242 -259 -24 -45 -269 0
-242 -259 -24 45 269 0
-242 -259 24 -45 269 0
-242 -259 24 45 -269 0
-242 -259 -25 -46 -270 0
-242 -259 -25 46 270 0
-242 -259 25 -46 270 0
-242 -259 25 46 -270 0
-242 -259 -26 -47 -271 0
-242 -259 -26 47 271 0
-242 -259 26 -47 271 0
-242 -259 26 47 -271 0
-242 -259 -27 -48 -272 0
-242 -259 -27 48 272 0
-242 -259 27 -48 272 0
-242 -259 27 48 -272 0
-242 -259 -28 -49 -273 0
-242 -259 -28 49 273 0
-242 -259 28 -49 273 0
-242 -259 28 49 -273 0
-242 -260 -22 -64 -267 0
-242 -260 -22 64 267 0
-242 -260 22 -64 267 0
-242 -260 22 64 -267 0
-242 -260 -23 -65 -268 0
-242 -260 -23 65 268 0
-242 -260 23 -65 268 0
-242 -260 23 65 -268 0
-242 -260 -24 -66 -269 0
-242 -260 -24 66 269 0
-242 -260 24 -66 269 0
-242 -260 24 66 -269 0
-242 -260 -25 -67 -270 0
-242 -260 -25 67 270 0
-242 -260 25 -67 270 0
-242 -260 25 67 -270 0
-242 -260 -26 -68 -271 0
-242 -260 -26 68 271 0
-242 -260 26 -68 271 0
-242 -260 26 68 -271 0
-242 -260 -27 -69 -272 0
-242 -260 -27 69 272 0
-242 -260 27 -69 272 0
-242 -260 27 69 -272 0
-242 -260 -28 -70 -273 0
-242 -260 -28 70 273 0
-242 -260 28 -70 273 0
-242 -260 28 70 -273 0
-242 -261 -22 -87 -267 0
-242 -261 -22 87 267 0
-242 -261 22 -87 267 0
-242 -261 22 87 -267 0
-242 -261 -23 -88 -268 0
-242 -261 -23 88 268 0
-242 -261 23 -88 268 0
-242 -261 23 88 -268 0
-242 -261 -24 -89 -269 0
-242 -261 -24 89 269 0
-242 -261 24 -89 269 0
-242 -261 24 89 -269 0
-242 -261 -25 -90 -270 0
-242 -261 -25 90 270 0
-242 -261 25 -90 270 0
-242 -261 25 90 -270 0
-242 -261 -26 -91 -271 0
-242 -261 -26 91 271 0
-242 -261 26 -91 271 0
-242 -261 26 91 -271 0
-242 -261 -27 -92 -272 0
-242 -261 -27 92 272 0
-242 -261 27 -92 272 0
-242 -261 27 92 -272 0
-242 -261 -28 -93 -273 0
-242 -261 -28 93 273 0
-242 -261 28 -93 273 0
-242 -261 28 93 -273 0
-242 -262 -22 -112 -267 0
-242 -262 -22 112 267 0
-242 -262 22 -112 267 0
-242 -262 22 112 -267 0
-242 -262 -23 -113 -268 0
-242 -262 -23 113 268 0
-242 -262 23 -113 268 0
-242 -262 23 113 -268 0
-242 -262 -24 -114 -269 0
-242 -262 -24 114 269 0
-242 -262 24 -114 269 0
-242 -262 24 114 -269 0
-242 -262 -25 -115 -270 0
-242 -262 -25 115 270 0
-242 -262 25 -115 270 0
-242 -262 25 115 -270 0
-242 -262 -26 -116 -271 0
-242 -262 -26 116 271 0
-242 -262 26 -116 271 0
-242 -262 26 116 -271 0
-242 -262 -27 -117 -272 0
-242 -262 -27 117 272 0
-242 -262 27 -117 272 0
-242 -262 27 117 -272 0
-242 -262 -28 -118 -273 0
-242 -262 -28 118 273 0
-242 -262 28 -118 273 0
-242 -262 28 118 -273 0
-242 -263 -22 -139 -267 0
-242 -263 -22 139 267 0
-242 -263 22 -139 267 0
-242 -263 22 139 -267 0
-242 -263 -23 -140 -268 0
-242 -263 -23 140 268 0
-242 -263 23 -140 268 0
-242 -263 23 140 -268 0
-242 -263 -24 -141 -269 0
-242 -263 -24 141 269 0
-242 -263 24 -141 269 0
-242 -263 24 141 -269 0
-242 -263 -25 -142 -270 0
-242 -263 -25 142 270 0
-242 -263 25 -142 270 0
-242 -263 25 142 -270 0
-242 -263 -26 -143 -271 0
-242 -263 -26 143 271 0
-242 -263 26 -143 271 0
-242 -263 26 143 -271 0
-242 -263 -27 -144 -272 0
-242 -263 -27 144 272 0
-242 -263 27 -144 272 0
-242 -263 27 144 -272 0
-242 -263 -28 -145 -273 0
-242 -263 -28 145 273 0
-242 -263 28 -145 273 0
-242 -263 28 145 -273 0
-242 -264 -22 -168 -267 0
-242 -264 -22 168 267 0
-242 -264 22 -168 267 0
-242 -264 22 168 -267 0
-242 -264 -23 -169 -268 0
-242 -264 -23 169 268 0
-242 -264 23 -169 268 0
-242 -264 23 169 -268 0
-242 -264 -24 -170 -269 0
-242 -264 -24 170 269 0
-242 -264 24 -170 269 0
-242 -264 24 170 -269 0
-242 -264 -25 -171 -270 0
-242 -264 -25 171 270 0
-242 -264 25 -171 270 0
-242 -264 25 171 -270 0
-242 -264 -26 -172 -271 0
-242 -264 -26 172 271 0
-242 -264 26 -172 271 0
-242 -264 26 172 -271 0
-242 -264 -27 -173 -272 0
-242 -264 -27 173 272 0
-242 -264 27 -173 272 0
-242 -264 27 173 -272 0
-242 -264 -28 -174 -273 0
-242 -264 -28 174 273 0
-242 -264 28 -174 273 0
-242 -264 28 174 -273 0
-242 -265 -22 -199 -267 0
-242 -265 -22 199 267 0
-242 -265 22 -199 267 0
-242 -265 22 199 -267 0
-242 -265 -23 -200 -268 0
-242 -265 -23 200 268 0
-242 -265 23 -200 268 0
-242 -265 23 200 -268 0
-242 -265 -24 -201 -269 0
-242 -265 -24 201 269 0
-242 -265 24 -201 269 0
-242 -265 24 201 -269 0
-242 -265 -25 -202 -270 0
-242 -265 -25 202 270 0
-242 -265 25 -202 270 0
-242 -265 25 202 -270 0
-242 -265 -26 -203 -271 0
-242 -265 -26 203 271 0
-242 -265 26 -203 271 0
-242 -265 26 203 -271 0
-242 -265 -27 -204 -272 0
-242 -265 -27 204 272 0
-242 -265 27 -204 272 0
-242 -265 27 204 -272 0
-242 -265 -28 -205 -273 0
-242 -265 -28 205 273 0
-242 -265 28 -205 273 0
-242 -265 28 205 -273 0
-242 -266 -22 -232 -267 0
-242 -266 -22 232 267 0
-242 -266 22 -232 267 0
-242 -266 22 232 -267 0
-242 -266 -23 -233 -268 0
-242 -266 -23 233 268 0
-242 -266 23 -233 268 0
-242 -266 23 233 -268 0
-242 -266 -24 -234 -269 0
-242 -266 -24 234 269 0
-242 -266 24 -234 269 0
-242 -266 24 234 -269 0
-242 -266 -25 -235 -270 0
-242 -266 -25 235 270 0
-242 -266 25 -235 270 0
-242 -266 25 235 -270 0
-242 -266 -26 -236 -271 0
-242 -266 -26 236 271 0
-242 -266 26 -236 271 0
-242 -266 26 236 -271 0
-242 -266 -27 -237 -272 0
-242 -266 -27 237 272 0
-242 -266 27 -237 272 0
-242 -266 27 237 -272 0
-242 -266 -28 -238 -273 0
-242 -266 -28 238 273 0
-242 -266 28 -238 273 0
-242 -266 28 238 -273 0
-243 -258 -29 -36 -267 0
-243 -258 -29 36 267 0
-243 -258 29 -36 267 0
-243 -258 29 36 -267 0
-243 -258 -30 -37 -268 0
-243 -258 -30 37 268 0
-243 -258 30 -37 268 0
-243 -258 30 37 -268 0
-243 -258 -31 -38 -269 0
-243 -258 -31 38 269 0
-243 -258 31 -38 269 0
-243 -258 31 38 -269 0
-243 -258 -32 -39 -270 0
-243 -258 -32 39 270 0
-243 -258 32 -39 270 0
-243 -258 32 39 -270 0
-243 -258 -33 -40 -271 0
-243 -258 -33 40 271 0
-243 -258 33 -40 271 0
-243 -258 33 40 -271 0
-243 -258 -34 -41 -272 0
-243 -258 -34 41 272 0
-243 -258 34 -41 272 0
-243 -258 34 41 -272 0
-243 -258 -35 -42 -273 0
-243 -258 -35 42 273 0
-243 -258 35 -42 273 0
-243 -258 35 42 -273 0
-243 -259 -29 -43 -267 0
-243 -259 -29 43 267 0
-243 -259 29 -43 267 0
-243 -259 29 43 -267 0
-243 -259 -30 -44 -268 0
-243 -259 -30 44 268 0
-243 -259 30 -44 268 0
-243 -259 30 44 -268 0
-243 -259 -31 -45 -269 0
-243 -259 -31 45 269 0
-243 -259 31 -45 269 0
-243 -259 31 45 -269 0
-243 -259 -32 -46 -270 0
-243 -259 -32 46 270 0
-243 -259 32 -46 270 0
-243 -259 32 46 -270 0
-243 -259 -33 -47 -271 0
-243 -259 -33 47 271 0
-243 -259 33 -47 271 0
-243 -259 33 47 -271 0
-243 -259 -34 -48 -272 0
-243 -259 -34 48 272 0
-243 -259 34 -48 272 0
-243 -259 34 48 -272 0
-243 -259 -35 -49 -273 0
-243 -259 -35 49 273 0
-243 -259 35 -49 273 0
-243 -259 35 49 -273 0
-243 -260 -29 -64 -267 0
-243 -260 -29 64 267 0
-243 -260 29 -64 267 0
-243 -260 29 64 -267 0
-243 -260 -30 -65 -268 0
-243 -260 -30 65 268 0
-243 -260 30 -65 268 0
-243 -260 30 65 -268 0
-243 -260 -31 -66 -269 0
-243 -260 -31 66 269 0
-243 -260 31 -66 269 0
-243 -260 31 66 -269 0
-243 -260 -32 -67 -270 0
-243 -260 -32 67 270 0
-243 -260 32 -67 270 0
-243 -260 32 67 -270 0
-243 -260 -33 -68 -271 0
-243 -260 -33 68 271 0
-243 -260 33 -68 271 0
-243 -260 33 68 -271 0
-243 -260 -34 -69 -272 0
-243 -260 -34 69 272 0
-243 -260 34 -69 272 0
-243 -260 34 69 -272 0
-243 -260 -35 -70 -273 0
-243 -260 -35 70 273 0
-243 -260 35 -70 273 0
-243 -260 35 70 -273 0
-243 -261 -29 -87 -267 0
-243 -261 -29 87 267 0
-243 -261 29 -87 267 0
-243 -261 29 87 -267 0
-243 -261 -30 -88 -268 0
-243 -261 -30 88 268 0
-243 -261 30 -88 268 0
-243 -261 30 88 -268 0
-243 -261 -31 -89 -269 0
-243 -261 -31 89 269 0
-243 -261 31 -89 269 0
-243 -261 31 89 -269 0
-243 -261 -32 -90 -270 0
-243 -261 -32 90 270 0
-243 -261 32 -90 270 0
-243 -261 32 90 -270 0
-243 -261 -33 -91 -271 0
-243 -261 -33 91 271 0
-243 -261 33 -91 271 0
-243 -261 33 91 -271 0
-243 -261 -34 -92 -272 0
-243 -261 -34 92 272 0
-243 -261 34 -92 272 0
-243 -261 34 92 -272 0
-243 -261 -35 -93 -273 0
-243 -261 -35 93 273 0
-243 -261 35 -93 273 0
-243 -261 35 93 -273 0
-243 -262 -29 -112 -267 0
-243 -262 -29 112 267 0
-243 -262 29 -112 267 0
-243 -262 29 112 -267 0
-243 -262 -30 -113 -268 0
-243 -262 -30 113 268 0
-243 -262 30 -113 268 0
-243 -262 30 113 -268 0
-243 -262 -31 -114 -269 0
-243 -262 -31 114 269 0
-243 -262 31 -114 269 0
-243 -262 31 114 -269 0
-243 -262 -32 -115 -270 0
-243 -262 -32 115 270 0
-243 -262 32 -115 270 0
-243 -262 32 115 -270 0
-243 -262 -33 -116 -271 0
-243 -262 -33 116 271 0
-243 -262 33 -116 271 0
-243 -262 33 116 -271 0
-243 -262 -34 -117 -272 0
-243 -262 -34 117 272 0
-243 -262 34 -117 272 0
-243 -262 34 117 -272 0
-243 -262 -35 -118 -273 0
-243 -262 -35 118 273 0
-243 -262 35 -118 273 0
-243 -262 35 118 -273 0
-243 -263 -29 -139 -267 0
-243 -263 -29 139 267 0
-243 -263 29 -139 267 0
-243 -263 29 139 -267 0
-243 -263 -30 -140 -268 0
-243 -263 -30 140 268 0
-243 -263 30 -140 268 0
-243 -263 30 140 -268 0
-243 -263 -31 -141 -269 0
-243 -263 -31 141 269 0
-243 -263 31 -141 269 0
-243 -263 31 141 -269 0
-243 -263 -32 -142 -270 0
-243 -263 -32 142 270 0
-243 -263 32 -142 270 0
-243 -263 32 142 -270 0
-243 -263 -33 -143 -271 0
-243 -263 -33 143 271 0
-243 -263 33 -143 271 0
-243 -263 33 143 -271 0
-243 -263 -34 -144 -272 0
-243 -263 -34 144 272 0
-243 -263 34 -144 272 0
-243 -263 34 144 -272 0
-243 -263 -35 -145 -273 0
-243 -263 -35 145 273 0
-243 -263 35 -145 273 0
-243 -263 35 145 -273 0
-243 -264 -29 -168 -267 0
-243 -264 -29 168 267 0
-243 -264 29 -168 267 0
-243 -264 29 168 -267 0
-243 -264 -30 -169 -268 0
-243 -264 -30 169 268 0
-243 -264 30 -169 268 0
-243 -264 30 169 -268 0
-243 -264 -31 -170 -269 0
-243 -264 -31 170 269 0
-243 -264 31 -170 269 0
-243 -264 31 170 -269 0
-243 -264 -32 -171 -270 0
-243 -264 -32 171 270 0
-243 -264 32 -171 270 0
-243 -264 32 171 -270 0
-243 -264 -33 -172 -271 0
-243 -264 -33 172 271 0
-243 -264 33 -172 271 0
-243 -264 33 172 -271 0
-243 -264 -34 -173 -272 0
-243 -264 -34 173 272 0
-243 -264 34 -173 272 0
-243 -264 34 173 -272 0
-243 -264 -35 -174 -273 0
-243 -264 -35 174 273 0
-243 -264 35 -174 273 0
-243 -264 35 174 -273 0
-243 -265 -29 -199 -267 0
-243 -265 -29 199 267 0
-243 -265 29 -199 267 0
-243 -265 29 199 -267 0
-243 -265 -30 -200 -268 0
-243 -265 -30 200 268 0
-243 -265 30 -200 268 0
-243 -265 30 200 -268 0
-243 -265 -31 -201 -269 0
-243 -265 -31 201 269 0
-243 -265 31 -201 269 0
-243 -265 31 201 -269 0
-243 -265 -32 -202 -270 0
-243 -265 -32 202 270 0
-243 -265 32 -202 270 0
-243 -265 32 202 -270 0
-243 -265 -33 -203 -271 0
-243 -265 -33 203 271 0
-243 -265 33 -203 271 0
-243 -265 33 203 -271 0
-243 -265 -34 -204 -272 0
-243 -265 -34 204 272 0
-243 -265 34 -204 272 0
-243 -265 34 204 -272 0
-243 -265 -35 -205 -273 0
-243 -265 -35 205 273 0
-243 -265 35 -205 273 0
-243 -265 35 205 -273 0
-243 -266 -29 -232 -267 0
-243 -266 -29 232 267 0
-243 -266 29 -232 267 0
-243 -266 29 232 -267 0
-243 -266 -30 -233 -268 0
-243 -266 -30 233 268 0
-243 -266 30 -233 268 0
-243 -266 30 233 -268 0
-243 -266 -31 -234 -269 0
-243 -266 -31 234 269 0
-243 -266 31 -234 269 0
-243 -266 31 234 -269 0
-243 -266 -32 -235 -270 0
-243 -266 -32 235 270 0
-243 -266 32 -235 270 0
-243 -266 32 235 -270 0
-243 -266 -33 -236 -271 0
-243 -266 -33 236 271 0
-243 -266 33 -236 271 0
-243 -266 33 236 -271 0
-243 -266 -34 -237 -272 0
-243 -266 -34 237 272 0
-243 -266 34 -237 272 0
-243 -266 34 237 -272 0
-243 -266 -35 -238 -273 0
-243 -266 -35 238 273 0
-243 -266 35 -238 273 0
-243 -266 35 238 -273 0
-244 -259 -36 -43 -267 0
-244 -259 -36 43 267 0
-244 -259 36 -43 267 0
-244 -259 36 43 -267 0
-244 -259 -37 -44 -268 0
-244 -259 -37 44 268 0
-244 -259 37 -44 268 0
-244 -259 37 44 -268 0
-244 -259 -38 -45 -269 0
-244 -259 -38 45 269 0
-244 -259 38 -45 269 0
-244 -259 38 45 -269 0
-244 -259 -39 -46 -270 0
-244 -259 -39 46 270 0
-244 -259 39 -46 270 0
-244 -259 39 46 -270 0
-244 -259 -40 -47 -271 0
-244 -259 -40 47 271 0
-244 -259 40 -47 271 0
-244 -259 40 47 -271 0
-244 -259 -41 -48 -272 0
-244 -259 -41 48 272 0
-244 -259 41 -48 272 0
-244 -259 41 48 -272 0
-244 -259 -42 -49 -273 0
-244 -259 -42 49 273 0
-244 -259 42 -49 273 0
-244 -259 42 49 -273 0
-244 -260 -36 -64 -267 0
-244 -260 -36 64 267 0
-244 -260 36 -64 267 0
-244 -260 36 64 -267 0
-244 -260 -37 -65 -268 0
-244 -260 -37 65 268 0
-244 -260 37 -65 268 0
-244 -260 37 65 -268 0
-244 -260 -38 -66 -269 0
-244 -260 -38 66 269 0
-244 -260 38 -66 269 0
-244 -260 38 66 -269 0
-244 -260 -39 -67 -270 0
-244 -260 -39 67 270 0
-244 -260 39 -67 270 0
-244 -260 39 67 -270 0
-244 -260 -40 -68 -271 0
-244 -260 -40 68 271 0
-244 -260 40 -68 271 0
-244 -260 40 68 -271 0
-244 -260 -41 -69 -272 0
-244 -260 -41 69 272 0
-244 -260 41 -69 272 0
-244 -260 41 69 -272 0
-244 -260 -42 -70 -273 0
-244 -260 -42 70 273 0
-244 -260 42 -70 273 0
-244 -260 42 70 -273 0
-244 -261 -36 -87 -267 0
-244 -261 -36 87 267 0
-244 -261 36 -87 267 0
-244 -261 36 87 -267 0
-244 -261 -37 -88 -268 0
-244 -261 -37 88 268 0
-244 -261 37 -88 268 0
-244 -261 37 88 -268 0
-244 -261 -38 -89 -269 0
-244 -261 -38 89 269 0
-244 -261 38 -89 269 0
-244 -261 38 89 -269 0
-244 -261 -39 -90 -270 0
-244 -261 -39 90 270 0
-244 -261 39 -90 270 0
-244 -261 39 90 -270 0
-244 -261 -40 -91 -271 0
-244 -261 -40 91 271 0
-244 -261 40 -91 271 0
-244 -261 40 91 -271 0
-244 -261 -41 -92 -272 0
-244 -261 -41 92 272 0
-244 -261 41 -92 272 0
-244 -261 41 92 -272 0
-244 -261 -42 -93 -273 0
-244 -261 -42 93 273 0
-244 -261 42 -93 273 0
-244 -261 42 93 -273 0
-244 -262 -36 -112 -267 0
-244 -262 -36 112 267 0
-244 -262 36 -112 267 0
-244 -262 36 112 -267 0
-244 -262 -37 -113 -268 0
-244 -262 -37 113 268 0
-244 -262 37 -113 268 0
-244 -262 37 113 -268 0
-244 -262 -38 -114 -269 0
-244 -262 -38 114 269 0
-244 -262 38 -114 269 0
-244 -262 38 114 -269 0
-244 -262 -39 -115 -270 0
-244 -262 -39 115 270 0
-244 -262 39 -115 270 0
-244 -262 39 115 -270 0
-244 -262 -40 -116 -271 0
-244 -262 -40 116 271 0
-244 -262 40 -116 271 0
-244 -262 40 116 -271 0
-244 -262 -41 -117 -272 0
-244 -262 -41 117 272 0
-244 -262 41 -117 272 0
-244 -262 41 117 -272 0
-244 -262 -42 -118 -273 0
-244 -262 -42 118 273 0
-244 -262 42 -118 273 0
-244 -262 42 118 -273 0
-244 -263 -36 -139 -267 0
-244 -263 -36 139 267 0
-244 -263 36 -139 267 0
-244 -263 36 139 -267 0
-244 -263 -37 -140 -268 0
-244 -263 -37 140 268 0
-244 -263 37 -140 268 0
-244 -263 37 140 -268 0
-244 -263 -38 -141 -269 0
-244 -263 -38 141 269 0
-244 -263 38 -141 269 0
-244 -263 38 141 -269 0
-244 -263 -39 -142 -270 0
-244 -263 -39 142 270 0
-244 -263 39 -142 270 0
-244 -263 39 142 -270 0
-244 -263 -40 -143 -271 0
-244 -263 -40 143 271 0
-244 -263 40 -143 271 0
-244 -263 40 143 -271 0
-244 -263 -41 -144 -272 0
-244 -263 -41 144 272 0
-244 -263 41 -144 272 0
-244 -263 41 144 -272 0
-244 -263 -42 -145 -273 0
-244 -263 -42 145 273 0
-244 -263 42 -145 273 0
-244 -263 42 145 -273 0
-244 -264 -36 -168 -267 0
-244 -264 -36 168 267 0
-244 -264 36 -168 267 0
-244 -264 36 168 -267 0
-244 -264 -37 -169 -268 0
-244 -264 -37 169 268 0
-244 -264 37 -169 268 0
-244 -264 37 169 -268 0
-244 -264 -38 -170 -269 0
-244 -264 -38 170 269 0
-244 -264 38 -170 269 0
-244 -264 38 170 -269 0
-244 -264 -39 -171 -270 0
-244 -264 -39 171 270 0
-244 -264 39 -171 270 0
-244 -264 39 171 -270 0
-244 -264 -40 -172 -271 0
-244 -264 -40 172 271 0
-244 -264 40 -172 271 0
-244 -264 40 172 -271 0
-244 -264 -41 -173 -272 0
-244 -264 -41 173 272 0
-244 -264 41 -173 272 0
-244 -264 41 173 -272 0
-244 -264 -42 -174 -273 0
-244 -264 -42 174 273 0
-244 -264 42 -174 273 0
-244 -264 42 174 -273 0
-244 -265 -36 -199 -267 0
-244 -265 -36 199 267 0
-244 -265 36 -199 267 0
-244 -265 36 199 -267 0
-244 -265 -37 -200 -268 0
-244 -265 -37 200 268 0
-244 -265 37 -200 268 0
-244 -265 37 200 -268 0
-244 -265 -38 -201 -269 0
-244 -265 -38 201 269 0
-244 -265 38 -201 269 0
-244 -265 38 201 -269 0
-244 -265 -39 -202 -270 0
-244 -265 -39 202 270 0
-244 -265 39 -202 270 0
-244 -265 39 202 -270 0
-244 -265 -40 -203 -271 0
-244 -265 -40 203 271 0
-244 -265 40 -203 271 0
-244 -265 40 203 -271 0
-244 -265 -41 -204 -272 0
-244 -265 -41 204 272 0
-244 -265 41 -204 272 0
-244 -265 41 204 -272 0
-244 -265 -42 -205 -273 0
-244 -265 -42 205 273 0
-244 -265 42 -205 273 0
-244 -265 42 205 -273 0
-244 -266 -36 -232 -267 0
-244 -266 -36 232 267 0
-244 -266 36 -232 267 0
-244 -266 36 232 -267 0
-244 -266 -37 -233 -268 0
-244 -266 -37 233 268 0
-244 -266 37 -233 268 0
-244 -266 37 233 -268 0
-244 -266 -38 -234 -269 0
-244 -266 -38 234 269 0
-244 -266 38 -234 269 0
-244 -266 38 234 -269 0
-244 -266 -39 -235 -270 0
-244 -266 -39 235 270 0
-244 -266 39 -235 270 0
-244 -266 39 235 -270 0
-244 -266 -40 -236 -271 0
-244 -266 -40 236 271 0
-244 -266 40 -236 271 0
-244 -266 40 236 -271 0
-244 -266 -41 -237 -272 0
-244 -266 -41 237 272 0
-244 -266 41 -237 272 0
-244 -266 41 237 -272 0
-244 -266 -42 -238 -273 0
-244 -266 -42 238 273 0
-244 -266 42 -238 273 0
-244 -266 42 238 -273 0
-245 -260 -43 -64 -267 0
-245 -260 -43 64 267 0
-245 -260 43 -64 267 0
-245 -260 43 64 -267 0
-245 -260 -44 -65 -268 0
-245 -260 -44 65 268 0
-245 -260 44 -65 268 0
-245 -260 44 65 -268 0
-245 -260 -45 -66 -269 0
-245 -260 -45 66 269 0
-245 -260 45 -66 269 0
-245 -260 45 66 -269 0
-245 -260 -46 -67 -270 0
-245 -260 -46 67 270 0
-245 -260 46 -67 270 0
-245 -260 46 67 -270 0
-245 -260 -47 -68 -271 0
-245 -260 -47 68 271 0
-245 -260 47 -68 271 0
-245 -260 47 68 -271 0
-245 -260 -48 -69 -272 0
-245 -260 -48 69 272 0
-245 -260 48 -69 272 0
-245 -260 48 69 -272 0
-245 -260 -49 -70 -273 0
-245 -260 -49 70 273 0
-245 -260 49 -70 273 0
-245 -260 49 70 -273 0
-245 -261 -43 -87 -267 0
-245 -261 -43 87 267 0
-245 -261 43 -87 267 0
-245 -261 43 87 -267 0
-245 -261 -44 -88 -268 0
-245 -261 -44 88 268 0
-245 -261 44 -88 268 0
-245 -261 44 88 -268 0
-245 -261 -45 -89 -269 0
-245 -261 -45 89 269 0
-245 -261 45 -89 269 0
-245 -261 45 89 -269 0
-245 -261 -46 -90 -270 0
-245 -261 -46 90 270 0
-245 -261 46 -90 270 0
-245 -261 46 90 -270 0
-245 -261 -47 -91 -271 0
-245 -261 -47 91 271 0
-245 -261 47 -91 271 0
-245 -261 47 91 -271 0
-245 -261 -48 -92 -272 0
-245 -261 -48 92 272 0
-245 -261 48 -92 272 0
-245 -261 48 92 -272 0
-245 -261 -49 -93 -273 0
-245 -261 -49 93 273 0
-245 -261 49 -93 273 0
-245 -261 49 93 -273 0
-245 -262 -43 -112 -267 0
-245 -262 -43 112 267 0
-245 -262 43 -112 267 0
-245 -262 43 112 -267 0
-245 -262 -44 -113 -268 0
-245 -262 -44 113 268 0
-245 -262 44 -113 268 0
-245 -262 44 113 -268 0
-245 -262 -45 -114 -269 0
-245 -262 -45 114 269 0
-245 -262 45 -114 269 0
-245 -262 45 114 -269 0
-245 -262 -46 -115 -270 0
-245 -262 -46 115 270 0
-245 -262 46 -115 270 0
-245 -262 46 115 -270 0
-245 -262 -47 -116 -271 0
-245 -262 -47 116 271 0
-245 -262 47 -116 271 0
-245 -262 47 116 -271 0
-245 -262 -48 -117 -272 0
-245 -262 -48 117 272 0
-245 -262 48 -117 272 0
-245 -262 48 117 -272 0
-245 -262 -49 -118 -273 0
-245 -262 -49 118 273 0
-245 -262 49 -118 273 0
-245 -262 49 118 -273 0
-245 -263 -43 -139 -267 0
-245 -263 -43 139 267 0
-245 -263 43 -139 267 0
-245 -263 43 139 -267 0
-245 -263 -44 -140 -268 0
-245 -263 -44 140 268 0
-245 -263 44 -140 268 0
-245 -263 44 140 -268 0
-245 -263 -45 -141 -269 0
-245 -263 -45 141 269 0
-245 -263 45 -141 269 0
-245 -263 45 141 -269 0
-245 -263 -46 -142 -270 0
-245 -263 -46 142 270 0
-245 -263 46 -142 270 0
-245 -263 46 142 -270 0
-245 -263 -47 -143 -271 0
-245 -263 -47 143 271 0
-245 -263 47 -143 271 0
-245 -263 47 143 -271 0
-245 -263 -48 -144 -272 0
-245 -263 -48 144 272 0
-245 -263 48 -144 272 0
-245 -263 48 144 -272 0
-245 -263 -49 -145 -273 0
-245 -263 -49 145 273 0
-245 -263 49 -145 273 0
-245 -263 49 145 -273 0
-245 -264 -43 -168 -267 0
-245 -264 -43 168 267 0
-245 -264 43 -168 267 0
-245 -264 43 168 -267 0
-245 -264 -44 -169 -268 0
-245 -264 -44 169 268 0
-245 -264 44 -169 268 0
-245 -264 44 169 -268 0
-245 -264 -45 -170 -269 0
-245 -264 -45 170 269 0
-245 -264 45 -170 269 0
-245 -264 45 170 -269 0
-245 -264 -46 -171 -270 0
-245 -264 -46 171 270 0
-245 -264 46 -171 270 0
-245 -264 46 171 -270 0
-245 -264 -47 -172 -271 0
-245 -264 -47 172 271 0
-245 -264 47 -172 271 0
-245 -264 47 172 -271 0
-245 -264 -48 -173 -272 0
-245 -264 -48 173 272 0
-245 -264 48 -173 272 0
-245 -264 48 173 -272 0
-245 -264 -49 -174 -273 0
-245 -264 -49 174 273 0
-245 -264 49 -174 273 0
-245 -264 49 174 -273 0
-245 -265 -43 -199 -267 0
-245 -265 -43 199 267 0
-245 -265 43 -199 267 0
-245 -265 43 199 -267 0
-245 -265 -44 -200 -268 0
-245 -265 -44 200 268 0
-245 -265 44 -200 268 0
-245 -265 44 200 -268 0
-245 -265 -45 -201 -269 0
-245 -265 -45 201 269 0
-245 -265 45 -201 269 0
-245 -265 45 201 -269 0
-245 -265 -46 -202 -270 0
-245 -265 -46 202 270 0
-245 -265 46 -202 270 0
-245 -265 46 202 -270 0
-245 -265 -47 -203 -271 0
-245 -265 -47 203 271 0
-245 -265 47 -203 271 0
-245 -265 47 203 -271 0
-245 -265 -48 -204 -272 0
-245 -265 -48 204 272 0
-245 -265 48 -204 272 0
-245 -265 48 204 -272 0
-245 -265 -49 -205 -273 0
-245 -265 -49 205 273 0
-245 -265 49 -205 273 0
-245 -265 49 205 -273 0
-245 -266 -43 -232 -267 0
-245 -266 -43 232 267 0
-245 -266 43 -232 267 0
-245 -266 43 232 -267 0
-245 -266 -44 -233 -268 0
-245 -266 -44 233 268 0
-245 -266 44 -233 268 0
-245 -266 44 233 -268 0
-245 -266 -45 -234 -269 0
-245 -266 -45 234 269 0
-245 -266 45 -234 269 0
-245 -266 45 234 -269 0
-245 -266 -46 -235 -270 0
-245 -266 -46 235 270 0
-245 -266 46 -235 270 0
-245 -266 46 235 -270 0
-245 -266 -47 -236 -271 0
-245 -266 -47 236 271 0
-245 -266 47 -236 271 0
-245 -266 47 236 -271 0
-245 -266 -48 -237 -272 0
-245 -266 -48 237 272 0
-245 -266 48 -237 272 0
-245 -266 48 237 -272 0
-245 -266 -49 -238 -273 0
-245 -266 -49 238 273 0
-245 -266 49 -238 273 0
-245 -266 49 238 -273 0
-246 -261 -64 -87 -267 0
-246 -261 -64 87 267 0
-246 -261 64 -87 267 0
-246 -261 64 87 -267 0
-246 -261 -65 -88 -268 0
-246 -261 -65 88 268 0
-246 -261 65 -88 268 0
-246 -261 65 88 -268 0
-246 -261 -66 -89 -269 0
-246 -261 -66 89 269 0
-246 -261 66 -89 269 0
-246 -261 66 89 -269 0
-246 -261 -67 -90 -270 0
-246 -261 -67 90 270 0
-246 -261 67 -90 270 0
-246 -261 67 90 -270 0
-246 -261 -68 -91 -271 0
-246 -261 -68 91 271 0
-246 -261 68 -91 271 0
-246 -261 68 91 -271 0
-246 -261 -69 -92 -272 0
-246 -261 -69 92 272 0
-246 -261 69 -92 272 0
-246 -261 69 92 -272 0
-246 -261 -70 -93 -273 0
-246 -261 -70 93 273 0
-246 -261 70 -93 273 0
-246 -261 70 93 -273 0
-246 -262 -64 -112 -267 0
-246 -262 -64 112 267 0
-246 -262 64 -112 267 0
-246 -262 64 112 -267 0
-246 -262 -65 -113 -268 0
-246 -262 -65 113 268 0
-246 -262 65 -113 268 0
-246 -262 65 113 -268 0
-246 -262 -66 -114 -269 0
-246 -262 -66 114 269 0
-246 -262 66 -114 269 0
-246 -262 66 114 -269 0
-246 -262 -67 -115 -270 0
-246 -262 -67 115 270 0
-246 -262 67 -115 270 0
-246 -262 67 115 -270 0
-246 -262 -68 -116 -271 0
-246 -262 -68 116 271 0
-246 -262 68 -116 271 0
-246 -262 68 116 -271 0
-246 -262 -69 -117 -272 0
-246 -262 -69 117 272 0
-246 -262 69 -117 272 0
-246 -262 69 117 -272 0
-246 -262 -70 -118 -273 0
-246 -262 -70 118 273 0
-246 -262 70 -118 273 0
-246 -262 70 118 -273 0
-246 -263 -64 -139 -267 0
-246 -263 -64 139 267 0
-246 -263 64 -139 267 0
-246 -263 64 139 -267 0
-246 -263 -65 -140 -268 0
-246 -263 -65 140 268 0
-246 -263 65 -140 268 0
-246 -263 65 140 -268 0
-246 -263 -66 -141 -269 0
-246 -263 -66 141 269 0
-246 -263 66 -141 269 0
-246 -263 66 141 -269 0
-246 -263 -67 -142 -270 0
-246 -263 -67 142 270 0
-246 -263 67 -142 270 0
-246 -263 67 142 -270 0
-246 -263 -68 -143 -271 0
-246 -263 -68 143 271 0
-246 -263 68 -143 271 0
-246 -263 68 143 -271 0
-246 -263 -69 -144 -272 0
-246 -263 -69 144 272 0
-246 -263 69 -144 272 0
-246 -263 69 144 -272 0
-246 -263 -70 -145 -273 0
-246 -263 -70 145 273 0
-246 -263 70 -145 273 0
-246 -263 70 145 -273 0
-246 -264 -64 -168 -267 0
-246 -264 -64 168 267 0
-246 -264 64 -168 267 0
-246 -264 64 168 -267 0
-246 -264 -65 -169 -268 0
-246 -264 -65 169 268 0
-246 -264 65 -169 268 0
-246 -264 65 169 -268 0
-246 -264 -66 -170 -269 0
-246 -264 -66 170 269 0
-246 -264 66 -170 269 0
-246 -264 66 170 -269 0
-246 -264 -67 -171 -270 0
-246 -264 -67 171 270 0
-246 -264 67 -171 270 0
-246 -264 67 171 -270 0
-246 -264 -68 -172 -271 0
-246 -264 -68 172 271 0
-246 -264 68 -172 271 0
-246 -264 68 172 -271 0
-246 -264 -69 -173 -272 0
-246 -264 -69 173 272 0
-246 -264 69 -173 272 0
-246 -264 69 173 -272 0
-246 -264 -70 -174 -273 0
-246 -264 -70 174 273 0
-246 -264 70 -174 273 0
-246 -264 70 174 -273 0
-246 -265 -64 -199 -267 0
-246 -265 -64 199 267 0
-246 -265 64 -199 267 0
-246 -265 64 199 -267 0
-246 -265 -65 -200 -268 0
-246 -265 -65 200 268 0
-246 -265 65 -200 268 0
-246 -265 65 200 -268 0
-246 -265 -66 -201 -269 0
-246 -265 -66 201 269 0
-246 -265 66 -201 269 0
-246 -265 66 201 -269 0
-246 -265 -67 -202 -270 0
-246 -265 -67 202 270 0
-246 -265 67 -202 270 0
-246 -265 67 202 -270 0
-246 -265 -68 -203 -271 0
-246 -265 -68 203 271 0
-246 -265 68 -203 271 0
-246 -265 68 203 -271 0
-246 -265 -69 -204 -272 0
-246 -265 -69 204 272 0
-246 -265 69 -204 272 0
-246 -265 69 204 -272 0
-246 -265 -70 -205 -273 0
-246 -265 -70 205 273 0
-246 -265 70 -205 273 0
-246 -265 70 205 -273 0
-246 -266 -64 -232 -267 0
-246 -266 -64 232 267 0
-246 -266 64 -232 267 0
-246 -266 64 232 -267 0
-246 -266 -65 -233 -268 0
-246 -266 -65 233 268 0
-246 -266 65 -233 268 0
-246 -266 65 233 -268 0
-246 -266 -66 -234 -269 0
-246 -266 -66 234 269 0
-246 -266 66 -234 269 0
-246 -266 66 234 -269 0
-246 -266 -67 -235 -270 0
-246 -266 -67 235 270 0
-246 -266 67 -235 270 0
-246 -266 67 235 -270 0
-246 -266 -68 -236 -271 0
-246 -266 -68 236 271 0
-246 -266 68 -236 271 0
-246 -266 68 236 -271 0
-246 -266 -69 -237 -272 0
-246 -266 -69 237 272 0
-246 -266 69 -237 272 0
-246 -266 69 237 -272 0
-246 -266 -70 -238 -273 0
-246 -266 -70 238 273 0
-246 -266 70 -238 273 0
-246 -266 70 238 -273 0
-247 -262 -87 -112 -267 0
-247 -262 -87 112 267 0
-247 -262 87 -112 267 0
-247 -262 87 112 -267 0
-247 -262 -88 -113 -268 0
-247 -262 -88 113 268 0
-247 -262 88 -113 268 0
-247 -262 88 113 -268 0
-247 -262 -89 -114 -269 0
-247 -262 -89 114 269 0
-247 -262 89 -114 269 0
-247 -262 89 114 -269 0
-247 -262 -90 -115 -270 0
-247 -262 -90 115 270 0
-247 -262 90 -115 270 0
-247 -262 90 115 -270 0
-247 -262 -91 -116 -271 0
-247 -262 -91 116 271 0
-247 -262 91 -116 271 0
-247 -262 91 116 -271 0
-247 -262 -92 -117 -272 0
-247 -262 -92 117 272 0
-247 -262 92 -117 272 0
-247 -262 92 117 -272 0
-247 -262 -93 -118 -273 0
-247 -262 -93 118 273 0
-247 -262 93 -118 273 0
-247 -262 93 118 -273 0
-247 -263 -87 -139 -267 0
-247 -263 -87 139 267 0
-247 -263 87 -139 267 0
-247 -263 87 139 -267 0
-247 -263 -88 -140 -268 0
-247 -263 -88 140 268 0
-247 -263 88 -140 268 0
-247 -263 88 140 -268 0
-247 -263 -89 -141 -269 0
-247 -263 -89 141 269 0
-247 -263 89 -141 269 0
-247 -263 89 141 -269 0
-247 -263 -90 -142 -270 0
-247 -263 -90 142 270 0
-247 -263 90 -142 270 0
-247 -263 90 142 -270 0
-247 -263 -91 -143 -271 0
-247 -263 -91 143 271 0
-247 -263 91 -143 271 0
-247 -263 91 143 -271 0
-247 -263 -92 -144 -272 0
-247 -263 -92 144 272 0
-247 -263 92 -144 272 0
-247 -263 92 144 -272 0
-247 -263 -93 -145 -273 0
-247 -263 -93 145 273 0
-247 -263 93 -145 273 0
-247 -263 93 145 -273 0
-247 -264 -87 -168 -267 0
-247 -264 -87 168 267 0
-247 -264 87 -168 267 0
-247 -264 87 168 -267 0
-247 -264 -88 -169 -268 0
-247 -264 -88 169 268 0
-247 -264 88 -169 268 0
-247 -264 88 169 -268 0
-247 -264 -89 -170 -269 0
-247 -264 -89 170 269 0
-247 -264 89 -170 269 0
-247 -264 89 170 -269 0
-247 -264 -90 -171 -270 0
-247 -264 -90 171 270 0
-247 -264 90 -171 270 0
-247 -264 90 171 -270 0
-247 -264 -91 -172 -271 0
-247 -264 -91 172 271 0
-247 -264 91 -172 271 0
-247 -264 91 172 -271 0
-247 -264 -92 -173 -272 0
-247 -264 -92 173 272 0
-247 -264 92 -173 272 0
-247 -264 92 173 -272 0
-247 -264 -93 -174 -273 0
-247 -264 -93 174 273 0
-247 -264 93 -174 273 0
-247 -264 93 174 -273 0
-247 -265 -87 -199 -267 0
-247 -265 -87 199 267 0
-247 -265 87 -199 267 0
-247 -265 87 199 -267 0
-247 -265 -88 -200 -268 0
-247 -265 -88 200 268 0
-247 -265 88 -200 268 0
-247 -265 88 200 -268 0
-247 -265 -89 -201 -269 0
-247 -265 -89 201 269 0
-247 -265 89 -201 269 0
-247 -265 89 201 -269 0
-247 -265 -90 -202 -270 0
-247 -265 -90 202 270 0
-247 -265 90 -202 270 0
-247 -265 90 202 -270 0
-247 -265 -91 -203 -271 0
-247 -265 -91 203 271 0
-247 -265 91 -203 271 0
-247 -265 91 203 -271 0
-247 -265 -92 -204 -272 0
-247 -265 -92 204 272 0
-247 -265 92 -204 272 0
-247 -265 92 204 -272 0
-247 -265 -93 -205 -273 0
-247 -265 -93 205 273 0
-247 -265 93 -205 273 0
-247 -265 93 205 -273 0
-247 -266 -87 -232 -267 0
-247 -266 -87 232 267 0
-247 -266 87 -232 267 0
-247 -266 87 232 -267 0
-247 -266 -88 -233 -268 0
-247 -266 -88 233 268 0
-247 -266 88 -233 268 0
-247 -266 88 233 -268 0
-247 -266 -89 -234 -269 0
-247 -266 -89 234 269 0
-247 -266 89 -234 269 0
-247 -266 89 234 -269 0
-247 -266 -90 -235 -270 0
-247 -266 -90 235 270 0
-247 -266 90 -235 270 0
-247 -266 90 235 -270 0
-247 -266 -91 -236 -271 0
-247 -266 -91 236 271 0
-247 -266 91 -236 271 0
-247 -266 91 236 -271 0
-247 -266 -92 -237 -272 0
-247 -266 -92 237 272 0
-247 -266 92 -237 272 0
-247 -266 92 237 -272 0
-247 -266 -93 -238 -273 0
-247 -266 -93 238 273 0
-247 -266 93 -238 273 0
-247 -266 93 238 -273 0
-248 -263 -112 -139 -267 0
-248 -263 -112 139 267 0
-248 -263 112 -139 267 0
-248 -263 112 139 -267 0
-248 -263 -113 -140 -268 0
-248 -263 -113 140 268 0
-248 -263 113 -140 268 0
-248 -263 113 140 -268 0
-248 -263 -114 -141 -269 0
-248 -263 -114 141 269 0
-248 -263 114 -141 269 0
-248 -263 114 141 -269 0
-248 -263 -115 -142 -270 0
-248 -263 -115 142 270 0
-248 -263 115 -142 270 0
-248 -263 115 142 -270 0
-248 -263 -116 -143 -271 0
-248 -263 -116 143 271 0
-248 -263 116 -143 271 0
-248 -263 116 143 -271 0
-248 -263 -117 -144 -272 0
-248 -263 -117 144 272 0
-248 -263 117 -144 272 0
-248 -263 117 144 -272 0
-248 -263 -118 -145 -273 0
-248 -263 -118 145 273 0
-248 -263 118 -145 273 0
-248 -263 118 145 -273 0
-248 -264 -112 -168 -267 0
-248 -264 -112 168 267 0
-248 -264 112 -168 267 0
-248 -264 112 168 -267 0
-248 -264 -113 -169 -268 0
-248 -264 -113 169 268 0
-248 -264 113 -169 268 0
-248 -264 113 169 -268 0
-248 -264 -114 -170 -269 0
-248 -264 -114 170 269 0
-248 -264 114 -170 269 0
-248 -264 114 170 -269 0
-248 -264 -115 -171 -270 0
-248 -264 -115 171 270 0
-248 -264 115 -171 270 0
-248 -264 115 171 -270 0
-248 -264 -116 -172 -271 0
-248 -264 -116 172 271 0
-248 -264 116 -172 271 0
-248 -264 116 172 -271 0
-248 -264 -117 -173 -272 0
-248 -264 -117 173 272 0
-248 -264 117 -173 272 0
-248 -264 117 173 -272 0
-248 -264 -118 -174 -273 0
-248 -264 -118 174 273 0
-248 -264 118 -174 273 0
-248 -264 118 174 -273 0
-248 -265 -112 -199 -267 0
-248 -265 -112 199 267 0
-248 -265 112 -199 267 0
-248 -265 112 199 -267 0
-248 -265 -113 -200 -268 0
-248 -265 -113 200 268 0
-248 -265 113 -200 268 0
-248 -265 113 200 -268 0
-248 -265 -114 -201 -269 0
-248 -265 -114 201 269 0
-248 -265 114 -201 269 0
-248 -265 114 201 -269 0
-248 -265 -115 -202 -270 0
-248 -265 -115 202 270 0
-248 -265 115 -202 270 0
-248 -265 115 202 -270 0
-248 -265 -116 -203 -271 0
-248 -265 -116 203 271 0
-248 -265 116 -203 271 0
-248 -265 116 203 -271 0
-248 -265 -117 -204 -272 0
-248 -265 -117 204 272 0
-248 -265 117 -204 272 0
-248 -265 117 204 -272 0
-248 -265 -118 -205 -273 0
-248 -265 -118 205 273 0
-248 -265 118 -205 273 0
-248 -265 118 205 -273 0
-248 -266 -112 -232 -267 0
-248 -266 -112 232 267 0
-248 -266 112 -232 267 0
-248 -266 112 232 -267 0
-248 -266 -113 -233 -268 0
-248 -266 -113 233 268 0
-248 -266 113 -233 268 0
-248 -266 113 233 -268 0
-248 -266 -114 -234 -269 0
-248 -266 -114 234 269 0
-248 -266 114 -234 269 0
-248 -266 114 234 -269 0
-248 -266 -115 -235 -270 0
-248 -266 -115 235 270 0
-248 -266 115 -235 270 0
-248 -266 115 235 -270 0
-248 -266 -116 -236 -271 0
-248 -266 -116 236 271 0
-248 -266 116 -236 271 0
-248 -266 116 236 -271 0
-248 -266 -117 -237 -272 0
-248 -266 -117 237 272 0
-248 -266 117 -237 272 0
-248 -266 117 237 -272 0
-248 -266 -118 -238 -273 0
-248 -266 -118 238 273 0
-248 -266 118 -238 273 0
-248 -266 118 238 -273 0
-249 -264 -139 -168 -267 0
-249 -264 -139 168 267 0
-249 -264 139 -168 267 0
-249 -264 139 168 -267 0
-249 -264 -140 -169 -268 0
-249 -264 -140 169 268 0
-249 -264 140 -169 268 0
-249 -264 140 169 -268 0
-249 -264 -141 -170 -269 0
-249 -264 -141 170 269 0
-249 -264 141 -170 269 0
-249 -264 141 170 -269 0
-249 -264 -142 -171 -270 0
-249 -264 -142 171 270 0
-249 -264 142 -171 270 0
-249 -264 142 171 -270 0
-249 -264 -143 -172 -271 0
-249 -264 -143 172 271 0
-249 -264 143 -172 271 0
-249 -264 143 172 -271 0
-249 -264 -144 -173 -272 0
-249 -264 -144 173 272 0
-249 -264 144 -173 272 0
-249 -264 144 173 -272 0
-249 -264 -145 -174 -273 0
-249 -264 -145 174 273 0
-249 -264 145 -174 273 0
-249 -264 145 174 -273 0
-249 -265 -139 -199 -267 0
-249 -265 -139 199 267 0
-249 -265 139 -199 267 0
-249 -265 139 199 -267 0
-249 -265 -140 -200 -268 0
-249 -265 -140 200 268 0
-249 -265 140 -200 268 0
-249 -265 140 200 -268 0
-249 -265 -141 -201 -269 0
-249 -265 -141 201 269 0
-249 -265 141 -201 269 0
-249 -265 141 201 -269 0
-249 -265 -142 -202 -270 0
-249 -265 -142 202 270 0
-249 -265 142 -202 270 0
-249 -265 142 202 -270 0
-249 -265 -143 -203 -271 0
-249 -265 -143 203 271 0
-249 -265 143 -203 271 0
-249 -265 143 203 -271 0
-249 -265 -144 -204 -272 0
-249 -265 -144 204 272 0
-249 -265 144 -204 272 0
-249 -265 144 204 -272 0
-249 -265 -145 -205 -273 0
-249 -265 -145 205 273 0
-249 -265 145 -205 273 0
-249 -265 145 205 -273 0
-249 -266 -139 -232 -267 0
-249 -266 -139 232 267 0
-249 -266 139 -232 267 0
-249 -266 139 232 -267 0
-249 -266 -140 -233 -268 0
-249 -266 -140 233 268 0
-249 -266 140 -233 268 0
-249 -266 140 233 -268 0
-249 -266 -141 -234 -269 0
-249 -266 -141 234 269 0
-249 -266 141 -234 269 0
-249 -266 141 234 -269 0
-249 -266 -142 -235 -270 0
-249 -266 -142 235 270 0
-249 -266 142 -235 270 0
-249 -266 142 235 -270 0
-249 -266 -143 -236 -271 0
-249 -266 -143 236 271 0
-249 -266 143 -236 271 0
-249 -266 143 236 -271 0
-249 -266 -144 -237 -272 0
-249 -266 -144 237 272 0
-249 -266 144 -237 272 0
-249 -266 144 237 -272 0
-249 -266 -145 -238 -273 0
-249 -266 -145 238 273 0
-249 -266 145 -238 273 0
-249 -266 145 238 -273 0
-250 -265 -168 -199 -267 0
-250 -265 -168 199 267 0
-250 -265 168 -199 267 0
-250 -265 168 199 -267 0
-250 -265 -169 -200 -268 0
-250 -265 -169 200 268 0
-250 -265 169 -200 268 0
-250 -265 169 200 -268 0
-250 -265 -170 -201 -269 0
-250 -265 -170 201 269 0
-250 -265 170 -201 269 0
-250 -265 170 201 -269 0
-250 -265 -171 -202 -270 0
-250 -265 -171 202 270 0
-250 -265 171 -202 270 0
-250 -265 171 202 -270 0
-250 -265 -172 -203 -271 0
-250 -265 -172 203 271 0
-250 -265 172 -203 271 0
-250 -265 172 203 -271 0
-250 -265 -173 -204 -272 0
-250 -265 -173 204 272 0
-250 -265 173 -204 272 0
-250 -265 173 204 -272 0
-250 -265 -174 -205 -273 0
-250 -265 -174 205 273 0
-250 -265 174 -205 273 0
-250 -265 174 205 -273 0
-250 -266 -168 -232 -267 0
-250 -266 -168 232 267 0
-250 -266 168 -232 267 0
-250 -266 168 232 -267 0
-250 -266 -169 -233 -268 0
-250 -266 -169 233 268 0
-250 -266 169 -233 268 0
-250 -266 169 233 -268 0
-250 -266 -170 -234 -269 0
-250 -266 -170 234 269 0
-250 -266 170 -234 269 0
-250 -266 170 234 -269 0
-250 -266 -171 -235 -270 0
-250 -266 -171 235 270 0
-250 -266 171 -235 270 0
-250 -266 171 235 -270 0
-250 -266 -172 -236 -271 0
-250 -266 -172 236 271 0
-250 -266 172 -236 271 0
-250 -266 172 236 -271 0
-250 -266 -173 -237 -272 0
-250 -266 -173 237 272 0
-250 -266 173 -237 272 0
-250 -266 173 237 -272 0
-250 -266 -174 -238 -273 0
-250 -266 -174 238 273 0
-250 -266 174 -238 273 0
-250 -266 174 238 -273 0
-251 -266 -199 -232 -267 0
-251 -266 -199 232 267 0
-251 -266 199 -232 267 0
-251 -266 199 232 -267 0
-251 -266 -200 -233 -268 0
-251 -266 -200 233 268 0
-251 -266 200 -233 268 0
-251 -266 200 233 -268 0
-251 -266 -201 -234 -269 0
-251 -266 -201 234 269 0
-251 -266 201 -234 269 0
-251 -266 201 234 -269 0
-251 -266 -202 -235 -270 0
-251 -266 -202 235 270 0
-251 -266 202 -235 270 0
-251 -266 202 235 -270 0
-251 -266 -203 -236 -271 0
-251 -266 -203 236 271 0
-251 -266 203 -236 271 0
-251 -266 203 236 -271 0
-251 -266 -204 -237 -272 0
-251 -266 -204 237 272 0
-251 -266 204 -237 272 0
-251 -266 204 237 -272 0
-251 -266 -205 -238 -273 0
-251 -266 -205 238 273 0
-251 -266 205 -238 273 0
-251 -266 205 238 -273 0
267 268 269 270 271 272 273 0
274 275 276 277 278 279 280 281 282 283 284 285 286 287 288 0
-274 -275 0
-274 -276 0
-274 -277 0
-274 -278 0
-274 -279 0
-274 -280 0
-274 -281 0
-274 -282 0
-274 -283 0
-274 -284 0
-274 -285 0
-274 -286 0
-274 -287 0
-274 -288 0
-275 -276 0
-275 -277 0
-275 -278 0
-275 -279 0
-275 -280 0
-275 -281 0
-275 -282 0
-275 -283 0
-275 -284 0
-275 -285 0
-275 -286 0
-275 -287 0
-275 -288 0
-276 -277 0
-276 -278 0
-276 -279 0
-276 -280 0
-276 -281 0
-276 -282 0
-276 -283 0
-276 -284 0
-276 -285 0
-276 -286 0
-276 -287 0
-276 -288 0
-277 -278 0
-277 -279 0
-277 -280 0
-277 -281 0
-277 -282 0
-277 -283 0
-277 -284 0
-277 -285 0
-277 -286 0
-277 -287 0
-277 -288 0
-278 -279 0
-278 -280 0
-278 -281 0
-278 -282 0
-278 -283 0
-278 -284 0
-278 -285 0
-278 -286 0
-278 -287 0
-278 -288 0
-279 -280 0
-279 -281 0
-279 -282 0
-279 -283 0
-279 -284 0
-279 -285 0
-279 -286 0
-279 -287 0
-279 -288 0
-280 -281 0
-280 -282 0
-280 -283 0
-280 -284 0
-280 -285 0
-280 -286 0
-280 -287 0
-280 -288 0
-281 -282 0
-281 -283 0
-281 -284 0
-281 -285 0
-281 -286 0
-281 -287 0
-281 -288 0
-282 -283 0
-282 -284 0
-282 -285 0
-282 -286 0
-282 -287 0
-282 -288 0
-283 -284 0
-283 -285 0
-283 -286 0
-283 -287 0
-283 -288 0
-284 -285 0
-284 -286 0
-284 -287 0
-284 -288 0
-285 -286 0
-285 -287 0
-285 -288 0
-286 -287 0
-286 -288 0
-287 -288 0
289 290 291 292 293 294 295 296 297 298 299 300 301 302 303 0
-289 -290 0
-289 -291 0
-289 -292 0
-289 -293 0
-289 -294 0
-289 -295 0
-289 -296 0
-289 -297 0
-289 -298 0
-289 -299 0
-289 -300 0
-289 -301 0
-289 -302 0
-289 -303 0
-290 -291 0
-290 -292 0
-290 -293 0
-290 -294 0
-290 -295 0
-290 -296 0
-290 -297 0
-290 -298 0
-290 -299 0
-290 -300 0
-290 -301 0
-290 -302 0
-290 -303 0
-291 -292 0
-291 -293 0
-291 -294 0
-291 -295 0
-291 -296 0
-291 -297 0
-291 -298 0
-291 -299 0
-291 -300 0
-291 -301 0
-291 -302 0
-291 -303 0
-292 -293 0
-292 -294 0
-292 -295 0
-292 -296 0
-292 -297 0
-292 -298 0
-292 -299 0
-292 -300 0
-292 -301 0
-292 -302 0
-292 -303 0
-293 -294 0
-293 -295 0
-293 -296 0
-293 -297 0
-293 -298 0
-293 -299 0
-293 -300 0
-293 -301 0
-293 -302 0
-293 -303 0
-294 -295 0
-294 -296 0
-294 -297 0
-294 -298 0
-294 -299 0
-294 -300 0
-294 -301 0
-294 -302 0
-294 -303 0
-295 -296 0
-295 -297 0
-295 -298 0
-295 -299 0
-295 -300 0
-295 -301 0
-295 -302 0
-295 -303 0
-296 -297 0
-296 -298 0
-296 -299 0
-296 -300 0
-296 -301 0
-296 -302 0
-296 -303 0
-297 -298 0
-297 -299 0
-297 -300 0
-297 -301 0
-297 -302 0
-297 -303 0
-298 -299 0
-298 -300 0
-298 -301 0
-298 -302 0
-298 -303 0
-299 -300 0
-299 -301 0
-299 -302 0
-299 -303 0
-300 -301 0
-300 -302 0
-300 -303 0
-301 -302 0
-301 -303 0
-302 -303 0
-274 -289 0
-275 -289 0
-275 -290 0
-276 -289 0
-276 -290 0
-276 -291 0
-277 -289 0
-277 -290 0
-277 -291 0
-277 -292 0
-278 -289 0
-278 -290 0
-278 -291 0
-278 -292 0
-278 -293 0
-279 -289 0
-279 -290 0
-279 -291 0
-279 -292 0
-279 -293 0
-279 -294 0
-280 -289 0
-280 -290 0
-280 -291 0
-280 -292 0
-280 -293 0
-280 -294 0
-280 -295 0
-281 -289 0
-281 -290 0
-281 -291 0
-281 -292 0
-281 -293 0
-281 -294 0
-281 -295 0
-281 -296 0
-282 -289 0
-282 -290 0
-282 -291 0
-282 -292 0
-282 -293 0
-282 -294 0
-282 -295 0
-282 -296 0
-282 -297 0
-283 -289 0
-283 -290 0
-283 -291 0
-283 -292 0
-283 -293 0
-283 -294 0
-283 -295 0
-283 -296 0
-283 -297 0
-283 -298 0
-284 -289 0
-284 -290 0
-284 -291 0
-284 -292 0
-284 -293 0
-284 -294 0
-284 -295 0
-284 -296 0
-284 -297 0
-284 -298 0
-284 -299 0
-285 -289 0
-285 -290 0
-285 -291 0
-285 -292 0
-285 -293 0
-285 -294 0
-285 -295 0
-285 -296 0
-285 -297 0
-285 -298 0
-285 -299 0
-285 -300 0
-286 -289 0
-286 -290 0
-286 -291 0
-286 -292 0
-286 -293 0
-286 -294 0
-286 -295 0
-286 -296 0
-286 -297 0
-286 -298 0
-286 -299 0
-286 -300 0
-286 -301 0
-287 -289 0
-287 -290 0
-287 -291 0
-287 -292 0
-287 -293 0
-287 -294 0
-287 -295 0
-287 -296 0
-287 -297 0
-287 -298 0
-287 -299 0
-287 -300 0
-287 -301 0
-287 -302 0
-288 -289 0
-288 -290 0
-288 -291 0
-288 -292 0
-288 -293 0
-288 -294 0
-288 -295 0
-288 -296 0
-288 -297 0
-288 -298 0
-288 -299 0
-288 -300 0
-288 -301 0
-288 -302 0
-288 -303 0
-274 -290 -1 -8 -304 0
-274 -290 -1 8 304 0
-274 -290 1 -8 304 0
-274 -290 1 8 -304 0
-274 -290 -2 -9 -305 0
-274 -290 -2 9 305 0
-274 -290 2 -9 305 0
-274 -290 2 9 -305 0
-274 -290 -3 -10 -306 0
-274 -290 -3 10 306 0
-274 -290 3 -10 306 0
-274 -290 3 10 -306 0
-274 -290 -4 -11 -307 0
-274 -290 -4 11 307 0
-274 -290 4 -11 307 0
-274 -290 4 11 -307 0
-274 -290 -5 -12 -308 0
-274 -290 -5 12 308 0
-274 -290 5 -12 308 0
-274 -290 5 12 -308 0
-274 -290 -6 -13 -309 0
-274 -290 -6 13 309 0
-274 -290 6 -13 309 0
-274 -290 6 13 -309 0
-274 -290 -7 -14 -310 0
-274 -290 -7 14 310 0
-274 -290 7 -14 310 0
-274 -290 7 14 -310 0
-274 -291 -1 -15 -304 0
-274 -291 -1 15 304 0
-274 -291 1 -15 304 0
-274 -291 1 15 -304 0
-274 -291 -2 -16 -305 0
-274 -291 -2 16 305 0
-274 -291 2 -16 305 0
-274 -291 2 16 -305 0
-274 -291 -3 -17 -306 0
-274 -291 -3 17 306 0
-274 -291 3 -17 306 0
-274 -291 3 17 -306 0
-274 -291 -4 -18 -307 0
-274 -291 -4 18 307 0
-274 -291 4 -18 307 0
-274 -291 4 18 -307 0
-274 -291 -5 -19 -308 0
-274 -291 -5 19 308 0
-274 -291 5 -19 308 0
-274 -291 5 19 -308 0
-274 -291 -6 -20 -309 0
-274 -291 -6 20 309 0
-274 -291 6 -20 309 0
-274 -291 6 20 -309 0
-274 -291 -7 -21 -310 0
-274 -291 -7 21 310 0
-274 -291 7 -21 310 0
-274 -291 7 21 -310 0
-274 -292 -1 -22 -304 0
-274 -292 -1 22 304 0
-274 -292 1 -22 304 0
-274 -292 1 22 -304 0
-274 -292 -2 -23 -305 0
-274 -292 -2 23 305 0
-274 -292 2 -23 305 0
-274 -292 2 23 -305 0
-274 -292 -3 -24 -306 0
-274 -292 -3 24 306 0
-274 -292 3 -24 306 0
-274 -292 3 24 -306 0
-274 -292 -4 -25 -307 0
-274 -292 -4 25 307 0
-274 -292 4 -25 307 0
-274 -292 4 25 -307 0
-274 -292 -5 -26 -308 0
-274 -292 -5 26 308 0
-274 -292 5 -26 308 0
-274 -292 5 26 -308 0
-274 -292 -6 -27 -309 0
-274 -292 -6 27 309 0
-274 -292 6 -27 309 0
-274 -292 6 27 -309 0
-274 -292 -7 -28 -310 0
-274 -292 -7 28 310 0
-274 -292 7 -28 310 0
-274 -292 7 28 -310 0
-274 -293 -1 -29 -304 0
-274 -293 -1 29 304 0
-274 -293 1 -29 304 0
-274 -293 1 29 -304 0
-274 -293 -2 -30 -305 0
-274 -293 -2 30 305 0
-274 -293 2 -30 305 0
-274 -293 2 30 -305 0
-274 -293 -3 -31 -306 0
-274 -293 -3 31 306 0
-274 -293 3 -31 306 0
-274 -293 3 31 -306 0
-274 -293 -4 -32 -307 0
-274 -293 -4 32 307 0
-274 -293 4 -32 307 0
-274 -293 4 32 -307 0
-274 -293 -5 -33 -308 0
-274 -293 -5 33 308 0
-274 -293 5 -33 308 0
-274 -293 5 33 -308 0
-274 -293 -6 -34 -309 0
-274 -293 -6 34 309 0
-274 -293 6 -34 309 0
-274 -293 6 34 -309 0
-274 -293 -7 -35 -310 0
-274 -293 -7 35 310 0
-274 -293 7 -35 310 0
-274 -293 7 35 -310 0
-274 -294 -1 -36 -304 0
-274 -294 -1 36 304 0
-274 -294 1 -36 304 0
-274 -294 1 36 -304 0
-274 -294 -2 -37 -305 0
-274 -294 -2 37 305 0
-274 -294 2 -37 305 0
-274 -294 2 37 -305 0
-274 -294 -3 -38 -306 0
-274 -294 -3 38 306 0
-274 -294 3 -38 306 0
-274 -294 3 38 -306 0
-274 -294 -4 -39 -307 0
-274 -294 -4 39 307 0
-274 -294 4 -39 307 0
-274 -294 4 39 -307 0
-274 -294 -5 -40 -308 0
-274 -294 -5 40 308 0
-274 -294 5 -40 308 0
-274 -294 5 40 -308 0
-274 -294 -6 -41 -309 0
-274 -294 -6 41 309 0
-274 -294 6 -41 309 0
-274 -294 6 41 -309 0
-274 -294 -7 -42 -310 0
-274 -294 -7 42 310 0
-274 -294 7 -42 310 0
-274 -294 7 42 -310 0
-274 -295 -1 -43 -304 0
-274 -295 -1 43 304 0
-274 -295 1 -43 304 0
-274 -295 1 43 -304 0
-274 -295 -2 -44 -305 0
-274 -295 -2 44 305 0
-274 -295 2 -44 305 0
-274 -295 2 44 -305 0
-274 -295 -3 -45 -306 0
-274 -295 -3 45 306 0
-274 -295 3 -45 306 0
-274 -295 3 45 -306 0
-274 -295 -4 -46 -307 0
-274 -295 -4 46 307 0
-274 -295 4 -46 307 0
-274 -295 4 46 -307 0
-274 -295 -5 -47 -308 0
-274 -295 -5 47 308 0
-274 -295 5 -47 308 0
-274 -295 5 47 -308 0
-274 -295 -6 -48 -309 0
-274 -295 -6 48 309 0
-274 -295 6 -48 309 0
-274 -295 6 48 -309 0
-274 -295 -7 -49 -310 0
-274 -295 -7 49 310 0
-274 -295 7 -49 310 0
-274 -295 7 49 -310 0
-274 -296 -1 -64 -304 0
-274 -296 -1 64 304 0
-274 -296 1 -64 304 0
-274 -296 1 64 -304 0
-274 -296 -2 -65 -305 0
-274 -296 -2 65 305 0
-274 -296 2 -65 305 0
-274 -296 2 65 -305 0
-274 -296 -3 -66 -306 0
-274 -296 -3 66 306 0
-274 -296 3 -66 306 0
-274 -296 3 66 -306 0
-274 -296 -4 -67 -307 0
-274 -296 -4 67 307 0
-274 -296 4 -67 307 0
-274 -296 4 67 -307 0
-274 -296 -5 -68 -308 0
-274 -296 -5 68 308 0
-274 -296 5 -68 308 0
-274 -296 5 68 -308 0
-274 -296 -6 -69 -309 0
-274 -296 -6 69 309 0
-274 -296 6 -69 309 0
-274 -296 6 69 -309 0
-274 -296 -7 -70 -310 0
-274 -296 -7 70 310 0
-274 -296 7 -70 310 0
-274 -296 7 70 -310 0
-274 -297 -1 -87 -304 0
-274 -297 -1 87 304 0
-274 -297 1 -87 304 0
-274 -297 1 87 -304 0
-274 -297 -2 -88 -305 0
-274 -297 -2 88 305 0
-274 -297 2 -88 305 0
-274 -297 2 88 -305 0
-274 -297 -3 -89 -306 0
-274 -297 -3 89 306 0
-274 -297 3 -89 306 0
-274 -297 3 89 -306 0
-274 -297 -4 -90 -307 0
-274 -297 -4 90 307 0
-274 -297 4 -90 307 0
-274 -297 4 90 -307 0
-274 -297 -5 -91 -308 0
-274 -297 -5 91 308 0
-274 -297 5 -91 308 0
-274 -297 5 91 -308 0
-274 -297 -6 -92 -309 0
-274 -297 -6 92 309 0
-274 -297 6 -92 309 0
-274 -297 6 92 -309 0
-274 -297 -7 -93 -310 0
-274 -297 -7 93 310 0
-274 -297 7 -93 310 0
-274 -297 7 93 -310 0
-274 -298 -1 -112 -304 0
-274 -298 -1 112 304 0
-274 -298 1 -112 304 0
-274 -298 1 112 -304 0
-274 -298 -2 -113 -305 0
-274 -298 -2 113 305 0
-274 -298 2 -113 305 0
-274 -298 2 113 -305 0
-274 -298 -3 -114 -306 0
-274 -298 -3 114 306 0
-274 -298 3 -114 306 0
-274 -298 3 114 -306 0
-274 -298 -4 -115 -307 0
-274 -298 -4 115 307 0
-274 -298 4 -115 307 0
-274 -298 4 115 -307 0
-274 -298 -5 -116 -308 0
-274 -298 -5 116 308 0
-274 -298 5 -116 308 0
-274 -298 5 116 -308 0
-274 -298 -6 -117 -309 0
-274 -298 -6 117 309 0
-274 -298 6 -117 309 0
-274 -298 6 117 -309 0
-274 -298 -7 -118 -310 0
-274 -298 -7 118 310 0
-274 -298 7 -118 310 0
-274 -298 7 118 -310 0
-274 -299 -1 -139 -304 0
-274 -299 -1 139 304 0
-274 -299 1 -139 304 0
-274 -299 1 139 -304 0
-274 -299 -2 -140 -305 0
-274 -299 -2 140 305 0
-274 -299 2 -140 305 0
-274 -299 2 140 -305 0
-274 -299 -3 -141 -306 0
-274 -299 -3 141 306 0
-274 -299 3 -141 306 0
-274 -299 3 141 -306 0
-274 -299 -4 -142 -307 0
-274 -299 -4 142 307 0
-274 -299 4 -142 307 0
-274 -299 4 142 -307 0
-274 -299 -5 -143 -308 0
-274 -299 -5 143 308 0
-274 -299 5 -143 308 0
-274 -299 5 143 -308 0
-274 -299 -6 -144 -309 0
-274 -299 -6 144 309 0
-274 -299 6 -144 309 0
-274 -299 6 144 -309 0
-274 -299 -7 -145 -310 0
-274 -299 -7 145 310 0
-274 -299 7 -145 310 0
-274 -299 7 145 -310 0
-274 -300 -1 -168 -304 0
-274 -300 -1 168 304 0
-274 -300 1 -168 304 0
-274 -300 1 168 -304 0
-274 -300 -2 -169 -305 0
-274 -300 -2 169 305 0
-274 -300 2 -169 305 0
-274 -300 2 169 -305 0
-274 -300 -3 -170 -306 0
-274 -300 -3 170 306 0
-274 -300 3 -170 306 0
-274 -300 3 170 -306 0
-274 -300 -4 -171 -307 0
-274 -300 -4 171 307 0
-274 -300 4 -171 307 0
-274 -300 4 171 -307 0
-274 -300 -5 -172 -308 0
-274 -300 -5 172 308 0
-274 -300 5 -172 308 0
-274 -300 5 172 -308 0
-274 -300 -6 -173 -309 0
-274 -300 -6 173 309 0
-274 -300 6 -173 309 0
-274 -300 6 173 -309 0
-274 -300 -7 -174 -310 0
-274 -300 -7 174 310 0
-274 -300 7 -174 310 0
-274 -300 7 174 -310 0
-274 -301 -1 -199 -304 0
-274 -301 -1 199 304 0
-274 -301 1 -199 304 0
-274 -301 1 199 -304 0
-274 -301 -2 -200 -305 0
-274 -301 -2 200 305 0
-274 -301 2 -200 305 0
-274 -301 2 200 -305 0
-274 -301 -3 -201 -306 0
-274 -301 -3 201 306 0
-274 -301 3 -201 306 0
-274 -301 3 201 -306 0
-274 -301 -4 -202 -307 0
-274 -301 -4 202 307 0
-274 -301 4 -202 307 0
-274 -301 4 202 -307 0
-274 -301 -5 -203 -308 0
-274 -301 -5 203 308 0
-274 -301 5 -203 308 0
-274 -301 5 203 -308 0
-274 -301 -6 -204 -309 0
-274 -301 -6 204 309 0
-274 -301 6 -204 309 0
-274 -301 6 204 -309 0
-274 -301 -7 -205 -310 0
-274 -301 -7 205 310 0
-274 -301 7 -205 310 0
-274 -301 7 205 -310 0
-274 -302 -1 -232 -304 0
-274 -302 -1 232 304 0
-274 -302 1 -232 304 0
-274 -302 1 232 -304 0
-274 -302 -2 -233 -305 0
-274 -302 -2 233 305 0
-274 -302 2 -233 305 0
-274 -302 2 233 -305 0
-274 -302 -3 -234 -306 0
-274 -302 -3 234 306 0
-274 -302 3 -234 306 0
-274 -302 3 234 -306 0
-274 -302 -4 -235 -307 0
-274 -302 -4 235 307 0
-274 -302 4 -235 307 0
-274 -302 4 235 -307 0
-274 -302 -5 -236 -308 0
-274 -302 -5 236 308 0
-274 -302 5 -236 308 0
-274 -302 5 236 -308 0
-274 -302 -6 -237 -309 0
-274 -302 -6 237 309 0
-274 -302 6 -237 309 0
-274 -302 6 237 -309 0
-274 -302 -7 -238 -310 0
-274 -302 -7 238 310 0
-274 -302 7 -238 310 0
-274 -302 7 238 -310 0
-274 -303 -1 -267 -304 0
-274 -303 -1 267 304 0
-274 -303 1 -267 304 0
-274 -303 1 267 -304 0
-274 -303 -2 -268 -305 0
-274 -303 -2 268 305 0
-274 -303 2 -268 305 0
-274 -303 2 268 -305 0
-274 -303 -3 -269 -306 0
-274 -303 -3 269 306 0
-274 -303 3 -269 306 0
-274 -303 3 269 -306 0
-274 -303 -4 -270 -307 0
-274 -303 -4 270 307 0
-274 -303 4 -270 307 0
-274 -303 4 270 -307 0
-274 -303 -5 -271 -308 0
-274 -303 -5 271 308 0
-274 -303 5 -271 308 0
-274 -303 5 271 -308 0
-274 -303 -6 -272 -309 0
-274 -303 -6 272 309 0
-274 -303 6 -272 309 0
-274 -303 6 272 -309 0
-274 -303 -7 -273 -310 0
-274 -303 -7 273 310 0
-274 -303 7 -273 310 0
-274 -303 7 273 -310 0
-275 -291 -8 -15 -304 0
-275 -291 -8 15 304 0
-275 -291 8 -15 304 0
-275 -291 8 15 -304 0
-275 -291 -9 -16 -305 0
-275 -291 -9 16 305 0
-275 -291 9 -16 305 0
-275 -291 9 16 -305 0
-275 -291 -10 -17 -306 0
-275 -291 -10 17 306 0
-275 -291 10 -17 306 0
-275 -291 10 17 -306 0
-275 -291 -11 -18 -307 0
-275 -291 -11 18 307 0
-275 -291 11 -18 307 0
-275 -291 11 18 -307 0
-275 -291 -12 -19 -308 0
-275 -291 -12 19 308 0
-275 -291 12 -19 308 0
-275 -291 12 19 -308 0
-275 -291 -13 -20 -309 0
-275 -291 -13 20 309 0
-275 -291 13 -20 309 0
-275 -291 13 20 -309 0
-275 -291 -14 -21 -310 0
-275 -291 -14 21 310 0
-275 -291 14 -21 310 0
-275 -291 14 21 -310 0
-275 -292 -8 -22 -304 0
-275 -292 -8 22 304 0
-275 -292 8 -22 304 0
-275 -292 8 22 -304 0
-275 -292 -9 -23 -305 0
-275 -292 -9 23 305 0
-275 -292 9 -23 305 0
-275 -292 9 23 -305 0
-275 -292 -10 -24 -306 0
-275 -292 -10 24 306 0
-275 -292 10 -24 306 0
-275 -292 10 24 -306 0
-275 -292 -11 -25 -307 0
-275 -292 -11 25 307 0
-275 -292 11 -25 307 0
-275 -292 11 25 -307 0
-275 -292 -12 -26 -308 0
-275 -292 -12 26 308 0
-275 -292 12 -26 308 0
-275 -292 12 26 -308 0
-275 -292 -13 -27 -309 0
-275 -292 -13 27 309 0
-275 -292 13 -27 309 0
-275 -292 13 27 -309 0
-275 -292 -14 -28 -310 0
-275 -292 -14 28 310 0
-275 -292 14 -28 310 0
-275 -292 14 28 -310 0
-275 -293 -8 -29 -304 0
-275 -293 -8 29 304 0
-275 -293 8 -29 304 0
-275 -293 8 29 -304 0
-275 -293 -9 -30 -305 0
-275 -293 -9 30 305 0
-275 -293 9 -30 305 0
-275 -293 9 30 -305 0
-275 -293 -10 -31 -306 0
-275 -293 -10 31 306 0
-275 -293 10 -31 306 0
-275 -293 10 31 -306 0
-275 -293 -11 -32 -307 0
-275 -293 -11 32 307 0
-275 -293 11 -32 307 0
-275 -293 11 32 -307 0
-275 -293 -12 -33 -308 0
-275 -293 -12 33 308 0
-275 -293 12 -33 308 0
-275 -293 12 33 -308 0
-275 -293 -13 -34 -309 0
-275 -293 -13 34 309 0
-275 -293 13 -34 309 0
-275 -293 13 34 -309 0
-275 -293 -14 -35 -310 0
-275 -293 -14 35 310 0
-275 -293 14 -35 310 0
-275 -293 14 35 -310 0
-275 -294 -8 -36 -304 0
-275 -294 -8 36 304 0
-275 -294 8 -36 304 0
-275 -294 8 36 -304 0
-275 -294 -9 -37 -305 0
-275 -294 -9 37 305 0
-275 -294 9 -37 305 0
-275 -294 9 37 -305 0
-275 -294 -10 -38 -306 0
-275 -294 -10 38 306 0
-275 -294 10 -38 306 0
-275 -294 10 38 -306 0
-275 -294 -11 -39 -307 0
-275 -294 -11 39 307 0
-275 -294 11 -39 307 0
-275 -294 11 39 -307 0
-275 -294 -12 -40 -308 0
-275 -294 -12 40 308 0
-275 -294 12 -40 308 0
-275 -294 12 40 -308 0
-275 -294 -13 -41 -309 0
-275 -294 -13 41 309 0
-275 -294 13 -41 309 0
-275 -294 13 41 -309 0
-275 -294 -14 -42 -310 0
-275 -294 -14 42 310 0
-275 -294 14 -42 310 0
-275 -294 14 42 -310 0
-275 -295 -8 -43 -304 0
-275 -295 -8 43 304 0
-275 -295 8 -43 304 0
-275 -295 8 43 -304 0
-275 -295 -9 -44 -305 0
-275 -295 -9 44 305 0
-275 -295 9 -44 305 0
-275 -295 9 44 -305 0
-275 -295 -10 -45 -306 0
-275 -295 -10 45 306 0
-275 -295 10 -45 306 0
-275 -295 10 45 -306 0
-275 -295 -11 -46 -307 0
-275 -295 -11 46 307 0
-275 -295 11 -46 307 0
-275 -295 11 46 -307 0
-275 -295 -12 -47 -308 0
-275 -295 -12 47 308 0
-275 -295 12 -47 308 0
-275 -295 12 47 -308 0
-275 -295 -13 -48 -309 0
-275 -295 -13 48 309 0
-275 -295 13 -48 309 0
-275 -295 13 48 -309 0
-275 -295 -14 -49 -310 0
-275 -295 -14 49 310 0
-275 -295 14 -49 310 0
-275 -295 14 49 -310 0
-275 -296 -8 -64 -304 0
-275 -296 -8 64 304 0
-275 -296 8 -64 304 0
-275 -296 8 64 -304 0
-275 -296 -9 -65 -305 0
-275 -296 -9 65 305 0
-275 -296 9 -65 305 0
-275 -296 9 65 -305 0
-275 -296 -10 -66 -306 0
-275 -296 -10 66 306 0
-275 -296 10 -66 306 0
-275 -296 10 66 -306 0
-275 -296 -11 -67 -307 0
-275 -296 -11 67 307 0
-275 -296 11 -67 307 0
-275 -296 11 67 -307 0
-275 -296 -12 -68 -308 0
-275 -296 -12 68 308 0
-275 -296 12 -68 308 0
-275 -296 12 68 -308 0
-275 -296 -13 -69 -309 0
-275 -296 -13 69 309 0
-275 -296 13 -69 309 0
-275 -296 13 69 -309 0
-275 -296 -14 -70 -310 0
-275 -296 -14 70 310 0
-275 -296 14 -70 310 0
-275 -296 14 70 -310 0
-275 -297 -8 -87 -304 0
-275 -297 -8 87 304 0
-275 -297 8 -87 304 0
-275 -297 8 87 -304 0
-275 -297 -9 -88 -305 0
-275 -297 -9 88 305 0
-275 -297 9 -88 305 0
-275 -297 9 88 -305 0
-275 -297 -10 -89 -306 0
-275 -297 -10 89 306 0
-275 -297 10 -89 306 0
-275 -297 10 89 -306 0
-275 -297 -11 -90 -307 0
-275 -297 -11 90 307 0
-275 -297 11 -90 307 0
-275 -297 11 90 -307 0
-275 -297 -12 -91 -308 0
-275 -297 -12 91 308 0
-275 -297 12 -91 308 0
-275 -297 12 91 -308 0
-275 -297 -13 -92 -309 0
-275 -297 -13 92 309 0
-275 -297 13 -92 309 0
-275 -297 13 92 -309 0
-275 -297 -14 -93 -310 0
-275 -297 -14 93 310 0
-275 -297 14 -93 310 0
-275 -297 14 93 -310 0
-275 -298 -8 -112 -304 0
-275 -298 -8 112 304 0
-275 -298 8 -112 304 0
-275 -298 8 112 -304 0
-275 -298 -9 -113 -305 0
-275 -298 -9 113 305 0
-275 -298 9 -113 305 0
-275 -298 9 113 -305 0
-275 -298 -10 -114 -306 0
-275 -298 -10 114 306 0
-275 -298 10 -114 306 0
-275 -298 10 114 -306 0
-275 -298 -11 -115 -307 0
-275 -298 -11 115 307 0
-275 -298 11 -115 307 0
-275 -298 11 115 -307 0
-275 -298 -12 -116 -308 0
-275 -298 -12 116 308 0
-275 -298 12 -116 308 0
-275 -298 12 116 -308 0
-275 -298 -13 -117 -309 0
-275 -298 -13 117 309 0
-275 -298 13 -117 309 0
-275 -298 13 117 -309 0
-275 -298 -14 -118 -310 0
-275 -298 -14 118 310 0
-275 -298 14 -118 310 0
-275 -298 14 118 -310 0
-275 -299 -8 -139 -304 0
-275 -299 -8 139 304 0
-275 -299 8 -139 304 0
-275 -299 8 139 -304 0
-275 -299 -9 -140 -305 0
-275 -299 -9 140 305 0
-275 -299 9 -140 305 0
-275 -299 9 140 -305 0
-275 -299 -10 -141 -306 0
-275 -299 -10 141 306 0
-275 -299 10 -141 306 0
-275 -299 10 141 -306 0
-275 -299 -11 -142 -307 0
-275 -299 -11 142 307 0
-275 -299 11 -142 307 0
-275 -299 11 142 -307 0
-275 -299 -12 -143 -308 0
-275 -299 -12 143 308 0
-275 -299 12 -143 308 0
-275 -299 12 143 -308 0
-275 -299 -13 -144 -309 0
-275 -299 -13 144 309 0
-275 -299 13 -144 309 0
-275 -299 13 144 -309 0
-275 -299 -14 -145 -310 0
-275 -299 -14 145 310 0
-275 -299 14 -145 310 0
-275 -299 14 145 -310 0
-275 -300 -8 -168 -304 0
-275 -300 -8 168 304 0
-275 -300 8 -168 304 0
-275 -300 8 168 -304 0
-275 -300 -9 -169 -305 0
-275 -300 -9 169 305 0
-275 -300 9 -169 305 0
-275 -300 9 169 -305 0
-275 -300 -10 -170 -306 0
-275 -300 -10 170 306 0
-275 -300 10 -170 306 0
-275 -300 10 170 -306 0
-275 -300 -11 -171 -307 0
-275 -300 -11 171 307 0
-275 -300 11 -171 307 0
-275 -300 11 171 -307 0
-275 -300 -12 -172 -308 0
-275 -300 -12 172 308 0
-275 -300 12 -172 308 0
-275 -300 12 172 -308 0
-275 -300 -13 -173 -309 0
-275 -300 -13 173 309 0
-275 -300 13 -173 309 0
-275 -300 13 173 -309 0
-275 -300 -14 -174 -310 0
-275 -300 -14 174 310 0
-275 -300 14 -174 310 0
-275 -300 14 174 -310 0
-275 -301 -8 -199 -304 0
-275 -301 -8 199 304 0
-275 -301 8 -199 304 0
-275 -301 8 199 -304 0
-275 -301 -9 -200 -305 0
-275 -301 -9 200 305 0
-275 -301 9 -200 305 0
-275 -301 9 200 -305 0
-275 -301 -10 -201 -306 0
-275 -301 -10 201 306 0
-275 -301 10 -201 306 0
-275 -301 10 201 -306 0
-275 -301 -11 -202 -307 0
-275 -301 -11 202 307 0
-275 -301 11 -202 307 0
-275 -301 11 202 -307 0
-275 -301 -12 -203 -308 0
-275 -301 -12 203 308 0
-275 -301 12 -203 308 0
-275 -301 12 203 -308 0
-275 -301 -13 -204 -309 0
-275 -301 -13 204 309 0
-275 -301 13 -204 309 0
-275 -301 13 204 -309 0
-275 -301 -14 -205 -310 0
-275 -301 -14 205 310 0
-275 -301 14 -205 310 0
-275 -301 14 205 -310 0
-275 -302 -8 -232 -304 0
-275 -302 -8 232 304 0
-275 -302 8 -232 304 0
-275 -302 8 232 -304 0
-275 -302 -9 -233 -305 0
-275 -302 -9 233 305 0
-275 -302 9 -233 305 0
-275 -302 9 233 -305 0
-275 -302 -10 -234 -306 0
-275 -302 -10 234 306 0
-275 -302 10 -234 306 0
-275 -302 10 234 -306 0
-275 -302 -11 -235 -307 0
-275 -302 -11 235 307 0
-275 -302 11 -235 307 0
-275 -302 11 235 -307 0
-275 -302 -12 -236 -308 0
-275 -302 -12 236 308 0
-275 -302 12 -236 308 0
-275 -302 12 236 -308 0
-275 -302 -13 -237 -309 0
-275 -302 -13 237 309 0
-275 -302 13 -237 309 0
-275 -302 13 237 -309 0
-275 -302 -14 -238 -310 0
-275 -302 -14 238 310 0
-275 -302 14 -238 310 0
-275 -302 14 238 -310 0
-275 -303 -8 -267 -304 0
-275 -303 -8 267 304 0
-275 -303 8 -267 304 0
-275 -303 8 267 -304 0
-275 -303 -9 -268 -305 0
-275 -303 -9 268 305 0
-275 -303 9 -268 305 0
-275 -303 9 268 -305 0
-275 -303 -10 -269 -306 0
-275 -303 -10 269 306 0
-275 -303 10 -269 306 0
-275 -303 10 269 -306 0
-275 -303 -11 -270 -307 0
-275 -303 -11 270 307 0
-275 -303 11 -270 307 0
-275 -303 11 270 -307 0
-275 -303 -12 -271 -308 0
-275 -303 -12 271 308 0
-275 -303 12 -271 308 0
-275 -303 12 271 -308 0
-275 -303 -13 -272 -309 0
-275 -303 -13 272 309 0
-275 -303 13 -272 309 0
-275 -303 13 272 -309 0
-275 -303 -14 -273 -310 0
-275 -303 -14 273 310 0
-275 -303 14 -273 310 0
-275 -303 14 273 -310 0
-276 -292 -15 -22 -304 0
-276 -292 -15 22 304 0
-276 -292 15 -22 304 0
-276 -292 15 22 -304 0
-276 -292 -16 -23 -305 0
-276 -292 -16 23 305 0
-276 -292 16 -23 305 0
-276 -292 16 23 -305 0
-276 -292 -17 -24 -306 0
-276 -292 -17 24 306 0
-276 -292 17 -24 306 0
-276 -292 17 24 -306 0
-276 -292 -18 -25 -307 0
-276 -292 -18 25 307 0
-276 -292 18 -25 307 0
-276 -292 18 25 -307 0
-276 -292 -19 -26 -308 0
-276 -292 -19 26 308 0
-276 -292 19 -26 308 0
-276 -292 19 26 -308 0
-276 -292 -20 -27 -309 0
-276 -292 -20 27 309 0
-276 -292 20 -27 309 0
-276 -292 20 27 -309 0
-276 -292 -21 -28 -310 0
-276 -292 -21 28 310 0
-276 -292 21 -28 310 0
-276 -292 21 28 -310 0
-276 -293 -15 -29 -304 0
-276 -293 -15 29 304 0
-276 -293 15 -29 304 0
-276 -293 15 29 -304 0
-276 -293 -16 -30 -305 0
-276 -293 -16 30 305 0
-276 -293 16 -30 305 0
-276 -293 16 30 -305 0
-276 -293 -17 -31 -306 0
-276 -293 -17 31 306 0
-276 -293 17 -31 306 0
-276 -293 17 31 -306 0
-276 -293 -18 -32 -307 0
-276 -293 -18 32 307 0
-276 -293 18 -32 307 0
-276 -293 18 32 -307 0
-276 -293 -19 -33 -308 0
-276 -293 -19 33 308 0
-276 -293 19 -33 308 0
-276 -293 19 33 -308 0
-276 -293 -20 -34 -309 0
-276 -293 -20 34 309 0
-276 -293 20 -34 309 0
-276 -293 20 34 -309 0
-276 -293 -21 -35 -310 0
-276 -293 -21 35 310 0
-276 -293 21 -35 310 0
-276 -293 21 35 -310 0
-276 -294 -15 -36 -304 0
-276 -294 -15 36 304 0
-276 -294 15 -36 304 0
-276 -294 15 36 -304 0
-276 -294 -16 -37 -305 0
-276 -294 -16 37 305 0
-276 -294 16 -37 305 0
-276 -294 16 37 -305 0
-276 -294 -17 -38 -306 0
-276 -294 -17 38 306 0
-276 -294 17 -38 306 0
-276 -294 17 38 -306 0
-276 -294 -18 -39 -307 0
-276 -294 -18 39 307 0
-276 -294 18 -39 307 0
-276 -294 18 39 -307 0
-276 -294 -19 -40 -308 0
-276 -294 -19 40 308 0
-276 -294 19 -40 308 0
-276 -294 19 40 -308 0
-276 -294 -20 -41 -309 0
-276 -294 -20 41 309 0
-276 -294 20 -41 309 0
-276 -294 20 41 -309 0
-276 -294 -21 -42 -310 0
-276 -294 -21 42 310 0
-276 -294 21 -42 310 0
-276 -294 21 42 -310 0
-276 -295 -15 -43 -304 0
-276 -295 -15 43 304 0
-276 -295 15 -43 304 0
-276 -295 15 43 -304 0
-276 -295 -16 -44 -305 0
-276 -295 -16 44 305 0
-276 -295 16 -44 305 0
-276 -295 16 44 -305 0
-276 -295 -17 -45 -306 0
-276 -295 -17 45 306 0
-276 -295 17 -45 306 0
-276 -295 17 45 -306 0
-276 -295 -18 -46 -307 0
-276 -295 -18 46 307 0
-276 -295 18 -46 307 0
-276 -295 18 46 -307 0
-276 -295 -19 -47 -308 0
-276 -295 -19 47 308 0
-276 -295 19 -47 308 0
-276 -295 19 47 -308 0
-276 -295 -20 -48 -309 0
-276 -295 -20 48 309 0
-276 -295 20 -48 309 0
-276 -295 20 48 -309 0
-276 -295 -21 -49 -310 0
-276 -295 -21 49 310 0
-276 -295 21 -49 310 0
-276 -295 21 49 -310 0
-276 -296 -15 -64 -304 0
-276 -296 -15 64 304 0
-276 -296 15 -64 304 0
-276 -296 15 64 -304 0
-276 -296 -16 -65 -305 0
-276 -296 -16 65 305 0
-276 -296 16 -65 305 0
-276 -296 16 65 -305 0
-276 -296 -17 -66 -306 0
-276 -296 -17 66 306 0
-276 -296 17 -66 306 0
-276 -296 17 66 -306 0
-276 -296 -18 -67 -307 0
-276 -296 -18 67 307 0
-276 -296 18 -67 307 0
-276 -296 18 67 -307 0
-276 -296 -19 -68 -308 0
-276 -296 -19 68 308 0
-276 -296 19 -68 308 0
-276 -296 19 68 -308 0
-276 -296 -20 -69 -309 0
-276 -296 -20 69 309 0
-276 -296 20 -69 309 0
-276 -296 20 69 -309 0
-276 -296 -21 -70 -310 0
-276 -296 -21 70 310 0
-276 -296 21 -70 310 0
-276 -296 21 70 -310 0
-276 -297 -15 -87 -304 0
-276 -297 -15 87 304 0
-276 -297 15 -87 304 0
-276 -297 15 87 -304 0
-276 -297 -16 -88 -305 0
-276 -297 -16 88 305 0
-276 -297 16 -88 305 0
-276 -297 16 88 -305 0
-276 -297 -17 -89 -306 0
-276 -297 -17 89 306 0
-276 -297 17 -89 306 0
-276 -297 17 89 -306 0
-276 -297 -18 -90 -307 0
-276 -297 -18 90 307 0
-276 -297 18 -90 307 0
-276 -297 18 90 -307 0
-276 -297 -19 -91 -308 0
-276 -297 -19 91 308 0
-276 -297 19 -91 308 0
-276 -297 19 91 -308 0
-276 -297 -20 -92 -309 0
-276 -297 -20 92 309 0
-276 -297 20 -92 309 0
-276 -297 20 92 -309 0
-276 -297 -21 -93 -310 0
-276 -297 -21 93 310 0
-276 -297 21 -93 310 0
-276 -297 21 93 -310 0
-276 -298 -15 -112 -304 0
-276 -298 -15 112 304 0
-276 -298 15 -112 304 0
-276 -298 15 112 -304 0
-276 -298 -16 -113 -305 0
-276 -298 -16 113 305 0
-276 -298 16 -113 305 0
-276 -298 16 113 -305 0
-276 -298 -17 -114 -306 0
-276 -298 -17 114 306 0
-276 -298 17 -114 306 0
-276 -298 17 114 -306 0
-276 -298 -18 -115 -307 0
-276 -298 -18 115 307 0
-276 -298 18 -115 307 0
-276 -298 18 115 -307 0
-276 -298 -19 -116 -308 0
-276 -298 -19 116 308 0
-276 -298 19 -116 308 0
-276 -298 19 116 -308 0
-276 -298 -20 -117 -309 0
-276 -298 -20 117 309 0
-276 -298 20 -117 309 0
-276 -298 20 117 -309 0
-276 -298 -21 -118 -310 0
-276 -298 -21 118 310 0
-276 -298 21 -118 310 0
-276 -298 21 118 -310 0
-276 -299 -15 -139 -304 0
-276 -299 -15 139 304 0
-276 -299 15 -139 304 0
-276 -299 15 139 -304 0
-276 -299 -16 -140 -305 0
-276 -299 -16 140 305 0
-276 -299 16 -140 305 0
-276 -299 16 140 -305 0
-276 -299 -17 -141 -306 0
-276 -299 -17 141 306 0
-276 -299 17 -141 306 0
-276 -299 17 141 -306 0
-276 -299 -18 -142 -307 0
-276 -299 -18 142 307 0
-276 -299 18 -142 307 0
-276 -299 18 142 -307 0
-276 -299 -19 -143 -308 0
-276 -299 -19 143 308 0
-276 -299 19 -143 308 0
-276 -299 19 143 -308 0
-276 -299 -20 -144 -309 0
-276 -299 -20 144 309 0
-276 -299 20 -144 309 0
-276 -299 20 144 -309 0
-276 -299 -21 -145 -310 0
-276 -299 -21 145 310 0
-276 -299 21 -145 310 0
-276 -299 21 145 -310 0
-276 -300 -15 -168 -304 0
-276 -300 -15 168 304 0
-276 -300 15 -168 304 0
-276 -300 15 168 -304 0
-276 -300 -16 -169 -305 0
-276 -300 -16 169 305 0
-276 -300 16 -169 305 0
-276 -300 16 169 -305 0
-276 -300 -17 -170 -306 0
-276 -300 -17 170 306 0
-276 -300 17 -170 306 0
-276 -300 17 170 -306 0
-276 -300 -18 -171 -307 0
-276 -300 -18 171 307 0
-276 -300 18 -171 307 0
-276 -300 18 171 -307 0
-276 -300 -19 -172 -308 0
-276 -300 -19 172 308 0
-276 -300 19 -172 308 0
-276 -300 19 172 -308 0
-276 -300 -20 -173 -309 0
-276 -300 -20 173 309 0
-276 -300 20 -173 309 0
-276 -300 20 173 -309 0
-276 -300 -21 -174 -310 0
-276 -300 -21 174 310 0
-276 -300 21 -174 310 0
-276 -300 21 174 -310 0
-276 -301 -15 -199 -304 0
-276 -301 -15 199 304 0
-276 -301 15 -199 304 0
-276 -301 15 199 -304 0
-276 -301 -16 -200 -305 0
-276 -301 -16 200 305 0
-276 -301 16 -200 305 0
-276 -301 16 200 -305 0
-276 -301 -17 -201 -306 0
-276 -301 -17 201 306 0
-276 -301 17 -201 306 0
-276 -301 17 201 -306 0
-276 -301 -18 -202 -307 0
-276 -301 -18 202 307 0
-276 -301 18 -202 307 0
-276 -301 18 202 -307 0
-276 -301 -19 -203 -308 0
-276 -301 -19 203 308 0
-276 -301 19 -203 308 0
-276 -301 19 203 -308 0
-276 -301 -20 -204 -309 0
-276 -301 -20 204 309 0
-276 -301 20 -204 309 0
-276 -301 20 204 -309 0
-276 -301 -21 -205 -310 0
-276 -301 -21 205 310 0
-276 -301 21 -205 310 0
-276 -301 21 205 -310 0
-276 -302 -15 -232 -304 0
-276 -302 -15 232 304 0
-276 -302 15 -232 304 0
-276 -302 15 232 -304 0
-276 -302 -16 -233 -305 0
-276 -302 -16 233 305 0
-276 -302 16 -233 305 0
-276 -302 16 233 -305 0
-276 -302 -17 -234 -306 0
-276 -302 -17 234 306 0
-276 -302 17 -234 306 0
-276 -302 17 234 -306 0
-276 -302 -18 -235 -307 0
-276 -302 -18 235 307 0
-276 -302 18 -235 307 0
-276 -302 18 235 -307 0
-276 -302 -19 -236 -308 0
-276 -302 -19 236 308 0
-276 -302 19 -236 308 0
-276 -302 19 236 -308 0
-276 -302 -20 -237 -309 0
-276 -302 -20 237 309 0
-276 -302 20 -237 309 0
-276 -302 20 237 -309 0
-276 -302 -21 -238 -310 0
-276 -302 -21 238 310 0
-276 -302 21 -238 310 0
-276 -302 21 238 -310 0
-276 -303 -15 -267 -304 0
-276 -303 -15 267 304 0
-276 -303 15 -267 304 0
-276 -303 15 267 -304 0
-276 -303 -16 -268 -305 0
-276 -303 -16 268 305 0
-276 -303 16 -268 305 0
-276 -303 16 268 -305 0
-276 -303 -17 -269 -306 0
-276 -303 -17 269 306 0
-276 -303 17 -269 306 0
-276 -303 17 269 -306 0
-276 -303 -18 -270 -307 0
-276 -303 -18 270 307 0
-276 -303 18 -270 307 0
-276 -303 18 270 -307 0
-276 -303 -19 -271 -308 0
-276 -303 -19 271 308 0
-276 -303 19 -271 308 0
-276 -303 19 271 -308 0
-276 -303 -20 -272 -309 0
-276 -303 -20 272 309 0
-276 -303 20 -272 309 0
-276 -303 20 272 -309 0
-276 -303 -21 -273 -310 0
-276 -303 -21 273 310 0
-276 -303 21 -273 310 0
-276 -303 21 273 -310 0
-277 -293 -22 -29 -304 0
-277 -293 -22 29 304 0
-277 -293 22 -29 304 0
-277 -293 22 29 -304 0
-277 -293 -23 -30 -305 0
-277 -293 -23 30 305 0
-277 -293 23 -30 305 0
-277 -293 23 30 -305 0
-277 -293 -24 -31 -306 0
-277 -293 -24 31 306 0
-277 -293 24 -31 306 0
-277 -293 24 31 -306 0
-277 -293 -25 -32 -307 0
-277 -293 -25 32 307 0
-277 -293 25 -32 307 0
-277 -293 25 32 -307 0
-277 -293 -26 -33 -308 0
-277 -293 -26 33 308 0
-277 -293 26 -33 308 0
-277 -293 26 33 -308 0
-277 -293 -27 -34 -309 0
-277 -293 -27 34 309 0
-277 -293 27 -34 309 0
-277 -293 27 34 -309 0
-277 -293 -28 -35 -310 0
-277 -293 -28 35 310 0
-277 -293 28 -35 310 0
-277 -293 28 35 -310 0
-277 -294 -22 -36 -304 0
-277 -294 -22 36 304 0
-277 -294 22 -36 304 0
-277 -294 22 36 -304 0
-277 -294 -23 -37 -305 0
-277 -294 -23 37 305 0
-277 -294 23 -37 305 0
-277 -294 23 37 -305 0
-277 -294 -24 -38 -306 0
-277 -294 -24 38 306 0
-277 -294 24 -38 306 0
-277 -294 24 38 -306 0
-277 -294 -25 -39 -307 0
-277 -294 -25 39 307 0
-277 -294 25 -39 307 0
-277 -294 25 39 -307 0
-277 -294 -26 -40 -308 0
-277 -294 -26 40 308 0
-277 -294 26 -40 308 0
-277 -294 26 40 -308 0
-277 -294 -27 -41 -309 0
-277 -294 -27 41 309 0
-277 -294 27 -41 309 0
-277 -294 27 41 -309 0
-277 -294 -28 -42 -310 0
-277 -294 -28 42 310 0
-277 -294 28 -42 310 0
-277 -294 28 42 -310 0
-277 -295 -22 -43 -304 0
-277 -295 -22 43 304 0
-277 -295 22 -43 304 0
-277 -295 22 43 -304 0
-277 -295 -23 -44 -305 0
-277 -295 -23 44 305 0
-277 -295 23 -44 305 0
-277 -295 23 44 -305 0
-277 -295 -24 -45 -306 0
-277 -295 -24 45 306 0
-277 -295 24 -45 306 0
-277 -295 24 45 -306 0
-277 -295 -25 -46 -307 0
-277 -295 -25 46 307 0
-277 -295 25 -46 307 0
-277 -295 25 46 -307 0
-277 -295 -26 -47 -308 0
-277 -295 -26 47 308 0
-277 -295 26 -47 308 0
-277 -295 26 47 -308 0
-277 -295 -27 -48 -309 0
-277 -295 -27 48 309 0
-277 -295 27 -48 309 0
-277 -295 27 48 -309 0
-277 -295 -28 -49 -310 0
-277 -295 -28 49 310 0
-277 -295 28 -49 310 0
-277 -295 28 49 -310 0
-277 -296 -22 -64 -304 0
-277 -296 -22 64 304 0
-277 -296 22 -64 304 0
-277 -296 22 64 -304 0
-277 -296 -23 -65 -305 0
-277 -296 -23 65 305 0
-277 -296 23 -65 305 0
-277 -296 23 65 -305 0
-277 -296 -24 -66 -306 0
-277 -296 -24 66 306 0
-277 -296 24 -66 306 0
-277 -296 24 66 -306 0
-277 -296 -25 -67 -307 0
-277 -296 -25 67 307 0
-277 -296 25 -67 307 0
-277 -296 25 67 -307 0
-277 -296 -26 -68 -308 0
-277 -296 -26 68 308 0
-277 -296 26 -68 308 0
-277 -296 26 68 -308 0
-277 -296 -27 -69 -309 0
-277 -296 -27 69 309 0
-277 -296 27 -69 309 0
-277 -296 27 69 -309 0
-277 -296 -28 -70 -310 0
-277 -296 -28 70 310 0
-277 -296 28 -70 310 0
-277 -296 28 70 -310 0
-277 -297 -22 -87 -304 0
-277 -297 -22 87 304 0
-277 -297 22 -87 304 0
-277 -297 22 87 -304 0
-277 -297 -23 -88 -305 0
-277 -297 -23 88 305 0
-277 -297 23 -88 305 0
-277 -297 23 88 -305 0
-277 -297 -24 -89 -306 0
-277 -297 -24 89 306 0
-277 -297 24 -89 306 0
-277 -297 24 89 -306 0
-277 -297 -25 -90 -307 0
-277 -297 -25 90 307 0
-277 -297 25 -90 307 0
-277 -297 25 90 -307 0
-277 -297 -26 -91 -308 0
-277 -297 -26 91 308 0
-277 -297 26 -91 308 0
-277 -297 26 91 -308 0
-277 -297 -27 -92 -309 0
-277 -297 -27 92 309 0
-277 -297 27 -92 309 0
-277 -297 27 92 -309 0
-277 -297 -28 -93 -310 0
-277 -297 -28 93 310 0
-277 -297 28 -93 310 0
-277 -297 28 93 -310 0
-277 -298 -22 -112 -304 0
-277 -298 -22 112 304 0
-277 -298 22 -112 304 0
-277 -298 22 112 -304 0
-277 -298 -23 -113 -305 0
-277 -298 -23 113 305 0
-277 -298 23 -113 305 0
-277 -298 23 113 -305 0
-277 -298 -24 -114 -306 0
-277 -298 -24 114 306 0
-277 -298 24 -114 306 0
-277 -298 24 114 -306 0
-277 -298 -25 -115 -307 0
-277 -298 -25 115 307 0
-277 -298 25 -115 307 0
-277 -298 25 115 -307 0
-277 -298 -26 -116 -308 0
-277 -298 -26 116 308 0
-277 -298 26 -116 308 0
-277 -298 26 116 -308 0
-277 -298 -27 -117 -309 0
-277 -298 -27 117 309 0
-277 -298 27 -117 309 0
-277 -298 27 117 -309 0
-277 -298 -28 -118 -310 0
-277 -298 -28 118 310 0
-277 -298 28 -118 310 0
-277 -298 28 118 -310 0
-277 -299 -22 -139 -304 0
-277 -299 -22 139 304 0
-277 -299 22 -139 304 0
-277 -299 22 139 -304 0
-277 -299 -23 -140 -305 0
-277 -299 -23 140 305 0
-277 -299 23 -140 305 0
-277 -299 23 140 -305 0
-277 -299 -24 -141 -306 0
-277 -299 -24 141 306 0
-277 -299 24 -141 306 0
-277 -299 24 141 -306 0
-277 -299 -25 -142 -307 0
-277 -299 -25 142 307 0
-277 -299 25 -142 307 0
-277 -299 25 142 -307 0
-277 -299 -26 -143 -308 0
-277 -299 -26 143 308 0
-277 -299 26 -143 308 0
-277 -299 26 143 -308 0
-277 -299 -27 -144 -309 0
-277 -299 -27 144 309 0
-277 -299 27 -144 309 0
-277 -299 27 144 -309 0
-277 -299 -28 -145 -310 0
-277 -299 -28 145 310 0
-277 -299 28 -145 310 0
-277 -299 28 145 -310 0
-277 -300 -22 -168 -304 0
-277 -300 -22 168 304 0
-277 -300 22 -168 304 0
-277 -300 22 168 -304 0
-277 -300 -23 -169 -305 0
-277 -300 -23 169 305 0
-277 -300 23 -169 305 0
-277 -300 23 169 -305 0
-277 -300 -24 -170 -306 0
-277 -300 -24 170 306 0
-277 -300 24 -170 306 0
-277 -300 24 170 -306 0
-277 -300 -25 -171 -307 0
-277 -300 -25 171 307 0
-277 -300 25 -171 307 0
-277 -300 25 171 -307 0
-277 -300 -26 -172 -308 0
-277 -300 -26 172 308 0
-277 -300 26 -172 308 0
-277 -300 26 172 -308 0
-277 -300 -27 -173 -309 0
-277 -300 -27 173 309 0
-277 -300 27 -173 309 0
-277 -300 27 173 -309 0
-277 -300 -28 -174 -310 0
-277 -300 -28 174 310 0
-277 -300 28 -174 310 0
-277 -300 28 174 -310 0
-277 -301 -22 -199 -304 0
-277 -301 -22 199 304 0
-277 -301 22 -199 304 0
-277 -301 22 199 -304 0
-277 -301 -23 -200 -305 0
-277 -301 -23 200 305 0
-277 -301 23 -200 305 0
-277 -301 23 200 -305 0
-277 -301 -24 -201 -306 0
-277 -301 -24 201 306 0
-277 -301 24 -201 306 0
-277 -301 24 201 -306 0
-277 -301 -25 -202 -307 0
-277 -301 -25 202 307 0
-277 -301 25 -202 307 0
-277 -301 25 202 -307 0
-277 -301 -26 -203 -308 0
-277 -301 -26 203 308 0
-277 -301 26 -203 308 0
-277 -301 26 203 -308 0
-277 -301 -27 -204 -309 0
-277 -301 -27 204 309 0
-277 -301 27 -204 309 0
-277 -301 27 204 -309 0
-277 -301 -28 -205 -310 0
-277 -301 -28 205 310 0
-277 -301 28 -205 310 0
-277 -301 28 205 -310 0
-277 -302 -22 -232 -304 0
-277 -302 -22 232 304 0
-277 -302 22 -232 304 0
-277 -302 22 232 -304 0
-277 -302 -23 -233 -305 0
-277 -302 -23 233 305 0
-277 -302 23 -233 305 0
-277 -302 23 233 -305 0
-277 -302 -24 -234 -306 0
-277 -302 -24 234 306 0
-277 -302 24 -234 306 0
-277 -302 24 234 -306 0
-277 -302 -25 -235 -307 0
-277 -302 -25 235 307 0
-277 -302 25 -235 307 0
-277 -302 25 235 -307 0
-277 -302 -26 -236 -308 0
-277 -302 -26 236 308 0
-277 -302 26 -236 308 0
-277 -302 26 236 -308 0
-277 -302 -27 -237 -309 0
-277 -302 -27 237 309 0
-277 -302 27 -237 309 0
-277 -302 27 237 -309 0
-277 -302 -28 -238 -310 0
-277 -302 -28 238 310 0
-277 -302 28 -238 310 0
-277 -302 28 238 -310 0
-277 -303 -22 -267 -304 0
-277 -303 -22 267 304 0
-277 -303 22 -267 304 0
-277 -303 22 267 -304 0
-277 -303 -23 -268 -305 0
-277 -303 -23 268 305 0
-277 -303 23 -268 305 0
-277 -303 23 268 -305 0
-277 -303 -24 -269 -306 0
-277 -303 -24 269 306 0
-277 -303 24 -269 306 0
-277 -303 24 269 -306 0
-277 -303 -25 -270 -307 0
-277 -303 -25 270 307 0
-277 -303 25 -270 307 0
-277 -303 25 270 -307 0
-277 -303 -26 -271 -308 0
-277 -303 -26 271 308 0
-277 -303 26 -271 308 0
-277 -303 26 271 -308 0
-277 -303 -27 -272 -309 0
-277 -303 -27 272 309 0
-277 -303 27 -272 309 0
-277 -303 27 272 -309 0
-277 -303 -28 -273 -310 0
-277 -303 -28 273 310 0
-277 -303 28 -273 310 0
-277 -303 28 273 -310 0
-278 -294 -29 -36 -304 0
-278 -294 -29 36 304 0
-278 -294 29 -36 304 0
-278 -294 29 36 -304 0
-278 -294 -30 -37 -305 0
-278 -294 -30 37 305 0
-278 -294 30 -37 305 0
-278 -294 30 37 -305 0
-278 -294 -31 -38 -306 0
-278 -294 -31 38 306 0
-278 -294 31 -38 306 0
-278 -294 31 38 -306 0
-278 -294 -32 -39 -307 0
-278 -294 -32 39 307 0
-278 -294 32 -39 307 0
-278 -294 32 39 -307 0
-278 -294 -33 -40 -308 0
-278 -294 -33 40 308 0
-278 -294 33 -40 308 0
-278 -294 33 40 -308 0
-278 -294 -34 -41 -309 0
-278 -294 -34 41 309 0
-278 -294 34 -41 309 0
-278 -294 34 41 -309 0
-278 -294 -35 -42 -310 0
-278 -294 -35 42 310 0
-278 -294 35 -42 310 0
-278 -294 35 42 -310 0
-278 -295 -29 -43 -304 0
-278 -295 -29 43 304 0
-278 -295 29 -43 304 0
-278 -295 29 43 -304 0
-278 -295 -30 -44 -305 0
-278 -295 -30 44 305 0
-278 -295 30 -44 305 0
-278 -295 30 44 -305 0
-278 -295 -31 -45 -306 0
-278 -295 -31 45 306 0
-278 -295 31 -45 306 0
-278 -295 31 45 -306 0
-278 -295 -32 -46 -307 0
-278 -295 -32 46 307 0
-278 -295 32 -46 307 0
-278 -295 32 46 -307 0
-278 -295 -33 -47 -308 0
-278 -295 -33 47 308 0
-278 -295 33 -47 308 0
-278 -295 33 47 -308 0
-278 -295 -34 -48 -309 0
-278 -295 -34 48 309 0
-278 -295 34 -48 309 0
-278 -295 34 48 -309 0
-278 -295 -35 -49 -310 0
-278 -295 -35 49 310 0
-278 -295 35 -49 310 0
-278 -295 35 49 -310 0
-278 -296 -29 -64 -304 0
-278 -296 -29 64 304 0
-278 -296 29 -64 304 0
-278 -296 29 64 -304 0
-278 -296 -30 -65 -305 0
-278 -296 -30 65 305 0
-278 -296 30 -65 305 0
-278 -296 30 65 -305 0
-278 -296 -31 -66 -306 0
-278 -296 -31 66 306 0
-278 -296 31 -66 306 0
-278 -296 31 66 -306 0
-278 -296 -32 -67 -307 0
-278 -296 -32 67 307 0
-278 -296 32 -67 307 0
-278 -296 32 67 -307 0
-278 -296 -33 -68 -308 0
-278 -296 -33 68 308 0
-278 -296 33 -68 308 0
-278 -296 33 68 -308 0
-278 -296 -34 -69 -309 0
-278 -296 -34 69 309 0
-278 -296 34 -69 309 0
-278 -296 34 69 -309 0
-278 -296 -35 -70 -310 0
-278 -296 -35 70 310 0
-278 -296 35 -70 310 0
-278 -296 35 70 -310 0
-278 -297 -29 -87 -304 0
-278 -297 -29 87 304 0
-278 -297 29 -87 304 0
-278 -297 29 87 -304 0
-278 -297 -30 -88 -305 0
-278 -297 -30 88 305 0
-278 -297 30 -88 305 0
-278 -297 30 88 -305 0
-278 -297 -31 -89 -306 0
-278 -297 -31 89 306 0
-278 -297 31 -89 306 0
-278 -297 31 89 -306 0
-278 -297 -32 -90 -307 0
-278 -297 -32 90 307 0
-278 -297 32 -90 307 0
-278 -297 32 90 -307 0
-278 -297 -33 -91 -308 0
-278 -297 -33 91 308 0
-278 -297 33 -91 308 0
-278 -297 33 91 -308 0
-278 -297 -34 -92 -309 0
-278 -297 -34 92 309 0
-278 -297 34 -92 309 0
-278 -297 34 92 -309 0
-278 -297 -35 -93 -310 0
-278 -297 -35 93 310 0
-278 -297 35 -93 310 0
-278 -297 35 93 -310 0
-278 -298 -29 -112 -304 0
-278 -298 -29 112 304 0
-278 -298 29 -112 304 0
-278 -298 29 112 -304 0
-278 -298 -30 -113 -305 0
-278 -298 -30 113 305 0
-278 -298 30 -113 305 0
-278 -298 30 113 -305 0
-278 -298 -31 -114 -306 0
-278 -298 -31 114 306 0
-278 -298 31 -114 306 0
-278 -298 31 114 -306 0
-278 -298 -32 -115 -307 0
-278 -298 -32 115 307 0
-278 -298 32 -115 307 0
-278 -298 32 115 -307 0
-278 -298 -33 -116 -308 0
-278 -298 -33 116 308 0
-278 -298 33 -116 308 0
-278 -298 33 116 -308 0
-278 -298 -34 -117 -309 0
-278 -298 -34 117 309 0
-278 -298 34 -117 309 0
-278 -298 34 117 -309 0
-278 -298 -35 -118 -310 0
-278 -298 -35 118 310 0
-278 -298 35 -118 310 0
-278 -298 35 118 -310 0
-278 -299 -29 -139 -304 0
-278 -299 -29 139 304 0
-278 -299 29 -139 304 0
-278 -299 29 139 -304 0
-278 -299 -30 -140 -305 0
-278 -299 -30 140 305 0
-278 -299 30 -140 305 0
-278 -299 30 140 -305 0
-278 -299 -31 -141 -306 0
-278 -299 -31 141 306 0
-278 -299 31 -141 306 0
-278 -299 31 141 -306 0
-278 -299 -32 -142 -307 0
-278 -299 -32 142 307 0
-278 -299 32 -142 307 0
-278 -299 32 142 -307 0
-278 -299 -33 -143 -308 0
-278 -299 -33 143 308 0
-278 -299 33 -143 308 0
-278 -299 33 143 -308 0
-278 -299 -34 -144 -309 0
-278 -299 -34 144 309 0
-278 -299 34 -144 309 0
-278 -299 34 144 -309 0
-278 -299 -35 -145 -310 0
-278 -299 -35 145 310 0
-278 -299 35 -145 310 0
-278 -299 35 145 -310 0
-278 -300 -29 -168 -304 0
-278 -300 -29 168 304 0
-278 -300 29 -168 304 0
-278 -300 29 168 -304 0
-278 -300 -30 -169 -305 0
-278 -300 -30 169 305 0
-278 -300 30 -169 305 0
-278 -300 30 169 -305 0
-278 -300 -31 -170 -306 0
-278 -300 -31 170 306 0
-278 -300 31 -170 306 0
-278 -300 31 170 -306 0
-278 -300 -32 -171 -307 0
-278 -300 -32 171 307 0
-278 -300 32 -171 307 0
-278 -300 32 171 -307 0
-278 -300 -33 -172 -308 0
-278 -300 -33 172 308 0
-278 -300 33 -172 308 0
-278 -300 33 172 -308 0
-278 -300 -34 -173 -309 0
-278 -300 -34 173 309 0
-278 -300 34 -173 309 0
-278 -300 34 173 -309 0
-278 -300 -35 -174 -310 0
-278 -300 -35 174 310 0
-278 -300 35 -174 310 0
-278 -300 35 174 -310 0
-278 -301 -29 -199 -304 0
-278 -301 -29 199 304 0
-278 -301 29 -199 304 0
-278 -301 29 199 -304 0
-278 -301 -30 -200 -305 0
-278 -301 -30 200 305 0
-278 -301 30 -200 305 0
-278 -301 30 200 -305 0
-278 -301 -31 -201 -306 0
-278 -301 -31 201 306 0
-278 -301 31 -201 306 0
-278 -301 31 201 -306 0
-278 -301 -32 -202 -307 0
-278 -301 -32 202 307 0
-278 -301 32 -202 307 0
-278 -301 32 202 -307 0
-278 -301 -33 -203 -308 0
-278 -301 -33 203 308 0
-278 -301 33 -203 308 0
-278 -301 33 203 -308 0
-278 -301 -34 -204 -309 0
-278 -301 -34 204 309 0
-278 -301 34 -204 309 0
-278 -301 34 204 -309 0
-278 -301 -35 -205 -310 0
-278 -301 -35 205 310 0
-278 -301 35 -205 310 0
-278 -301 35 205 -310 0
-278 -302 -29 -232 -304 0
-278 -302 -29 232 304 0
-278 -302 29 -232 304 0
-278 -302 29 232 -304 0
-278 -302 -30 -233 -305 0
-278 -302 -30 233 305 0
-278 -302 30 -233 305 0
-278 -302 30 233 -305 0
-278 -302 -31 -234 -306 0
-278 -302 -31 234 306 0
-278 -302 31 -234 306 0
-278 -302 31 234 -306 0
-278 -302 -32 -235 -307 0
-278 -302 -32 235 307 0
-278 -302 32 -235 307 0
-278 -302 32 235 -307 0
-278 -302 -33 -236 -308 0
-278 -302 -33 236 308 0
-278 -302 33 -236 308 0
-278 -302 33 236 -308 0
-278 -302 -34 -237 -309 0
-278 -302 -34 237 309 0
-278 -302 34 -237 309 0
-278 -302 34 237 -309 0
-278 -302 -35 -238 -310 0
-278 -302 -35 238 310 0
-278 -302 35 -238 310 0
-278 -302 35 238 -310 0
-278 -303 -29 -267 -304 0
-278 -303 -29 267 304 0
-278 -303 29 -267 304 0
-278 -303 29 267 -304 0
-278 -303 -30 -268 -305 0
-278 -303 -30 268 305 0
-278 -303 30 -268 305 0
-278 -303 30 268 -305 0
-278 -303 -31 -269 -306 0
-278 -303 -31 269 306 0
-278 -303 31 -269 306 0
-278 -303 31 269 -306 0
-278 -303 -32 -270 -307 0
-278 -303 -32 270 307 0
-278 -303 32 -270 307 0
-278 -303 32 270 -307 0
-278 -303 -33 -271 -308 0
-278 -303 -33 271 308 0
-278 -303 33 -271 308 0
-278 -303 33 271 -308 0
-278 -303 -34 -272 -309 0
-278 -303 -34 272 309 0
-278 -303 34 -272 309 0
-278 -303 34 272 -309 0
-278 -303 -35 -273 -310 0
-278 -303 -35 273 310 0
-278 -303 35 -273 310 0
-278 -303 35 273 -310 0
-279 -295 -36 -43 -304 0
-279 -295 -36 43 304 0
-279 -295 36 -43 304 0
-279 -295 36 43 -304 0
-279 -295 -37 -44 -305 0
-279 -295 -37 44 305 0
-279 -295 37 -44 305 0
-279 -295 37 44 -305 0
-279 -295 -38 -45 -306 0
-279 -295 -38 45 306 0
-279 -295 38 -45 306 0
-279 -295 38 45 -306 0
-279 -295 -39 -46 -307 0
-279 -295 -39 46 307 0
-279 -295 39 -46 307 0
-279 -295 39 46 -307 0
-279 -295 -40 -47 -308 0
-279 -295 -40 47 308 0
-279 -295 40 -47 308 0
-279 -295 40 47 -308 0
-279 -295 -41 -48 -309 0
-279 -295 -41 48 309 0
-279 -295 41 -48 309 0
-279 -295 41 48 -309 0
-279 -295 -42 -49 -310 0
-279 -295 -42 49 310 0
-279 -295 42 -49 310 0
-279 -295 42 49 -310 0
-279 -296 -36 -64 -304 0
-279 -296 -36 64 304 0
-279 -296 36 -64 304 0
-279 -296 36 64 -304 0
-279 -296 -37 -65 -305 0
-279 -296 -37 65 305 0
-279 -296 37 -65 305 0
-279 -296 37 65 -305 0
-279 -296 -38 -66 -306 0
-279 -296 -38 66 306 0
-279 -296 38 -66 306 0
-279 -296 38 66 -306 0
-279 -296 -39 -67 -307 0
-279 -296 -39 67 307 0
-279 -296 39 -67 307 0
-279 -296 39 67 -307 0
-279 -296 -40 -68 -308 0
-279 -296 -40 68 308 0
-279 -296 40 -68 308 0
-279 -296 40 68 -308 0
-279 -296 -41 -69 -309 0
-279 -296 -41 69 309 0
-279 -296 41 -69 309 0
-279 -296 41 69 -309 0
-279 -296 -42 -70 -310 0
-279 -296 -42 70 310 0
-279 -296 42 -70 310 0
-279 -296 42 70 -310 0
-279 -297 -36 -87 -304 0
-279 -297 -36 87 304 0
-279 -297 36 -87 304 0
-279 -297 36 87 -304 0
-279 -297 -37 -88 -305 0
-279 -297 -37 88 305 0
-279 -297 37 -88 305 0
-279 -297 37 88 -305 0
-279 -297 -38 -89 -306 0
-279 -297 -38 89 306 0
-279 -297 38 -89 306 0
-279 -297 38 89 -306 0
-279 -297 -39 -90 -307 0
-279 -297 -39 90 307 0
-279 -297 39 -90 307 0
-279 -297 39 90 -307 0
-279 -297 -40 -91 -308 0
-279 -297 -40 91 308 0
-279 -297 40 -91 308 0
-279 -297 40 91 -308 0
-279 -297 -41 -92 -309 0
-279 -297 -41 92 309 0
-279 -297 41 -92 309 0
-279 -297 41 92 -309 0
-279 -297 -42 -93 -310 0
-279 -297 -42 93 310 0
-279 -297 42 -93 310 0
-279 -297 42 93 -310 0
-279 -298 -36 -112 -304 0
-279 -298 -36 112 304 0
-279 -298 36 -112 304 0
-279 -298 36 112 -304 0
-279 -298 -37 -113 -305 0
-279 -298 -37 113 305 0
-279 -298 37 -113 305 0
-279 -298 37 113 -305 0
-279 -298 -38 -114 -306 0
-279 -298 -38 114 306 0
-279 -298 38 -114 306 0
-279 -298 38 114 -306 0
-279 -298 -39 -115 -307 0
-279 -298 -39 115 307 0
-279 -298 39 -115 307 0
-279 -298 39 115 -307 0
-279 -298 -40 -116 -308 0
-279 -298 -40 116 308 0
-279 -298 40 -116 308 0
-279 -298 40 116 -308 0
-279 -298 -41 -117 -309 0
-279 -298 -41 117 309 0
-279 -298 41 -117 309 0
-279 -298 41 117 -309 0
-279 -298 -42 -118 -310 0
-279 -298 -42 118 310 0
-279 -298 42 -118 310 0
-279 -298 42 118 -310 0
-279 -299 -36 -139 -304 0
-279 -299 -36 139 304 0
-279 -299 36 -139 304 0
-279 -299 36 139 -304 0
-279 -299 -37 -140 -305 0
-279 -299 -37 140 305 0
-279 -299 37 -140 305 0
-279 -299 37 140 -305 0
-279 -299 -38 -141 -306 0
-279 -299 -38 141 306 0
-279 -299 38 -141 306 0
-279 -299 38 141 -306 0
-279 -299 -39 -142 -307 0
-279 -299 -39 142 307 0
-279 -299 39 -142 307 0
-279 -299 39 142 -307 0
-279 -299 -40 -143 -308 0
-279 -299 -40 143 308 0
-279 -299 40 -143 308 0
-279 -299 40 143 -308 0
-279 -299 -41 -144 -309 0
-279 -299 -41 144 309 0
-279 -299 41 -144 309 0
-279 -299 41 144 -309 0
-279 -299 -42 -145 -310 0
-279 -299 -42 145 310 0
-279 -299 42 -145 310 0
-279 -299 42 145 -310 0
-279 -300 -36 -168 -304 0
-279 -300 -36 168 304 0
-279 -300 36 -168 304 0
-279 -300 36 168 -304 0
-279 -300 -37 -169 -305 0
-279 -300 -37 169 305 0
-279 -300 37 -169 305 0
-279 -300 37 169 -305 0
-279 -300 -38 -170 -306 0
-279 -300 -38 170 306 0
-279 -300 38 -170 306 0
-279 -300 38 170 -306 0
-279 -300 -39 -171 -307 0
-279 -300 -39 171 307 0
-279 -300 39 -171 307 0
-279 -300 39 171 -307 0
-279 -300 -40 -172 -308 0
-279 -300 -40 172 308 0
-279 -300 40 -172 308 0
-279 -300 40 172 -308 0
-279 -300 -41 -173 -309 0
-279 -300 -41 173 309 0
-279 -300 41 -173 309 0
-279 -300 41 173 -309 0
-279 -300 -42 -174 -310 0
-279 -300 -42 174 310 0
-279 -300 42 -174 310 0
-279 -300 42 174 -310 0
-279 -301 -36 -199 -304 0
-279 -301 -36 199 304 0
-279 -301 36 -199 304 0
-279 -301 36 199 -304 0
-279 -301 -37 -200 -305 0
-279 -301 -37 200 305 0
-279 -301 37 -200 305 0
-279 -301 37 200 -305 0
-279 -301 -38 -201 -306 0
-279 -301 -38 201 306 0
-279 -301 38 -201 306 0
-279 -301 38 201 -306 0
-279 -301 -39 -202 -307 0
-279 -301 -39 202 307 0
-279 -301 39 -202 307 0
-279 -301 39 202 -307 0
-279 -301 -40 -203 -308 0
-279 -301 -40 203 308 0
-279 -301 40 -203 308 0
-279 -301 40 203 -308 0
-279 -301 -41 -204 -309 0
-279 -301 -41 204 309 0
-279 -301 41 -204 309 0
-279 -301 41 204 -309 0
-279 -301 -42 -205 -310 0
-279 -301 -42 205 310 0
-279 -301 42 -205 310 0
-279 -301 42 205 -310 0
-279 -302 -36 -232 -304 0
-279 -302 -36 232 304 0
-279 -302 36 -232 304 0
-279 -302 36 232 -304 0
-279 -302 -37 -233 -305 0
-279 -302 -37 233 305 0
-279 -302 37 -233 305 0
-279 -302 37 233 -305 0
-279 -302 -38 -234 -306 0
-279 -302 -38 234 306 0
-279 -302 38 -234 306 0
-279 -302 38 234 -306 0
-279 -302 -39 -235 -307 0
-279 -302 -39 235 307 0
-279 -302 39 -235 307 0
-279 -302 39 235 -307 0
-279 -302 -40 -236 -308 0
-279 -302 -40 236 308 0
-279 -302 40 -236 308 0
-279 -302 40 236 -308 0
-279 -302 -41 -237 -309 0
-279 -302 -41 237 309 0
-279 -302 41 -237 309 0
-279 -302 41 237 -309 0
-279 -302 -42 -238 -310 0
-279 -302 -42 238 310 0
-279 -302 42 -238 310 0
-279 -302 42 238 -310 0
-279 -303 -36 -267 -304 0
-279 -303 -36 267 304 0
-279 -303 36 -267 304 0
-279 -303 36 267 -304 0
-279 -303 -37 -268 -305 0
-279 -303 -37 268 305 0
-279 -303 37 -268 305 0
-279 -303 37 268 -305 0
-279 -303 -38 -269 -306 0
-279 -303 -38 269 306 0
-279 -303 38 -269 306 0
-279 -303 38 269 -306 0
-279 -303 -39 -270 -307 0
-279 -303 -39 270 307 0
-279 -303 39 -270 307 0
-279 -303 39 270 -307 0
-279 -303 -40 -271 -308 0
-279 -303 -40 271 308 0
-279 -303 40 -271 308 0
-279 -303 40 271 -308 0
-279 -303 -41 -272 -309 0
-279 -303 -41 272 309 0
-279 -303 41 -272 309 0
-279 -303 41 272 -309 0
-279 -303 -42 -273 -310 0
-279 -303 -42 273 310 0
-279 -303 42 -273 310 0
-279 -303 42 273 -310 0
-280 -296 -43 -64 -304 0
-280 -296 -43 64 304 0
-280 -296 43 -64 304 0
-280 -296 43 64 -304 0
-280 -296 -44 -65 -305 0
-280 -296 -44 65 305 0
-280 -296 44 -65 305 0
-280 -296 44 65 -305 0
-280 -296 -45 -66 -306 0
-280 -296 -45 66 306 0
-280 -296 45 -66 306 0
-280 -296 45 66 -306 0
-280 -296 -46 -67 -307 0
-280 -296 -46 67 307 0
-280 -296 46 -67 307 0
-280 -296 46 67 -307 0
-280 -296 -47 -68 -308 0
-280 -296 -47 68 308 0
-280 -296 47 -68 308 0
-280 -296 47 68 -308 0
-280 -296 -48 -69 -309 0
-280 -296 -48 69 309 0
-280 -296 48 -69 309 0
-280 -296 48 69 -309 0
-280 -296 -49 -70 -310 0
-280 -296 -49 70 310 0
-280 -296 49 -70 310 0
-280 -296 49 70 -310 0
-280 -297 -43 -87 -304 0
-280 -297 -43 87 304 0
-280 -297 43 -87 304 0
-280 -297 43 87 -304 0
-280 -297 -44 -88 -305 0
-280 -297 -44 88 305 0
-280 -297 44 -88 305 0
-280 -297 44 88 -305 0
-280 -297 -45 -89 -306 0
-280 -297 -45 89 306 0
-280 -297 45 -89 306 0
-280 -297 45 89 -306 0
-280 -297 -46 -90 -307 0
-280 -297 -46 90 307 0
-280 -297 46 -90 307 0
-280 -297 46 90 -307 0
-280 -297 -47 -91 -308 0
-280 -297 -47 91 308 0
-280 -297 47 -91 308 0
-280 -297 47 91 -308 0
-280 -297 -48 -92 -309 0
-280 -297 -48 92 309 0
-280 -297 48 -92 309 0
-280 -297 48 92 -309 0
-280 -297 -49 -93 -310 0
-280 -297 -49 93 310 0
-280 -297 49 -93 310 0
-280 -297 49 93 -310 0
-280 -298 -43 -112 -304 0
-280 -298 -43 112 304 0
-280 -298 43 -112 304 0
-280 -298 43 112 -304 0
-280 -298 -44 -113 -305 0
-280 -298 -44 113 305 0
-280 -298 44 -113 305 0
-280 -298 44 113 -305 0
-280 -298 -45 -114 -306 0
-280 -298 -45 114 306 0
-280 -298 45 -114 306 0
-280 -298 45 114 -306 0
-280 -298 -46 -115 -307 0
-280 -298 -46 115 307 0
-280 -298 46 -115 307 0
-280 -298 46 115 -307 0
-280 -298 -47 -116 -308 0
-280 -298 -47 116 308 0
-280 -298 47 -116 308 0
-280 -298 47 116 -308 0
-280 -298 -48 -117 -309 0
-280 -298 -48 117 309 0
-280 -298 48 -117 309 0
-280 -298 48 117 -309 0
-280 -298 -49 -118 -310 0
-280 -298 -49 118 310 0
-280 -298 49 -118 310 0
-280 -298 49 118 -310 0
-280 -299 -43 -139 -304 0
-280 -299 -43 139 304 0
-280 -299 43 -139 304 0
-280 -299 43 139 -304 0
-280 -299 -44 -140 -305 0
-280 -299 -44 140 305 0
-280 -299 44 -140 305 0
-280 -299 44 140 -305 0
-280 -299 -45 -141 -306 0
-280 -299 -45 141 306 0
-280 -299 45 -141 306 0
-280 -299 45 141 -306 0
-280 -299 -46 -142 -307 0
-280 -299 -46 142 307 0
-280 -299 46 -142 307 0
-280 -299 46 142 -307 0
-280 -299 -47 -143 -308 0
-280 -299 -47 143 308 0
-280 -299 47 -143 308 0
-280 -299 47 143 -308 0
-280 -299 -48 -144 -309 0
-280 -299 -48 144 309 0
-280 -299 48 -144 309 0
-280 -299 48 144 -309 0
-280 -299 -49 -145 -310 0
-280 -299 -49 145 310 0
-280 -299 49 -145 310 0
-280 -299 49 145 -310 0
-280 -300 -43 -168 -304 0
-280 -300 -43 168 304 0
-280 -300 43 -168 304 0
-280 -300 43 168 -304 0
-280 -300 -44 -169 -305 0
-280 -300 -44 169 305 0
-280 -300 44 -169 305 0
-280 -300 44 169 -305 0
-280 -300 -45 -170 -306 0
-280 -300 -45 170 306 0
-280 -300 45 -170 306 0
-280 -300 45 170 -306 0
-280 -300 -46 -171 -307 0
-280 -300 -46 171 307 0
-280 -300 46 -171 307 0
-280 -300 46 171 -307 0
-280 -300 -47 -172 -308 0
-280 -300 -47 172 308 0
-280 -300 47 -172 308 0
-280 -300 47 172 -308 0
-280 -300 -48 -173 -309 0
-280 -300 -48 173 309 0
-280 -300 48 -173 309 0
-280 -300 48 173 -309 0
-280 -300 -49 -174 -310 0
-280 -300 -49 174 310 0
-280 -300 49 -174 310 0
-280 -300 49 174 -310 0
-280 -301 -43 -199 -304 0
-280 -301 -43 199 304 0
-280 -301 43 -199 304 0
-280 -301 43 199 -304 0
-280 -301 -44 -200 -305 0
-280 -301 -44 200 305 0
-280 -301 44 -200 305 0
-280 -301 44 200 -305 0
-280 -301 -45 -201 -306 0
-280 -301 -45 201 306 0
-280 -301 45 -201 306 0
-280 -301 45 201 -306 0
-280 -301 -46 -202 -307 0
-280 -301 -46 202 307 0
-280 -301 46 -202 307 0
-280 -301 46 202 -307 0
-280 -301 -47 -203 -308 0
-280 -301 -47 203 308 0
-280 -301 47 -203 308 0
-280 -301 47 203 -308 0
-280 -301 -48 -204 -309 0
-280 -301 -48 204 309 0
-280 -301 48 -204 309 0
-280 -301 48 204 -309 0
-280 -301 -49 -205 -310 0
-280 -301 -49 205 310 0
-280 -301 49 -205 310 0
-280 -301 49 205 -310 0
-280 -302 -43 -232 -304 0
-280 -302 -43 232 304 0
-280 -302 43 -232 304 0
-280 -302 43 232 -304 0
-280 -302 -44 -233 -305 0
-280 -302 -44 233 305 0
-280 -302 44 -233 305 0
-280 -302 44 233 -305 0
-280 -302 -45 -234 -306 0
-280 -302 -45 234 306 0
-280 -302 45 -234 306 0
-280 -302 45 234 -306 0
-280 -302 -46 -235 -307 0
-280 -302 -46 235 307 0
-280 -302 46 -235 307 0
-280 -302 46 235 -307 0
-280 -302 -47 -236 -308 0
-280 -302 -47 236 308 0
-280 -302 47 -236 308 0
-280 -302 47 236 -308 0
-280 -302 -48 -237 -309 0
-280 -302 -48 237 309 0
-280 -302 48 -237 309 0
-280 -302 48 237 -309 0
-280 -302 -49 -238 -310 0
-280 -302 -49 238 310 0
-280 -302 49 -238 310 0
-280 -302 49 238 -310 0
-280 -303 -43 -267 -304 0
-280 -303 -43 267 304 0
-280 -303 43 -267 304 0
-280 -303 43 267 -304 0
-280 -303 -44 -268 -305 0
-280 -303 -44 268 305 0
-280 -303 44 -268 305 0
-280 -303 44 268 -305 0
-280 -303 -45 -269 -306 0
-280 -303 -45 269 306 0
-280 -303 45 -269 306 0
-280 -303 45 269 -306 0
-280 -303 -46 -270 -307 0
-280 -303 -46 270 307 0
-280 -303 46 -270 307 0
-280 -303 46 270 -307 0
-280 -303 -47 -271 -308 0
-280 -303 -47 271 308 0
-280 -303 47 -271 308 0
-280 -303 47 271 -308 0
-280 -303 -48 -272 -309 0
-280 -303 -48 272 309 0
-280 -303 48 -272 309 0
-280 -303 48 272 -309 0
-280 -303 -49 -273 -310 0
-280 -303 -49 273 310 0
-280 -303 49 -273 310 0
-280 -303 49 273 -310 0
-281 -297 -64 -87 -304 0
-281 -297 -64 87 304 0
-281 -297 64 -87 304 0
-281 -297 64 87 -304 0
-281 -297 -65 -88 -305 0
-281 -297 -65 88 305 0
-281 -297 65 -88 305 0
-281 -297 65 88 -305 0
-281 -297 -66 -89 -306 0
-281 -297 -66 89 306 0
-281 -297 66 -89 306 0
-281 -297 66 89 -306 0
-281 -297 -67 -90 -307 0
-281 -297 -67 90 307 0
-281 -297 67 -90 307 0
-281 -297 67 90 -307 0
-281 -297 -68 -91 -308 0
-281 -297 -68 91 308 0
-281 -297 68 -91 308 0
-281 -297 68 91 -308 0
-281 -297 -69 -92 -309 0
-281 -297 -69 92 309 0
-281 -297 69 -92 309 0
-281 -297 69 92 -309 0
-281 -297 -70 -93 -310 0
-281 -297 -70 93 310 0
-281 -297 70 -93 310 0
-281 -297 70 93 -310 0
-281 -298 -64 -112 -304 0
-281 -298 -64 112 304 0
-281 -298 64 -112 304 0
-281 -298 64 112 -304 0
-281 -298 -65 -113 -305 0
-281 -298 -65 113 305 0
-281 -298 65 -113 305 0
-281 -298 65 113 -305 0
-281 -298 -66 -114 -306 0
-281 -298 -66 114 306 0
-281 -298 66 -114 306 0
-281 -298 66 114 -306 0
-281 -298 -67 -115 -307 0
-281 -298 -67 115 307 0
-281 -298 67 -115 307 0
-281 -298 67 115 -307 0
-281 -298 -68 -116 -308 0
-281 -298 -68 116 308 0
-281 -298 68 -116 308 0
-281 -298 68 116 -308 0
-281 -298 -69 -117 -309 0
-281 -298 -69 117 309 0
-281 -298 69 -117 309 0
-281 -298 69 117 -309 0
-281 -298 -70 -118 -310 0
-281 -298 -70 118 310 0
-281 -298 70 -118 310 0
-281 -298 70 118 -310 0
-281 -299 -64 -139 -304 0
-281 -299 -64 139 304 0
-281 -299 64 -139 304 0
-281 -299 64 139 -304 0
-281 -299 -65 -140 -305 0
-281 -299 -65 140 305 0
-281 -299 65 -140 305 0
-281 -299 65 140 -305 0
-281 -299 -66 -141 -306 0
-281 -299 -66 141 306 0
-281 -299 66 -141 306 0
-281 -299 66 141 -306 0
-281 -299 -67 -142 -307 0
-281 -299 -67 142 307 0
-281 -299 67 -142 307 0
-281 -299 67 142 -307 0
-281 -299 -68 -143 -308 0
-281 -299 -68 143 308 0
-281 -299 68 -143 308 0
-281 -299 68 143 -308 0
-281 -299 -69 -144 -309 0
-281 -299 -69 144 309 0
-281 -299 69 -144 309 0
-281 -299 69 144 -309 0
-281 -299 -70 -145 -310 0
-281 -299 -70 145 310 0
-281 -299 70 -145 310 0
-281 -299 70 145 -310 0
-281 -300 -64 -168 -304 0
-281 -300 -64 168 304 0
-281 -300 64 -168 304 0
-281 -300 64 168 -304 0
-281 -300 -65 -169 -305 0
-281 -300 -65 169 305 0
-281 -300 65 -169 305 0
-281 -300 65 169 -305 0
-281 -300 -66 -170 -306 0
-281 -300 -66 170 306 0
-281 -300 66 -170 306 0
-281 -300 66 170 -306 0
-281 -300 -67 -171 -307 0
-281 -300 -67 171 307 0
-281 -300 67 -171 307 0
-281 -300 67 171 -307 0
-281 -300 -68 -172 -308 0
-281 -300 -68 172 308 0
-281 -300 68 -172 308 0
-281 -300 68 172 -308 0
-281 -300 -69 -173 -309 0
-281 -300 -69 173 309 0
-281 -300 69 -173 309 0
-281 -300 69 173 -309 0
-281 -300 -70 -174 -310 0
-281 -300 -70 174 310 0
-281 -300 70 -174 310 0
-281 -300 70 174 -310 0
-281 -301 -64 -199 -304 0
-281 -301 -64 199 304 0
-281 -301 64 -199 304 0
-281 -301 64 199 -304 0
-281 -301 -65 -200 -305 0
-281 -301 -65 200 305 0
-281 -301 65 -200 305 0
-281 -301 65 200 -305 0
-281 -301 -66 -201 -306 0
-281 -301 -66 201 306 0
-281 -301 66 -201 306 0
-281 -301 66 201 -306 0
-281 -301 -67 -202 -307 0
-281 -301 -67 202 307 0
-281 -301 67 -202 307 0
-281 -301 67 202 -307 0
-281 -301 -68 -203 -308 0
-281 -301 -68 203 308 0
-281 -301 68 -203 308 0
-281 -301 68 203 -308 0
-281 -301 -69 -204 -309 0
-281 -301 -69 204 309 0
-281 -301 69 -204 309 0
-281 -301 69 204 -309 0
-281 -301 -70 -205 -310 0
-281 -301 -70 205 310 0
-281 -301 70 -205 310 0
-281 -301 70 205 -310 0
-281 -302 -64 -232 -304 0
-281 -302 -64 232 304 0
-281 -302 64 -232 304 0
-281 -302 64 232 -304 0
-281 -302 -65 -233 -305 0
-281 -302 -65 233 305 0
-281 -302 65 -233 305 0
-281 -302 65 233 -305 0
-281 -302 -66 -234 -306 0
-281 -302 -66 234 306 0
-281 -302 66 -234 306 0
-281 -302 66 234 -306 0
-281 -302 -67 -235 -307 0
-281 -302 -67 235 307 0
-281 -302 67 -235 307 0
-281 -302 67 235 -307 0
-281 -302 -68 -236 -308 0
-281 -302 -68 236 308 0
-281 -302 68 -236 308 0
-281 -302 68 236 -308 0
-281 -302 -69 -237 -309 0
-281 -302 -69 237 309 0
-281 -302 69 -237 309 0
-281 -302 69 237 -309 0
-281 -302 -70 -238 -310 0
-281 -302 -70 238 310 0
-281 -302 70 -238 310 0
-281 -302 70 238 -310 0
-281 -303 -64 -267 -304 0
-281 -303 -64 267 304 0
-281 -303 64 -267 304 0
-281 -303 64 267 -304 0
-281 -303 -65 -268 -305 0
-281 -303 -65 268 305 0
-281 -303 65 -268 305 0
-281 -303 65 268 -305 0
-281 -303 -66 -269 -306 0
-281 -303 -66 269 306 0
-281 -303 66 -269 306 0
-281 -303 66 269 -306 0
-281 -303 -67 -270 -307 0
-281 -303 -67 270 307 0
-281 -303 67 -270 307 0
-281 -303 67 270 -307 0
-281 -303 -68 -271 -308 0
-281 -303 -68 271 308 0
-281 -303 68 -271 308 0
-281 -303 68 271 -308 0
-281 -303 -69 -272 -309 0
-281 -303 -69 272 309 0
-281 -303 69 -272 309 0
-281 -303 69 272 -309 0
-281 -303 -70 -273 -310 0
-281 -303 -70 273 310 0
-281 -303 70 -273 310 0
-281 -303 70 273 -310 0
-282 -298 -87 -112 -304 0
-282 -298 -87 112 304 0
-282 -298 87 -112 304 0
-282 -298 87 112 -304 0
-282 -298 -88 -113 -305 0
-282 -298 -88 113 305 0
-282 -298 88 -113 305 0
-282 -298 88 113 -305 0
-282 -298 -89 -114 -306 0
-282 -298 -89 114 306 0
-282 -298 89 -114 306 0
-282 -298 89 114 -306 0
-282 -298 -90 -115 -307 0
-282 -298 -90 115 307 0
-282 -298 90 -115 307 0
-282 -298 90 115 -307 0
-282 -298 -91 -116 -308 0
-282 -298 -91 116 308 0
-282 -298 91 -116 308 0
-282 -298 91 116 -308 0
-282 -298 -92 -117 -309 0
-282 -298 -92 117 309 0
-282 -298 92 -117 309 0
-282 -298 92 117 -309 0
-282 -298 -93 -118 -310 0
-282 -298 -93 118 310 0
-282 -298 93 -118 310 0
-282 -298 93 118 -310 0
-282 -299 -87 -139 -304 0
-282 -299 -87 139 304 0
-282 -299 87 -139 304 0
-282 -299 87 139 -304 0
-282 -299 -88 -140 -305 0
-282 -299 -88 140 305 0
-282 -299 88 -140 305 0
-282 -299 88 140 -305 0
-282 -299 -89 -141 -306 0
-282 -299 -89 141 306 0
-282 -299 89 -141 306 0
-282 -299 89 141 -306 0
-282 -299 -90 -142 -307 0
-282 -299 -90 142 307 0
-282 -299 90 -142 307 0
-282 -299 90 142 -307 0
-282 -299 -91 -143 -308 0
-282 -299 -91 143 308 0
-282 -299 91 -143 308 0
-282 -299 91 143 -308 0
-282 -299 -92 -144 -309 0
-282 -299 -92 144 309 0
-282 -299 92 -144 309 0
-282 -299 92 144 -309 0
-282 -299 -93 -145 -310 0
-282 -299 -93 145 310 0
-282 -299 93 -145 310 0
-282 -299 93 145 -310 0
-282 -300 -87 -168 -304 0
-282 -300 -87 168 304 0
-282 -300 87 -168 304 0
-282 -300 87 168 -304 0
-282 -300 -88 -169 -305 0
-282 -300 -88 169 305 0
-282 -300 88 -169 305 0
-282 -300 88 169 -305 0
-282 -300 -89 -170 -306 0
-282 -300 -89 170 306 0
-282 -300 89 -170 306 0
-282 -300 89 170 -306 0
-282 -300 -90 -171 -307 0
-282 -300 -90 171 307 0
-282 -300 90 -171 307 0
-282 -300 90 171 -307 0
-282 -300 -91 -172 -308 0
-282 -300 -91 172 308 0
-282 -300 91 -172 308 0
-282 -300 91 172 -308 0
-282 -300 -92 -173 -309 0
-282 -300 -92 173 309 0
-282 -300 92 -173 309 0
-282 -300 92 173 -309 0
-282 -300 -93 -174 -310 0
-282 -300 -93 174 310 0
-282 -300 93 -174 310 0
-282 -300 93 174 -310 0
-282 -301 -87 -199 -304 0
-282 -301 -87 199 304 0
-282 -301 87 -199 304 0
-282 -301 87 199 -304 0
-282 -301 -88 -200 -305 0
-282 -301 -88 200 305 0
-282 -301 88 -200 305 0
-282 -301 88 200 -305 0
-282 -301 -89 -201 -306 0
-282 -301 -89 201 306 0
-282 -301 89 -201 306 0
-282 -301 89 201 -306 0
-282 -301 -90 -202 -307 0
-282 -301 -90 202 307 0
-282 -301 90 -202 307 0
-282 -301 90 202 -307 0
-282 -301 -91 -203 -308 0
-282 -301 -91 203 308 0
-282 -301 91 -203 308 0
-282 -301 91 203 -308 0
-282 -301 -92 -204 -309 0
-282 -301 -92 204 309 0
-282 -301 92 -204 309 0
-282 -301 92 204 -309 0
-282 -301 -93 -205 -310 0
-282 -301 -93 205 310 0
-282 -301 93 -205 310 0
-282 -301 93 205 -310 0
-282 -302 -87 -232 -304 0
-282 -302 -87 232 304 0
-282 -302 87 -232 304 0
-282 -302 87 232 -304 0
-282 -302 -88 -233 -305 0
-282 -302 -88 233 305 0
-282 -302 88 -233 305 0
-282 -302 88 233 -305 0
-282 -302 -89 -234 -306 0
-282 -302 -89 234 306 0
-282 -302 89 -234 306 0
-282 -302 89 234 -306 0
-282 -302 -90 -235 -307 0
-282 -302 -90 235 307 0
-282 -302 90 -235 307 0
-282 -302 90 235 -307 0
-282 -302 -91 -236 -308 0
-282 -302 -91 236 308 0
-282 -302 91 -236 308 0
-282 -302 91 236 -308 0
-282 -302 -92 -237 -309 0
-282 -302 -92 237 309 0
-282 -302 92 -237 309 0
-282 -302 92 237 -309 0
-282 -302 -93 -238 -310 0
-282 -302 -93 238 310 0
-282 -302 93 -238 310 0
-282 -302 93 238 -310 0
-282 -303 -87 -267 -304 0
-282 -303 -87 267 304 0
-282 -303 87 -267 304 0
-282 -303 87 267 -304 0
-282 -303 -88 -268 -305 0
-282 -303 -88 268 305 0
-282 -303 88 -268 305 0
-282 -303 88 268 -305 0
-282 -303 -89 -269 -306 0
-282 -303 -89 269 306 0
-282 -303 89 -269 306 0
-282 -303 89 269 -306 0
-282 -303 -90 -270 -307 0
-282 -303 -90 270 307 0
-282 -303 90 -270 307 0
-282 -303 90 270 -307 0
-282 -303 -91 -271 -308 0
-282 -303 -91 271 308 0
-282 -303 91 -271 308 0
-282 -303 91 271 -308 0
-282 -303 -92 -272 -309 0
-282 -303 -92 272 309 0
-282 -303 92 -272 309 0
-282 -303 92 272 -309 0
-282 -303 -93 -273 -310 0
-282 -303 -93 273 310 0
-282 -303 93 -273 310 0
-282 -303 93 273 -310 0
-283 -299 -112 -139 -304 0
-283 -299 -112 139 304 0
-283 -299 112 -139 304 0
-283 -299 112 139 -304 0
-283 -299 -113 -140 -305 0
-283 -299 -113 140 305 0
-283 -299 113 -140 305 0
-283 -299 113 140 -305 0
-283 -299 -114 -141 -306 0
-283 -299 -114 141 306 0
-283 -299 114 -141 306 0
-283 -299 114 141 -306 0
-283 -299 -115 -142 -307 0
-283 -299 -115 142 307 0
-283 -299 115 -142 307 0
-283 -299 115 142 -307 0
-283 -299 -116 -143 -308 0
-283 -299 -116 143 308 0
-283 -299 116 -143 308 0
-283 -299 116 143 -308 0
-283 -299 -117 -144 -309 0
-283 -299 -117 144 309 0
-283 -299 117 -144 309 0
-283 -299 117 144 -309 0
-283 -299 -118 -145 -310 0
-283 -299 -118 145 310 0
-283 -299 118 -145 310 0
-283 -299 118 145 -310 0
-283 -300 -112 -168 -304 0
-283 -300 -112 168 304 0
-283 -300 112 -168 304 0
-283 -300 112 168 -304 0
-283 -300 -113 -169 -305 0
-283 -300 -113 169 305 0
-283 -300 113 -169 305 0
-283 -300 113 169 -305 0
-283 -300 -114 -170 -306 0
-283 -300 -114 170 306 0
-283 -300 114 -170 306 0
-283 -300 114 170 -306 0
-283 -300 -115 -171 -307 0
-283 -300 -115 171 307 0
-283 -300 115 -171 307 0
-283 -300 115 171 -307 0
-283 -300 -116 -172 -308 0
-283 -300 -116 172 308 0
-283 -300 116 -172 308 0
-283 -300 116 172 -308 0
-283 -300 -117 -173 -309 0
-283 -300 -117 173 309 0
-283 -300 117 -173 309 0
-283 -300 117 173 -309 0
-283 -300 -118 -174 -310 0
-283 -300 -118 174 310 0
-283 -300 118 -174 310 0
-283 -300 118 174 -310 0
-283 -301 -112 -199 -304 0
-283 -301 -112 199 304 0
-283 -301 112 -199 304 0
-283 -301 112 199 -304 0
-283 -301 -113 -200 -305 0
-283 -301 -113 200 305 0
-283 -301 113 -200 305 0
-283 -301 113 200 -305 0
-283 -301 -114 -201 -306 0
-283 -301 -114 201 306 0
-283 -301 114 -201 306 0
-283 -301 114 201 -306 0
-283 -301 -115 -202 -307 0
-283 -301 -115 202 307 0
-283 -301 115 -202 307 0
-283 -301 115 202 -307 0
-283 -301 -116 -203 -308 0
-283 -301 -116 203 308 0
-283 -301 116 -203 308 0
-283 -301 116 203 -308 0
-283 -301 -117 -204 -309 0
-283 -301 -117 204 309 0
-283 -301 117 -204 309 0
-283 -301 117 204 -309 0
-283 -301 -118 -205 -310 0
-283 -301 -118 205 310 0
-283 -301 118 -205 310 0
-283 -301 118 205 -310 0
-283 -302 -112 -232 -304 0
-283 -302 -112 232 304 0
-283 -302 112 -232 304 0
-283 -302 112 232 -304 0
-283 -302 -113 -233 -305 0
-283 -302 -113 233 305 0
-283 -302 113 -233 305 0
-283 -302 113 233 -305 0
-283 -302 -114 -234 -306 0
-283 -302 -114 234 306 0
-283 -302 114 -234 306 0
-283 -302 114 234 -306 0
-283 -302 -115 -235 -307 0
-283 -302 -115 235 307 0
-283 -302 115 -235 307 0
-283 -302 115 235 -307 0
-283 -302 -116 -236 -308 0
-283 -302 -116 236 308 0
-283 -302 116 -236 308 0
-283 -302 116 236 -308 0
-283 -302 -117 -237 -309 0
-283 -302 -117 237 309 0
-283 -302 117 -237 309 0
-283 -302 117 237 -309 0
-283 -302 -118 -238 -310 0
-283 -302 -118 238 310 0
-283 -302 118 -238 310 0
-283 -302 118 238 -310 0
-283 -303 -112 -267 -304 0
-283 -303 -112 267 304 0
-283 -303 112 -267 304 0
-283 -303 112 267 -304 0
-283 -303 -113 -268 -305 0
-283 -303 -113 268 305 0
-283 -303 113 -268 305 0
-283 -303 113 268 -305 0
-283 -303 -114 -269 -306 0
-283 -303 -114 269 306 0
-283 -303 114 -269 306 0
-283 -303 114 269 -306 0
-283 -303 -115 -270 -307 0
-283 -303 -115 270 307 0
-283 -303 115 -270 307 0
-283 -303 115 270 -307 0
-283 -303 -116 -271 -308 0
-283 -303 -116 271 308 0
-283 -303 116 -271 308 0
-283 -303 116 271 -308 0
-283 -303 -117 -272 -309 0
-283 -303 -117 272 309 0
-283 -303 117 -272 309 0
-283 -303 117 272 -309 0
-283 -303 -118 -273 -310 0
-283 -303 -118 273 310 0
-283 -303 118 -273 310 0
-283 -303 118 273 -310 0
-284 -300 -139 -168 -304 0
-284 -300 -139 168 304 0
-284 -300 139 -168 304 0
-284 -300 139 168 -304 0
-284 -300 -140 -169 -305 0
-284 -300 -140 169 305 0
-284 -300 140 -169 305 0
-284 -300 140 169 -305 0
-284 -300 -141 -170 -306 0
-284 -300 -141 170 306 0
-284 -300 141 -170 306 0
-284 -300 141 170 -306 0
-284 -300 -142 -171 -307 0
-284 -300 -142 171 307 0
-284 -300 142 -171 307 0
-284 -300 142 171 -307 0
-284 -300 -143 -172 -308 0
-284 -300 -143 172 308 0
-284 -300 143 -172 308 0
-284 -300 143 172 -308 0
-284 -300 -144 -173 -309 0
-284 -300 -144 173 309 0
-284 -300 144 -173 309 0
-284 -300 144 173 -309 0
-284 -300 -145 -174 -310 0
-284 -300 -145 174 310 0
-284 -300 145 -174 310 0
-284 -300 145 174 -310 0
-284 -301 -139 -199 -304 0
-284 -301 -139 199 304 0
-284 -301 139 -199 304 0
-284 -301 139 199 -304 0
-284 -301 -140 -200 -305 0
-284 -301 -140 200 305 0
-284 -301 140 -200 305 0
-284 -301 140 200 -305 0
-284 -301 -141 -201 -306 0
-284 -301 -141 201 306 0
-284 -301 141 -201 306 0
-284 -301 141 201 -306 0
-284 -301 -142 -202 -307 0
-284 -301 -142 202 307 0
-284 -301 142 -202 307 0
-284 -301 142 202 -307 0
-284 -301 -143 -203 -308 0
-284 -301 -143 203 308 0
-284 -301 143 -203 308 0
-284 -301 143 203 -308 0
-284 -301 -144 -204 -309 0
-284 -301 -144 204 309 0
-284 -301 144 -204 309 0
-284 -301 144 204 -309 0
-284 -301 -145 -205 -310 0
-284 -301 -145 205 310 0
-284 -301 145 -205 310 0
-284 -301 145 205 -310 0
-284 -302 -139 -232 -304 0
-284 -302 -139 232 304 0
-284 -302 139 -232 304 0
-284 -302 139 232 -304 0
-284 -302 -140 -233 -305 0
-284 -302 -140 233 305 0
-284 -302 140 -233 305 0
-284 -302 140 233 -305 0
-284 -302 -141 -234 -306 0
-284 -302 -141 234 306 0
-284 -302 141 -234 306 0
-284 -302 141 234 -306 0
-284 -302 -142 -235 -307 0
-284 -302 -142 235 307 0
-284 -302 142 -235 307 0
-284 -302 142 235 -307 0
-284 -302 -143 -236 -308 0
-284 -302 -143 236 308 0
-284 -302 143 -236 308 0
-284 -302 143 236 -308 0
-284 -302 -144 -237 -309 0
-284 -302 -144 237 309 0
-284 -302 144 -237 309 0
-284 -302 144 237 -309 0
-284 -302 -145 -238 -310 0
-284 -302 -145 238 310 0
-284 -302 145 -238 310 0
-284 -302 145 238 -310 0
-284 -303 -139 -267 -304 0
-284 -303 -139 267 304 0
-284 -303 139 -267 304 0
-284 -303 139 267 -304 0
-284 -303 -140 -268 -305 0
-284 -303 -140 268 305 0
-284 -303 140 -268 305 0
-284 -303 140 268 -305 0
-284 -303 -141 -269 -306 0
-284 -303 -141 269 306 0
-284 -303 141 -269 306 0
-284 -303 141 269 -306 0
-284 -303 -142 -270 -307 0
-284 -303 -142 270 307 0
-284 -303 142 -270 307 0
-284 -303 142 270 -307 0
-284 -303 -143 -271 -308 0
-284 -303 -143 271 308 0
-284 -303 143 -271 308 0
-284 -303 143 271 -308 0
-284 -303 -144 -272 -309 0
-284 -303 -144 272 309 0
-284 -303 144 -272 309 0
-284 -303 144 272 -309 0
-284 -303 -145 -273 -310 0
-284 -303 -145 273 310 0
-284 -303 145 -273 310 0
-284 -303 145 273 -310 0
-285 -301 -168 -199 -304 0
-285 -301 -168 199 304 0
-285 -301 168 -199 304 0
-285 -301 168 199 -304 0
-285 -301 -169 -200 -305 0
-285 -301 -169 200 305 0
-285 -301 169 -200 305 0
-285 -301 169 200 -305 0
-285 -301 -170 -201 -306 0
-285 -301 -170 201 306 0
-285 -301 170 -201 306 0
-285 -301 170 201 -306 0
-285 -301 -171 -202 -307 0
-285 -301 -171 202 307 0
-285 -301 171 -202 307 0
-285 -301 171 202 -307 0
-285 -301 -172 -203 -308 0
-285 -301 -172 203 308 0
-285 -301 172 -203 308 0
-285 -301 172 203 -308 0
-285 -301 -173 -204 -309 0
-285 -301 -173 204 309 0
-285 -301 173 -204 309 0
-285 -301 173 204 -309 0
-285 -301 -174 -205 -310 0
-285 -301 -174 205 310 0
-285 -301 174 -205 310 0
-285 -301 174 205 -310 0
-285 -302 -168 -232 -304 0
-285 -302 -168 232 304 0
-285 -302 168 -232 304 0
-285 -302 168 232 -304 0
-285 -302 -169 -233 -305 0
-285 -302 -169 233 305 0
-285 -302 169 -233 305 0
-285 -302 169 233 -305 0
-285 -302 -170 -234 -306 0
-285 -302 -170 234 306 0
-285 -302 170 -234 306 0
-285 -302 170 234 -306 0
-285 -302 -171 -235 -307 0
-285 -302 -171 235 307 0
-285 -302 171 -235 307 0
-285 -302 171 235 -307 0
-285 -302 -172 -236 -308 0
-285 -302 -172 236 308 0
-285 -302 172 -236 308 0
-285 -302 172 236 -308 0
-285 -302 -173 -237 -309 0
-285 -302 -173 237 309 0
-285 -302 173 -237 309 0
-285 -302 173 237 -309 0
-285 -302 -174 -238 -310 0
-285 -302 -174 238 310 0
-285 -302 174 -238 310 0
-285 -302 174 238 -310 0
-285 -303 -168 -267 -304 0
-285 -303 -168 267 304 0
-285 -303 168 -267 304 0
-285 -303 168 267 -304 0
-285 -303 -169 -268 -305 0
-285 -303 -169 268 305 0
-285 -303 169 -268 305 0
-285 -303 169 268 -305 0
-285 -303 -170 -269 -306 0
-285 -303 -170 269 306 0
-285 -303 170 -269 306 0
-285 -303 170 269 -306 0
-285 -303 -171 -270 -307 0
-285 -303 -171 270 307 0
-285 -303 171 -270 307 0
-285 -303 171 270 -307 0
-285 -303 -172 -271 -308 0
-285 -303 -172 271 308 0
-285 -303 172 -271 308 0
-285 -303 172 271 -308 0
-285 -303 -173 -272 -309 0
-285 -303 -173 272 309 0
-285 -303 173 -272 309 0
-285 -303 173 272 -309 0
-285 -303 -174 -273 -310 0
-285 -303 -174 273 310 0
-285 -303 174 -273 310 0
-285 -303 174 273 -310 0
-286 -302 -199 -232 -304 0
-286 -302 -199 232 304 0
-286 -302 199 -232 304 0
-286 -302 199 232 -304 0
-286 -302 -200 -233 -305 0
-286 -302 -200 233 305 0
-286 -302 200 -233 305 0
-286 -302 200 233 -305 0
-286 -302 -201 -234 -306 0
-286 -302 -201 234 306 0
-286 -302 201 -234 306 0
-286 -302 201 234 -306 0
-286 -302 -202 -235 -307 0
-286 -302 -202 235 307 0
-286 -302 202 -235 307 0
-286 -302 202 235 -307 0
-286 -302 -203 -236 -308 0
-286 -302 -203 236 308 0
-286 -302 203 -236 308 0
-286 -302 203 236 -308 0
-286 -302 -204 -237 -309 0
-286 -302 -204 237 309 0
-286 -302 204 -237 309 0
-286 -302 204 237 -309 0
-286 -302 -205 -238 -310 0
-286 -302 -205 238 310 0
-286 -302 205 -238 310 0
-286 -302 205 238 -310 0
-286 -303 -199 -267 -304 0
-286 -303 -199 267 304 0
-286 -303 199 -267 304 0
-286 -303 199 267 -304 0
-286 -303 -200 -268 -305 0
-286 -303 -200 268 305 0
-286 -303 200 -268 305 0
-286 -303 200 268 -305 0
-286 -303 -201 -269 -306 0
-286 -303 -201 269 306 0
-286 -303 201 -269 306 0
-286 -303 201 269 -306 0
-286 -303 -202 -270 -307 0
-286 -303 -202 270 307 0
-286 -303 202 -270 307 0
-286 -303 202 270 -307 0
-286 -303 -203 -271 -308 0
-286 -303 -203 271 308 0
-286 -303 203 -271 308 0
-286 -303 203 271 -308 0
-286 -303 -204 -272 -309 0
-286 -303 -204 272 309 0
-286 -303 204 -272 309 0
-286 -303 204 272 -309 0
-286 -303 -205 -273 -310 0
-286 -303 -205 273 310 0
-286 -303 205 -273 310 0
-286 -303 205 273 -310 0
-287 -303 -232 -267 -304 0
-287 -303 -232 267 304 0
-287 -303 232 -267 304 0
-287 -303 232 267 -304 0
-287 -303 -233 -268 -305 0
-287 -303 -233 268 305 0
-287 -303 233 -268 305 0
-287 -303 233 268 -305 0
-287 -303 -234 -269 -306 0
-287 -303 -234 269 306 0
-287 -303 234 -269 306 0
-287 -303 234 269 -306 0
-287 -303 -235 -270 -307 0
-287 -303 -235 270 307 0
-287 -303 235 -270 307 0
-287 -303 235 270 -307 0
-287 -303 -236 -271 -308 0
-287 -303 -236 271 308 0
-287 -303 236 -271 308 0
-287 -303 236 271 -308 0
-287 -303 -237 -272 -309 0
-287 -303 -237 272 309 0
-287 -303 237 -272 309 0
-287 -303 237 272 -309 0
-287 -303 -238 -273 -310 0
-287 -303 -238 273 310 0
-287 -303 238 -273 310 0
-287 -303 238 273 -310 0
304 305 306 307 308 309 310 0
311 312 313 314 315 316 317 318 319 320 321 322 323 324 325 326 0
-311 -312 0
-311 -313 0
-311 -314 0
-311 -315 0
-311 -316 0
-311 -317 0
-311 -318 0
-311 -319 0
-311 -320 0
-311 -321 0
-311 -322 0
-311 -323 0
-311 -324 0
-311 -325 0
-311 -326 0
-312 -313 0
-312 -314 0
-312 -315 0
-312 -316 0
-312 -317 0
-312 -318 0
-312 -319 0
-312 -320 0
-312 -321 0
-312 -322 0
-312 -323 0
-312 -324 0
-312 -325 0
-312 -326 0
-313 -314 0
-313 -315 0
-313 -316 0
-313 -317 0
-313 -318 0
-313 -319 0
-313 -320 0
-313 -321 0
-313 -322 0
-313 -323 0
-313 -324 0
-313 -325 0
-313 -326 0
-314 -315 0
-314 -316 0
-314 -317 0
-314 -318 0
-314 -319 0
-314 -320 0
-314 -321 0
-314 -322 0
-314 -323 0
-314 -324 0
-314 -325 0
-314 -326 0
-315 -316 0
-315 -317 0
-315 -318 0
-315 -319 0
-315 -320 0
-315 -321 0
-315 -322 0
-315 -323 0
-315 -324 0
-315 -325 0
-315 -326 0
-316 -317 0
-316 -318 0
-316 -319 0
-316 -320 0
-316 -321 0
-316 -322 0
-316 -323 0
-316 -324 0
-316 -325 0
-316 -326 0
-317 -318 0
-317 -319 0
-317 -320 0
-317 -321 0
-317 -322 0
-317 -323 0
-317 -324 0
-317 -325 0
-317 -326 0
-318 -319 0
-318 -320 0
-318 -321 0
-318 -322 0
-318 -323 0
-318 -324 0
-318 -325 0
-318 -326 0
-319 -320 0
-319 -321 0
-319 -322 0
-319 -323 0
-319 -324 0
-319 -325 0
-319 -326 0
-320 -321 0
-320 -322 0
-320 -323 0
-320 -324 0
-320 -325 0
-320 -326 0
-321 -322 0
-321 -323 0
-321 -324 0
-321 -325 0
-321 -326 0
-322 -323 0
-322 -324 0
-322 -325 0
-322 -326 0
-323 -324 0
-323 -325 0
-323 -326 0
-324 -325 0
-324 -326 0
-325 -326 0
327 328 329 330 331 332 333 334 335 336 337 338 339 340 341 342 0
-327 -328 0
-327 -329 0
-327 -330 0
-327 -331 0
-327 -332 0
-327 -333 0
-327 -334 0
-327 -335 0
-327 -336 0
-327 -337 0
-327 -338 0
-327 -339 0
-327 -340 0
-327 -341 0
-327 -342 0
-328 -329 0
-328 -330 0
-328 -331 0
-328 -332 0
-328 -333 0
-328 -334 0
-328 -335 0
-328 -336 0
-328 -337 0
-328 -338 0
-328 -339 0
-328 -340 0
-328 -341 0
-328 -342 0
-329 -330 0
-329 -331 0
-329 -332 0
-329 -333 0
-329 -334 0
-329 -335 0
-329 -336 0
-329 -337 0
-329 -338 0
-329 -339 0
-329 -340 0
-329 -341 0
-329 -342 0
-330 -331 0
-330 -332 0
-330 -333 0
-330 -334 0
-330 -335 0
-330 -336 0
-330 -337 0
-330 -338 0
-330 -339 0
-330 -340 0
-330 -341 0
-330 -342 0
-331 -332 0
-331 -333 0
-331 -334 0
-331 -335 0
-331 -336 0
-331 -337 0
-331 -338 0
-331 -339 0
-331 -340 0
-331 -341 0
-331 -342 0
-332 -333 0
-332 -334 0
-332 -335 0
-332 -336 0
-332 -337 0
-332 -338 0
-332 -339 0
-332 -340 0
-332 -341 0
-332 -342 0
-333 -334 0
-333 -335 0
-333 -336 0
-333 -337 0
-333 -338 0
-333 -339 0
-333 -340 0
-333 -341 0
-333 -342 0
-334 -335 0
-334 -336 0
-334 -337 0
-334 -338 0
-334 -339 0
-334 -340 0
-334 -341 0
-334 -342 0
-335 -336 0
-335 -337 0
-335 -338 0
-335 -339 0
-335 -340 0
-335 -341 0
-335 -342 0
-336 -337 0
-336 -338 0
-336 -339 0
-336 -340 0
-336 -341 0
-336 -342 0
-337 -338 0
-337 -339 0
-337 -340 0
-337 -341 0
-337 -342 0
-338 -339 0
-338 -340 0
-338 -341 0
-338 -342 0
-339 -340 0
-339 -341 0
-339 -342 0
-340 -341 0
-340 -342 0
-341 -342 0
-311 -327 0
-312 -327 0
-312 -328 0
-313 -327 0
-313 -328 0
-313 -329 0
-314 -327 0
-314 -328 0
-314 -329 0
-314 -330 0
-315 -327 0
-315 -328 0
-315 -329 0
-315 -330 0
-315 -331 0
-316 -327 0
-316 -328 0
-316 -329 0
-316 -330 0
-316 -331 0
-316 -332 0
-317 -327 0
-317 -328 0
-317 -329 0
-317 -330 0
-317 -331 0
-317 -332 0
-317 -333 0
-318 -327 0
-318 -328 0
-318 -329 0
-318 -330 0
-318 -331 0
-318 -332 0
-318 -333 0
-318 -334 0
-319 -327 0
-319 -328 0
-319 -329 0
-319 -330 0
-319 -331 0
-319 -332 0
-319 -333 0
-319 -334 0
-319 -335 0
-320 -327 0
-320 -328 0
-320 -329 0
-320 -330 0
-320 -331 0
-320 -332 0
-320 -333 0
-320 -334 0
-320 -335 0
-320 -336 0
-321 -327 0
-321 -328 0
-321 -329 0
-321 -330 0
-321 -331 0
-321 -332 0
-321 -333 0
-321 -334 0
-321 -335 0
-321 -336 0
-321 -337 0
-322 -327 0
-322 -328 0
-322 -329 0
-322 -330 0
-322 -331 0
-322 -332 0
-322 -333 0
-322 -334 0
-322 -335 0
-322 -336 0
-322 -337 0
-322 -338 0
-323 -327 0
-323 -328 0
-323 -329 0
-323 -330 0
-323 -331 0
-323 -332 0
-323 -333 0
-323 -334 0
-323 -335 0
-323 -336 0
-323 -337 0
-323 -338 0
-323 -339 0
-324 -327 0
-324 -328 0
-324 -329 0
-324 -330 0
-324 -331 0
-324 -332 0
-324 -333 0
-324 -334 0
-324 -335 0
-324 -336 0
-324 -337 0
-324 -338 0
-324 -339 0
-324 -340 0
-325 -327 0
-325 -328 0
-325 -329 0
-325 -330 0
-325 -331 0
-325 -332 0
-325 -333 0
-325 -334 0
-325 -335 0
-325 -336 0
-325 -337 0
-325 -338 0
-325 -339 0
-325 -340 0
-325 -341 0
-326 -327 0
-326 -328 0
-326 -329 0
-326 -330 0
-326 -331 0
-326 -332 0
-326 -333 0
-326 -334 0
-326 -335 0
-326 -336 0
-326 -337 0
-326 -338 0
-326 -339 0
-326 -340 0
-326 -341 0
-326 -342 0
-311 -328 -1 -8 -343 0
-311 -328 -1 8 343 0
-311 -328 1 -8 343 0
-311 -328 1 8 -343 0
-311 -328 -2 -9 -344 0
-311 -328 -2 9 344 0
-311 -328 2 -9 344 0
-311 -328 2 9 -344 0
-311 -328 -3 -10 -345 0
-311 -328 -3 10 345 0
-311 -328 3 -10 345 0
-311 -328 3 10 -345 0
-311 -328 -4 -11 -346 0
-311 -328 -4 11 346 0
-311 -328 4 -11 346 0
-311 -328 4 11 -346 0
-311 -328 -5 -12 -347 0
-311 -328 -5 12 347 0
-311 -328 5 -12 347 0
-311 -328 5 12 -347 0
-311 -328 -6 -13 -348 0
-311 -328 -6 13 348 0
-311 -328 6 -13 348 0
-311 -328 6 13 -348 0
-311 -328 -7 -14 -349 0
-311 -328 -7 14 349 0
-311 -328 7 -14 349 0
-311 -328 7 14 -349 0
-311 -329 -1 -15 -343 0
-311 -329 -1 15 343 0
-311 -329 1 -15 343 0
-311 -329 1 15 -343 0
-311 -329 -2 -16 -344 0
-311 -329 -2 16 344 0
-311 -329 2 -16 344 0
-311 -329 2 16 -344 0
-311 -329 -3 -17 -345 0
-311 -329 -3 17 345 0
-311 -329 3 -17 345 0
-311 -329 3 17 -345 0
-311 -329 -4 -18 -346 0
-311 -329 -4 18 346 0
-311 -329 4 -18 346 0
-311 -329 4 18 -346 0
-311 -329 -5 -19 -347 0
-311 -329 -5 19 347 0
-311 -329 5 -19 347 0
-311 -329 5 19 -347 0
-311 -329 -6 -20 -348 0
-311 -329 -6 20 348 0
-311 -329 6 -20 348 0
-311 -329 6 20 -348 0
-311 -329 -7 -21 -349 0
-311 -329 -7 21 349 0
-311 -329 7 -21 349 0
-311 -329 7 21 -349 0
-311 -330 -1 -22 -343 0
-311 -330 -1 22 343 0
-311 -330 1 -22 343 0
-311 -330 1 22 -343 0
-311 -330 -2 -23 -344 0
-311 -330 -2 23 344 0
-311 -330 2 -23 344 0
-311 -330 2 23 -344 0
-311 -330 -3 -24 -345 0
-311 -330 -3 24 345 0
-311 -330 3 -24 345 0
-311 -330 3 24 -345 0
-311 -330 -4 -25 -346 0
-311 -330 -4 25 346 0
-311 -330 4 -25 346 0
-311 -330 4 25 -346 0
-311 -330 -5 -26 -347 0
-311 -330 -5 26 347 0
-311 -330 5 -26 347 0
-311 -330 5 26 -347 0
-311 -330 -6 -27 -348 0
-311 -330 -6 27 348 0
-311 -330 6 -27 348 0
-311 -330 6 27 -348 0
-311 -330 -7 -28 -349 0
-311 -330 -7 28 349 0
-311 -330 7 -28 349 0
-311 -330 7 28 -349 0
-311 -331 -1 -29 -343 0
-311 -331 -1 29 343 0
-311 -331 1 -29 343 0
-311 -331 1 29 -343 0
-311 -331 -2 -30 -344 0
-311 -331 -2 30 344 0
-311 -331 2 -30 344 0
-311 -331 2 30 -344 0
-311 -331 -3 -31 -345 0
-311 -331 -3 31 345 0
-311 -331 3 -31 345 0
-311 -331 3 31 -345 0
-311 -331 -4 -32 -346 0
-311 -331 -4 32 346 0
-311 -331 4 -32 346 0
-311 -331 4 32 -346 0
-311 -331 -5 -33 -347 0
-311 -331 -5 33 347 0
-311 -331 5 -33 347 0
-311 -331 5 33 -347 0
-311 -331 -6 -34 -348 0
-311 -331 -6 34 348 0
-311 -331 6 -34 348 0
-311 -331 6 34 -348 0
-311 -331 -7 -35 -349 0
-311 -331 -7 35 349 0
-311 -331 7 -35 349 0
-311 -331 7 35 -349 0
-311 -332 -1 -36 -343 0
-311 -332 -1 36 343 0
-311 -332 1 -36 343 0
-311 -332 1 36 -343 0
-311 -332 -2 -37 -344 0
-311 -332 -2 37 344 0
-311 -332 2 -37 344 0
-311 -332 2 37 -344 0
-311 -332 -3 -38 -345 0
-311 -332 -3 38 345 0
-311 -332 3 -38 345 0
-311 -332 3 38 -345 0
-311 -332 -4 -39 -346 0
-311 -332 -4 39 346 0
-311 -332 4 -39 346 0
-311 -332 4 39 -346 0
-311 -332 -5 -40 -347 0
-311 -332 -5 40 347 0
-311 -332 5 -40 347 0
-311 -332 5 40 -347 0
-311 -332 -6 -41 -348 0
-311 -332 -6 41 348 0
-311 -332 6 -41 348 0
-311 -332 6 41 -348 0
-311 -332 -7 -42 -349 0
-311 -332 -7 42 349 0
-311 -332 7 -42 349 0
-311 -332 7 42 -349 0
-311 -333 -1 -43 -343 0
-311 -333 -1 43 343 0
-311 -333 1 -43 343 0
-311 -333 1 43 -343 0
-311 -333 -2 -44 -344 0
-311 -333 -2 44 344 0
-311 -333 2 -44 344 0
-311 -333 2 44 -344 0
-311 -333 -3 -45 -345 0
-311 -333 -3 45 345 0
-311 -333 3 -45 345 0
-311 -333 3 45 -345 0
-311 -333 -4 -46 -346 0
-311 -333 -4 46 346 0
-311 -333 4 -46 346 0
-311 -333 4 46 -346 0
-311 -333 -5 -47 -347 0
-311 -333 -5 47 347 0
-311 -333 5 -47 347 0
-311 -333 5 47 -347 0
-311 -333 -6 -48 -348 0
-311 -333 -6 48 348 0
-311 -333 6 -48 348 0
-311 -333 6 48 -348 0
-311 -333 -7 -49 -349 0
-311 -333 -7 49 349 0
-311 -333 7 -49 349 0
-311 -333 7 49 -349 0
-311 -334 -1 -64 -343 0
-311 -334 -1 64 343 0
-311 -334 1 -64 343 0
-311 -334 1 64 -343 0
-311 -334 -2 -65 -344 0
-311 -334 -2 65 344 0
-311 -334 2 -65 344 0
-311 -334 2 65 -344 0
-311 -334 -3 -66 -345 0
-311 -334 -3 66 345 0
-311 -334 3 -66 345 0
-311 -334 3 66 -345 0
-311 -334 -4 -67 -346 0
-311 -334 -4 67 346 0
-311 -334 4 -67 346 0
-311 -334 4 67 -346 0
-311 -334 -5 -68 -347 0
-311 -334 -5 68 347 0
-311 -334 5 -68 347 0
-311 -334 5 68 -347 0
-311 -334 -6 -69 -348 0
-311 -334 -6 69 348 0
-311 -334 6 -69 348 0
-311 -334 6 69 -348 0
-311 -334 -7 -70 -349 0
-311 -334 -7 70 349 0
-311 -334 7 -70 349 0
-311 -334 7 70 -349 0
-311 -335 -1 -87 -343 0
-311 -335 -1 87 343 0
-311 -335 1 -87 343 0
-311 -335 1 87 -343 0
-311 -335 -2 -88 -344 0
-311 -335 -2 88 344 0
-311 -335 2 -88 344 0
-311 -335 2 88 -344 0
-311 -335 -3 -89 -345 0
-311 -335 -3 89 345 0
-311 -335 3 -89 345 0
-311 -335 3 89 -345 0
-311 -335 -4 -90 -346 0
-311 -335 -4 90 346 0
-311 -335 4 -90 346 0
-311 -335 4 90 -346 0
-311 -335 -5 -91 -347 0
-311 -335 -5 91 347 0
-311 -335 5 -91 347 0
-311 -335 5 91 -347 0
-311 -335 -6 -92 -348 0
-311 -335 -6 92 348 0
-311 -335 6 -92 348 0
-311 -335 6 92 -348 0
-311 -335 -7 -93 -349 0
-311 -335 -7 93 349 0
-311 -335 7 -93 349 0
-311 -335 7 93 -349 0
-311 -336 -1 -112 -343 0
-311 -336 -1 112 343 0
-311 -336 1 -112 343 0
-311 -336 1 112 -343 0
-311 -336 -2 -113 -344 0
-311 -336 -2 113 344 0
-311 -336 2 -113 344 0
-311 -336 2 113 -344 0
-311 -336 -3 -114 -345 0
-311 -336 -3 114 345 0
-311 -336 3 -114 345 0
-311 -336 3 114 -345 0
-311 -336 -4 -115 -346 0
-311 -336 -4 115 346 0
-311 -336 4 -115 346 0
-311 -336 4 115 -346 0
-311 -336 -5 -116 -347 0
-311 -336 -5 116 347 0
-311 -336 5 -116 347 0
-311 -336 5 116 -347 0
-311 -336 -6 -117 -348 0
-311 -336 -6 117 348 0
-311 -336 6 -117 348 0
-311 -336 6 117 -348 0
-311 -336 -7 -118 -349 0
-311 -336 -7 118 349 0
-311 -336 7 -118 349 0
-311 -336 7 118 -349 0
-311 -337 -1 -139 -343 0
-311 -337 -1 139 343 0
-311 -337 1 -139 343 0
-311 -337 1 139 -343 0
-311 -337 -2 -140 -344 0
-311 -337 -2 140 344 0
-311 -337 2 -140 344 0
-311 -337 2 140 -344 0
-311 -337 -3 -141 -345 0
-311 -337 -3 141 345 0
-311 -337 3 -141 345 0
-311 -337 3 141 -345 0
-311 -337 -4 -142 -346 0
-311 -337 -4 142 346 0
-311 -337 4 -142 346 0
-311 -337 4 142 -346 0
-311 -337 -5 -143 -347 0
-311 -337 -5 143 347 0
-311 -337 5 -143 347 0
-311 -337 5 143 -347 0
-311 -337 -6 -144 -348 0
-311 -337 -6 144 348 0
-311 -337 6 -144 348 0
-311 -337 6 144 -348 0
-311 -337 -7 -145 -349 0
-311 -337 -7 145 349 0
-311 -337 7 -145 349 0
-311 -337 7 145 -349 0
-311 -338 -1 -168 -343 0
-311 -338 -1 168 343 0
-311 -338 1 -168 343 0
-311 -338 1 168 -343 0
-311 -338 -2 -169 -344 0
-311 -338 -2 169 344 0
-311 -338 2 -169 344 0
-311 -338 2 169 -344 0
-311 -338 -3 -170 -345 0
-311 -338 -3 170 345 0
-311 -338 3 -170 345 0
-311 -338 3 170 -345 0
-311 -338 -4 -171 -346 0
-311 -338 -4 171 346 0
-311 -338 4 -171 346 0
-311 -338 4 171 -346 0
-311 -338 -5 -172 -347 0
-311 -338 -5 172 347 0
-311 -338 5 -172 347 0
-311 -338 5 172 -347 0
-311 -338 -6 -173 -348 0
-311 -338 -6 173 348 0
-311 -338 6 -173 348 0
-311 -338 6 173 -348 0
-311 -338 -7 -174 -349 0
-311 -338 -7 174 349 0
-311 -338 7 -174 349 0
-311 -338 7 174 -349 0
-311 -339 -1 -199 -343 0
-311 -339 -1 199 343 0
-311 -339 1 -199 343 0
-311 -339 1 199 -343 0
-311 -339 -2 -200 -344 0
-311 -339 -2 200 344 0
-311 -339 2 -200 344 0
-311 -339 2 200 -344 0
-311 -339 -3 -201 -345 0
-311 -339 -3 201 345 0
-311 -339 3 -201 345 0
-311 -339 3 201 -345 0
-311 -339 -4 -202 -346 0
-311 -339 -4 202 346 0
-311 -339 4 -202 346 0
-311 -339 4 202 -346 0
-311 -339 -5 -203 -347 0
-311 -339 -5 203 347 0
-311 -339 5 -203 347 0
-311 -339 5 203 -347 0
-311 -339 -6 -204 -348 0
-311 -339 -6 204 348 0
-311 -339 6 -204 348 0
-311 -339 6 204 -348 0
-311 -339 -7 -205 -349 0
-311 -339 -7 205 349 0
-311 -339 7 -205 349 0
-311 -339 7 205 -349 0
-311 -340 -1 -232 -343 0
-311 -340 -1 232 343 0
-311 -340 1 -232 343 0
-311 -340 1 232 -343 0
-311 -340 -2 -233 -344 0
-311 -340 -2 233 344 0
-311 -340 2 -233 344 0
-311 -340 2 233 -344 0
-311 -340 -3 -234 -345 0
-311 -340 -3 234 345 0
-311 -340 3 -234 345 0
-311 -340 3 234 -345 0
-311 -340 -4 -235 -346 0
-311 -340 -4 235 346 0
-311 -340 4 -235 346 0
-311 -340 4 235 -346 0
-311 -340 -5 -236 -347 0
-311 -340 -5 236 347 0
-311 -340 5 -236 347 0
-311 -340 5 236 -347 0
-311 -340 -6 -237 -348 0
-311 -340 -6 237 348 0
-311 -340 6 -237 348 0
-311 -340 6 237 -348 0
-311 -340 -7 -238 -349 0
-311 -340 -7 238 349 0
-311 -340 7 -238 349 0
-311 -340 7 238 -349 0
-311 -341 -1 -267 -343 0
-311 -341 -1 267 343 0
-311 -341 1 -267 343 0
-311 -341 1 267 -343 0
-311 -341 -2 -268 -344 0
-311 -341 -2 268 344 0
-311 -341 2 -268 344 0
-311 -341 2 268 -344 0
-311 -341 -3 -269 -345 0
-311 -341 -3 269 345 0
-311 -341 3 -269 345 0
-311 -341 3 269 -345 0
-311 -341 -4 -270 -346 0
-311 -341 -4 270 346 0
-311 -341 4 -270 346 0
-311 -341 4 270 -346 0
-311 -341 -5 -271 -347 0
-311 -341 -5 271 347 0
-311 -341 5 -271 347 0
-311 -341 5 271 -347 0
-311 -341 -6 -272 -348 0
-311 -341 -6 272 348 0
-311 -341 6 -272 348 0
-311 -341 6 272 -348 0
-311 -341 -7 -273 -349 0
-311 -341 -7 273 349 0
-311 -341 7 -273 349 0
-311 -341 7 273 -349 0
-311 -342 -1 -304 -343 0
-311 -342 -1 304 343 0
-311 -342 1 -304 343 0
-311 -342 1 304 -343 0
-311 -342 -2 -305 -344 0
-311 -342 -2 305 344 0
-311 -342 2 -305 344 0
-311 -342 2 305 -344 0
-311 -342 -3 -306 -345 0
-311 -342 -3 306 345 0
-311 -342 3 -306 345 0
-311 -342 3 306 -345 0
-311 -342 -4 -307 -346 0
-311 -342 -4 307 346 0
-311 -342 4 -307 346 0
-311 -342 4 307 -346 0
-311 -342 -5 -308 -347 0
-311 -342 -5 308 347 0
-311 -342 5 -308 347 0
-311 -342 5 308 -347 0
-311 -342 -6 -309 -348 0
-311 -342 -6 309 348 0
-311 -342 6 -309 348 0
-311 -342 6 309 -348 0
-311 -342 -7 -310 -349 0
-311 -342 -7 310 349 0
-311 -342 7 -310 349 0
-311 -342 7 310 -349 0
-312 -329 -8 -15 -343 0
-312 -329 -8 15 343 0
-312 -329 8 -15 343 0
-312 -329 8 15 -343 0
-312 -329 -9 -16 -344 0
-312 -329 -9 16 344 0
-312 -329 9 -16 344 0
-312 -329 9 16 -344 0
-312 -329 -10 -17 -345 0
-312 -329 -10 17 345 0
-312 -329 10 -17 345 0
-312 -329 10 17 -345 0
-312 -329 -11 -18 -346 0
-312 -329 -11 18 346 0
-312 -329 11 -18 346 0
-312 -329 11 18 -346 0
-312 -329 -12 -19 -347 0
-312 -329 -12 19 347 0
-312 -329 12 -19 347 0
-312 -329 12 19 -347 0
-312 -329 -13 -20 -348 0
-312 -329 -13 20 348 0
-312 -329 13 -20 348 0
-312 -329 13 20 -348 0
-312 -329 -14 -21 -349 0
-312 -329 -14 21 349 0
-312 -329 14 -21 349 0
-312 -329 14 21 -349 0
-312 -330 -8 -22 -343 0
-312 -330 -8 22 343 0
-312 -330 8 -22 343 0
-312 -330 8 22 -343 0
-312 -330 -9 -23 -344 0
-312 -330 -9 23 344 0
-312 -330 9 -23 344 0
-312 -330 9 23 -344 0
-312 -330 -10 -24 -345 0
-312 -330 -10 24 345 0
-312 -330 10 -24 345 0
-312 -330 10 24 -345 0
-312 -330 -11 -25 -346 0
-312 -330 -11 25 346 0
-312 -330 11 -25 346 0
-312 -330 11 25 -346 0
-312 -330 -12 -26 -347 0
-312 -330 -12 26 347 0
-312 -330 12 -26 347 0
-312 -330 12 26 -347 0
-312 -330 -13 -27 -348 0
-312 -330 -13 27 348 0
-312 -330 13 -27 348 0
-312 -330 13 27 -348 0
-312 -330 -14 -28 -349 0
-312 -330 -14 28 349 0
-312 -330 14 -28 349 0
-312 -330 14 28 -349 0
-312 -331 -8 -29 -343 0
-312 -331 -8 29 343 0
-312 -331 8 -29 343 0
-312 -331 8 29 -343 0
-312 -331 -9 -30 -344 0
-312 -331 -9 30 344 0
-312 -331 9 -30 344 0
-312 -331 9 30 -344 0
-312 -331 -10 -31 -345 0
-312 -331 -10 31 345 0
-312 -331 10 -31 345 0
-312 -331 10 31 -345 0
-312 -331 -11 -32 -346 0
-312 -331 -11 32 346 0
-312 -331 11 -32 346 0
-312 -331 11 32 -346 0
-312 -331 -12 -33 -347 0
-312 -331 -12 33 347 0
-312 -331 12 -33 347 0
-312 -331 12 33 -347 0
-312 -331 -13 -34 -348 0
-312 -331 -13 34 348 0
-312 -331 13 -34 348 0
-312 -331 13 34 -348 0
-312 -331 -14 -35 -349 0
-312 -331 -14 35 349 0
-312 -331 14 -35 349 0
-312 -331 14 35 -349 0
-312 -332 -8 -36 -343 0
-312 -332 -8 36 343 0
-312 -332 8 -36 343 0
-312 -332 8 36 -343 0
-312 -332 -9 -37 -344 0
-312 -332 -9 37 344 0
-312 -332 9 -37 344 0
-312 -332 9 37 -344 0
-312 -332 -10 -38 -345 0
-312 -332 -10 38 345 0
-312 -332 10 -38 345 0
-312 -332 10 38 -345 0
-312 -332 -11 -39 -346 0
-312 -332 -11 39 346 0
-312 -332 11 -39 346 0
-312 -332 11 39 -346 0
-312 -332 -12 -40 -347 0
-312 -332 -12 40 347 0
-312 -332 12 -40 347 0
-312 -332 12 40 -347 0
-312 -332 -13 -41 -348 0
-312 -332 -13 41 348 0
-312 -332 13 -41 348 0
-312 -332 13 41 -348 0
-312 -332 -14 -42 -349 0
-312 -332 -14 42 349 0
-312 -332 14 -42 349 0
-312 -332 14 42 -349 0
-312 -333 -8 -43 -343 0
-312 -333 -8 43 343 0
-312 -333 8 -43 343 0
-312 -333 8 43 -343 0
-312 -333 -9 -44 -344 0
-312 -333 -9 44 344 0
-312 -333 9 -44 344 0
-312 -333 9 44 -344 0
-312 -333 -10 -45 -345 0
-312 -333 -10 45 345 0
-312 -333 10 -45 345 0
-312 -333 10 45 -345 0
-312 -333 -11 -46 -346 0
-312 -333 -11 46 346 0
-312 -333 11 -46 346 0
-312 -333 11 46 -346 0
-312 -333 -12 -47 -347 0
-312 -333 -12 47 347 0
-312 -333 12 -47 347 0
-312 -333 12 47 -347 0
-312 -333 -13 -48 -348 0
-312 -333 -13 48 348 0
-312 -333 13 -48 348 0
-312 -333 13 48 -348 0
-312 -333 -14 -49 -349 0
-312 -333 -14 49 349 0
-312 -333 14 -49 349 0
-312 -333 14 49 -349 0
-312 -334 -8 -64 -343 0
-312 -334 -8 64 343 0
-312 -334 8 -64 343 0
-312 -334 8 64 -343 0
-312 -334 -9 -65 -344 0
-312 -334 -9 65 344 0
-312 -334 9 -65 344 0
-312 -334 9 65 -344 0
-312 -334 -10 -66 -345 0
-312 -334 -10 66 345 0
-312 -334 10 -66 345 0
-312 -334 10 66 -345 0
-312 -334 -11 -67 -346 0
-312 -334 -11 67 346 0
-312 -334 11 -67 346 0
-312 -334 11 67 -346 0
-312 -334 -12 -68 -347 0
-312 -334 -12 68 347 0
-312 -334 12 -68 347 0
-312 -334 12 68 -347 0
-312 -334 -13 -69 -348 0
-312 -334 -13 69 348 0
-312 -334 13 -69 348 0
-312 -334 13 69 -348 0
-312 -334 -14 -70 -349 0
-312 -334 -14 70 349 0
-312 -334 14 -70 349 0
-312 -334 14 70 -349 0
-312 -335 -8 -87 -343 0
-312 -335 -8 87 343 0
-312 -335 8 -87 343 0
-312 -335 8 87 -343 0
-312 -335 -9 -88 -344 0
-312 -335 -9 88 344 0
-312 -335 9 -88 344 0
-312 -335 9 88 -344 0
-312 -335 -10 -89 -345 0
-312 -335 -10 89 345 0
-312 -335 10 -89 345 0
-312 -335 10 89 -345 0
-312 -335 -11 -90 -346 0
-312 -335 -11 90 346 0
-312 -335 11 -90 346 0
-312 -335 11 90 -346 0
-312 -335 -12 -91 -347 0
-312 -335 -12 91 347 0
-312 -335 12 -91 347 0
-312 -335 12 91 -347 0
-312 -335 -13 -92 -348 0
-312 -335 -13 92 348 0
-312 -335 13 -92 348 0
-312 -335 13 92 -348 0
-312 -335 -14 -93 -349 0
-312 -335 -14 93 349 0
-312 -335 14 -93 349 0
-312 -335 14 93 -349 0
-312 -336 -8 -112 -343 0
-312 -336 -8 112 343 0
-312 -336 8 -112 343 0
-312 -336 8 112 -343 0
-312 -336 -9 -113 -344 0
-312 -336 -9 113 344 0
-312 -336 9 -113 344 0
-312 -336 9 113 -344 0
-312 -336 -10 -114 -345 0
-312 -336 -10 114 345 0
-312 -336 10 -114 345 0
-312 -336 10 114 -345 0
-312 -336 -11 -115 -346 0
-312 -336 -11 115 346 0
-312 -336 11 -115 346 0
-312 -336 11 115 -346 0
-312 -336 -12 -116 -347 0
-312 -336 -12 116 347 0
-312 -336 12 -116 347 0
-312 -336 12 116 -347 0
-312 -336 -13 -117 -348 0
-312 -336 -13 117 348 0
-312 -336 13 -117 348 0
-312 -336 13 117 -348 0
-312 -336 -14 -118 -349 0
-312 -336 -14 118 349 0
-312 -336 14 -118 349 0
-312 -336 14 118 -349 0
-312 -337 -8 -139 -343 0
-312 -337 -8 139 343 0
-312 -337 8 -139 343 0
-312 -337 8 139 -343 0
-312 -337 -9 -140 -344 0
-312 -337 -9 140 344 0
-312 -337 9 -140 344 0
-312 -337 9 140 -344 0
-312 -337 -10 -141 -345 0
-312 -337 -10 141 345 0
-312 -337 10 -141 345 0
-312 -337 10 141 -345 0
-312 -337 -11 -142 -346 0
-312 -337 -11 142 346 0
-312 -337 11 -142 346 0
-312 -337 11 142 -346 0
-312 -337 -12 -143 -347 0
-312 -337 -12 143 347 0
-312 -337 12 -143 347 0
-312 -337 12 143 -347 0
-312 -337 -13 -144 -348 0
-312 -337 -13 144 348 0
-312 -337 13 -144 348 0
-312 -337 13 144 -348 0
-312 -337 -14 -145 -349 0
-312 -337 -14 145 349 0
-312 -337 14 -145 349 0
-312 -337 14 145 -349 0
-312 -338 -8 -168 -343 0
-312 -338 -8 168 343 0
-312 -338 8 -168 343 0
-312 -338 8 168 -343 0
-312 -338 -9 -169 -344 0
-312 -338 -9 169 344 0
-312 -338 9 -169 344 0
-312 -338 9 169 -344 0
-312 -338 -10 -170 -345 0
-312 -338 -10 170 345 0
-312 -338 10 -170 345 0
-312 -338 10 170 -345 0
-312 -338 -11 -171 -346 0
-312 -338 -11 171 346 0
-312 -338 11 -171 346 0
-312 -338 11 171 -346 0
-312 -338 -12 -172 -347 0
-312 -338 -12 172 347 0
-312 -338 12 -172 347 0
-312 -338 12 172 -347 0
-312 -338 -13 -173 -348 0
-312 -338 -13 173 348 0
-312 -338 13 -173 348 0
-312 -338 13 173 -348 0
-312 -338 -14 -174 -349 0
-312 -338 -14 174 349 0
-312 -338 14 -174 349 0
-312 -338 14 174 -349 0
-312 -339 -8 -199 -343 0
-312 -339 -8 199 343 0
-312 -339 8 -199 343 0
-312 -339 8 199 -343 0
-312 -339 -9 -200 -344 0
-312 -339 -9 200 344 0
-312 -339 9 -200 344 0
-312 -339 9 200 -344 0
-312 -339 -10 -201 -345 0
-312 -339 -10 201 345 0
-312 -339 10 -201 345 0
-312 -339 10 201 -345 0
-312 -339 -11 -202 -346 0
-312 -339 -11 202 346 0
-312 -339 11 -202 346 0
-312 -339 11 202 -346 0
-312 -339 -12 -203 -347 0
-312 -339 -12 203 347 0
-312 -339 12 -203 347 0
-312 -339 12 203 -347 0
-312 -339 -13 -204 -348 0
-312 -339 -13 204 348 0
-312 -339 13 -204 348 0
-312 -339 13 204 -348 0
-312 -339 -14 -205 -349 0
-312 -339 -14 205 349 0
-312 -339 14 -205 349 0
-312 -339 14 205 -349 0
-312 -340 -8 -232 -343 0
-312 -340 -8 232 343 0
-312 -340 8 -232 343 0
-312 -340 8 232 -343 0
-312 -340 -9 -233 -344 0
-312 -340 -9 233 344 0
-312 -340 9 -233 344 0
-312 -340 9 233 -344 0
-312 -340 -10 -234 -345 0
-312 -340 -10 234 345 0
-312 -340 10 -234 345 0
-312 -340 10 234 -345 0
-312 -340 -11 -235 -346 0
-312 -340 -11 235 346 0
-312 -340 11 -235 346 0
-312 -340 11 235 -346 0
-312 -340 -12 -236 -347 0
-312 -340 -12 236 347 0
-312 -340 12 -236 347 0
-312 -340 12 236 -347 0
-312 -340 -13 -237 -348 0
-312 -340 -13 237 348 0
-312 -340 13 -237 348 0
-312 -340 13 237 -348 0
-312 -340 -14 -238 -349 0
-312 -340 -14 238 349 0
-312 -340 14 -238 349 0
-312 -340 14 238 -349 0
-312 -341 -8 -267 -343 0
-312 -341 -8 267 343 0
-312 -341 8 -267 343 0
-312 -341 8 267 -343 0
-312 -341 -9 -268 -344 0
-312 -341 -9 268 344 0
-312 -341 9 -268 344 0
-312 -341 9 268 -344 0
-312 -341 -10 -269 -345 0
-312 -341 -10 269 345 0
-312 -341 10 -269 345 0
-312 -341 10 269 -345 0
-312 -341 -11 -270 -346 0
-312 -341 -11 270 346 0
-312 -341 11 -270 346 0
-312 -341 11 270 -346 0
-312 -341 -12 -271 -347 0
-312 -341 -12 271 347 0
-312 -341 12 -271 347 0
-312 -341 12 271 -347 0
-312 -341 -13 -272 -348 0
-312 -341 -13 272 348 0
-312 -341 13 -272 348 0
-312 -341 13 272 -348 0
-312 -341 -14 -273 -349 0
-312 -341 -14 273 349 0
-312 -341 14 -273 349 0
-312 -341 14 273 -349 0
-312 -342 -8 -304 -343 0
-312 -342 -8 304 343 0
-312 -342 8 -304 343 0
-312 -342 8 304 -343 0
-312 -342 -9 -305 -344 0
-312 -342 -9 305 344 0
-312 -342 9 -305 344 0
-312 -342 9 305 -344 0
-312 -342 -10 -306 -345 0
-312 -342 -10 306 345 0
-312 -342 10 -306 345 0
-312 -342 10 306 -345 0
-312 -342 -11 -307 -346 0
-312 -342 -11 307 346 0
-312 -342 11 -307 346 0
-312 -342 11 307 -346 0
-312 -342 -12 -308 -347 0
-312 -342 -12 308 347 0
-312 -342 12 -308 347 0
-312 -342 12 308 -347 0
-312 -342 -13 -309 -348 0
-312 -342 -13 309 348 0
-312 -342 13 -309 348 0
-312 -342 13 309 -348 0
-312 -342 -14 -310 -349 0
-312 -342 -14 310 349 0
-312 -342 14 -310 349 0
-312 -342 14 310 -349 0
-313 -330 -15 -22 -343 0
-313 -330 -15 22 343 0
-313 -330 15 -22 343 0
-313 -330 15 22 -343 0
-313 -330 -16 -23 -344 0
-313 -330 -16 23 344 0
-313 -330 16 -23 344 0
-313 -330 16 23 -344 0
-313 -330 -17 -24 -345 0
-313 -330 -17 24 345 0
-313 -330 17 -24 345 0
-313 -330 17 24 -345 0
-313 -330 -18 -25 -346 0
-313 -330 -18 25 346 0
-313 -330 18 -25 346 0
-313 -330 18 25 -346 0
-313 -330 -19 -26 -347 0
-313 -330 -19 26 347 0
-313 -330 19 -26 347 0
-313 -330 19 26 -347 0
-313 -330 -20 -27 -348 0
-313 -330 -20 27 348 0
-313 -330 20 -27 348 0
-313 -330 20 27 -348 0
-313 -330 -21 -28 -349 0
-313 -330 -21 28 349 0
-313 -330 21 -28 349 0
-313 -330 21 28 -349 0
-313 -331 -15 -29 -343 0
-313 -331 -15 29 343 0
-313 -331 15 -29 343 0
-313 -331 15 29 -343 0
-313 -331 -16 -30 -344 0
-313 -331 -16 30 344 0
-313 -331 16 -30 344 0
-313 -331 16 30 -344 0
-313 -331 -17 -31 -345 0
-313 -331 -17 31 345 0
-313 -331 17 -31 345 0
-313 -331 17 31 -345 0
-313 -331 -18 -32 -346 0
-313 -331 -18 32 346 0
-313 -331 18 -32 346 0
-313 -331 18 32 -346 0
-313 -331 -19 -33 -347 0
-313 -331 -19 33 347 0
-313 -331 19 -33 347 0
-313 -331 19 33 -347 0
-313 -331 -20 -34 -348 0
-313 -331 -20 34 348 0
-313 -331 20 -34 348 0
-313 -331 20 34 -348 0
-313 -331 -21 -35 -349 0
-313 -331 -21 35 349 0
-313 -331 21 -35 349 0
-313 -331 21 35 -349 0
-313 -332 -15 -36 -343 0
-313 -332 -15 36 343 0
-313 -332 15 -36 343 0
-313 -332 15 36 -343 0
-313 -332 -16 -37 -344 0
-313 -332 -16 37 344 0
-313 -332 16 -37 344 0
-313 -332 16 37 -344 0
-313 -332 -17 -38 -345 0
-313 -332 -17 38 345 0
-313 -332 17 -38 345 0
-313 -332 17 38 -345 0
-313 -332 -18 -39 -346 0
-313 -332 -18 39 346 0
-313 -332 18 -39 346 0
-313 -332 18 39 -346 0
-313 -332 -19 -40 -347 0
-313 -332 -19 40 347 0
-313 -332 19 -40 347 0
-313 -332 19 40 -347 0
-313 -332 -20 -41 -348 0
-313 -332 -20 41 348 0
-313 -332 20 -41 348 0
-313 -332 20 41 -348 0
-313 -332 -21 -42 -349 0
-313 -332 -21 42 349 0
-313 -332 21 -42 349 0
-313 -332 21 42 -349 0
-313 -333 -15 -43 -343 0
-313 -333 -15 43 343 0
-313 -333 15 -43 343 0
-313 -333 15 43 -343 0
-313 -333 -16 -44 -344 0
-313 -333 -16 44 344 0
-313 -333 16 -44 344 0
-313 -333 16 44 -344 0
-313 -333 -17 -45 -345 0
-313 -333 -17 45 345 0
-313 -333 17 -45 345 0
-313 -333 17 45 -345 0
-313 -333 -18 -46 -346 0
-313 -333 -18 46 346 0
-313 -333 18 -46 346 0
-313 -333 18 46 -346 0
-313 -333 -19 -47 -347 0
-313 -333 -19 47 347 0
-313 -333 19 -47 347 0
-313 -333 19 47 -347 0
-313 -333 -20 -48 -348 0
-313 -333 -20 48 348 0
-313 -333 20 -48 348 0
-313 -333 20 48 -348 0
-313 -333 -21 -49 -349 0
-313 -333 -21 49 349 0
-313 -333 21 -49 349 0
-313 -333 21 49 -349 0
-313 -334 -15 -64 -343 0
-313 -334 -15 64 343 0
-313 -334 15 -64 343 0
-313 -334 15 64 -343 0
-313 -334 -16 -65 -344 0
-313 -334 -16 65 344 0
-313 -334 16 -65 344 0
-313 -334 16 65 -344 0
-313 -334 -17 -66 -345 0
-313 -334 -17 66 345 0
-313 -334 17 -66 345 0
-313 -334 17 66 -345 0
-313 -334 -18 -67 -346 0
-313 -334 -18 67 346 0
-313 -334 18 -67 346 0
-313 -334 18 67 -346 0
-313 -334 -19 -68 -347 0
-313 -334 -19 68 347 0
-313 -334 19 -68 347 0
-313 -334 19 68 -347 0
-313 -334 -20 -69 -348 0
-313 -334 -20 69 348 0
-313 -334 20 -69 348 0
-313 -334 20 69 -348 0
-313 -334 -21 -70 -349 0
-313 -334 -21 70 349 0
-313 -334 21 -70 349 0
-313 -334 21 70 -349 0
-313 -335 -15 -87 -343 0
-313 -335 -15 87 343 0
-313 -335 15 -87 343 0
-313 -335 15 87 -343 0
-313 -335 -16 -88 -344 0
-313 -335 -16 88 344 0
-313 -335 16 -88 344 0
-313 -335 16 88 -344 0
-313 -335 -17 -89 -345 0
-313 -335 -17 89 345 0
-313 -335 17 -89 345 0
-313 -335 17 89 -345 0
-313 -335 -18 -90 -346 0
-313 -335 -18 90 346 0
-313 -335 18 -90 346 0
-313 -335 18 90 -346 0
-313 -335 -19 -91 -347 0
-313 -335 -19 91 347 0
-313 -335 19 -91 347 0
-313 -335 19 91 -347 0
-313 -335 -20 -92 -348 0
-313 -335 -20 92 348 0
-313 -335 20 -92 348 0
-313 -335 20 92 -348 0
-313 -335 -21 -93 -349 0
-313 -335 -21 93 349 0
-313 -335 21 -93 349 0
-313 -335 21 93 -349 0
-313 -336 -15 -112 -343 0
-313 -336 -15 112 343 0
-313 -336 15 -112 343 0
-313 -336 15 112 -343 0
-313 -336 -16 -113 -344 0
-313 -336 -16 113 344 0
-313 -336 16 -113 344 0
-313 -336 16 113 -344 0
-313 -336 -17 -114 -345 0
-313 -336 -17 114 345 0
-313 -336 17 -114 345 0
-313 -336 17 114 -345 0
-313 -336 -18 -115 -346 0
-313 -336 -18 115 346 0
-313 -336 18 -115 346 0
-313 -336 18 115 -346 0
-313 -336 -19 -116 -347 0
-313 -336 -19 116 347 0
-313 -336 19 -116 347 0
-313 -336 19 116 -347 0
-313 -336 -20 -117 -348 0
-313 -336 -20 117 348 0
-313 -336 20 -117 348 0
-313 -336 20 117 -348 0
-313 -336 -21 -118 -349 0
-313 -336 -21 118 349 0
-313 -336 21 -118 349 0
-313 -336 21 118 -349 0
-313 -337 -15 -139 -343 0
-313 -337 -15 139 343 0
-313 -337 15 -139 343 0
-313 -337 15 139 -343 0
-313 -337 -16 -140 -344 0
-313 -337 -16 140 344 0
-313 -337 16 -140 344 0
-313 -337 16 140 -344 0
-313 -337 -17 -141 -345 0
-313 -337 -17 141 345 0
-313 -337 17 -141 345 0
-313 -337 17 141 -345 0
-313 -337 -18 -142 -346 0
-313 -337 -18 142 346 0
-313 -337 18 -142 346 0
-313 -337 18 142 -346 0
-313 -337 -19 -143 -347 0
-313 -337 -19 143 347 0
-313 -337 19 -143 347 0
-313 -337 19 143 -347 0
-313 -337 -20 -144 -348 0
-313 -337 -20 144 348 0
-313 -337 20 -144 348 0
-313 -337 20 144 -348 0
-313 -337 -21 -145 -349 0
-313 -337 -21 145 349 0
-313 -337 21 -145 349 0
-313 -337 21 145 -349 0
-313 -338 -15 -168 -343 0
-313 -338 -15 168 343 0
-313 -338 15 -168 343 0
-313 -338 15 168 -343 0
-313 -338 -16 -169 -344 0
-313 -338 -16 169 344 0
-313 -338 16 -169 344 0
-313 -338 16 169 -344 0
-313 -338 -17 -170 -345 0
-313 -338 -17 170 345 0
-313 -338 17 -170 345 0
-313 -338 17 170 -345 0
-313 -338 -18 -171 -346 0
-313 -338 -18 171 346 0
-313 -338 18 -171 346 0
-313 -338 18 171 -346 0
-313 -338 -19 -172 -347 0
-313 -338 -19 172 347 0
-313 -338 19 -172 347 0
-313 -338 19 172 -347 0
-313 -338 -20 -173 -348 0
-313 -338 -20 173 348 0
-313 -338 20 -173 348 0
-313 -338 20 173 -348 0
-313 -338 -21 -174 -349 0
-313 -338 -21 174 349 0
-313 -338 21 -174 349 0
-313 -338 21 174 -349 0
-313 -339 -15 -199 -343 0
-313 -339 -15 199 343 0
-313 -339 15 -199 343 0
-313 -339 15 199 -343 0
-313 -339 -16 -200 -344 0
-313 -339 -16 200 344 0
-313 -339 16 -200 344 0
-313 -339 16 200 -344 0
-313 -339 -17 -201 -345 0
-313 -339 -17 201 345 0
-313 -339 17 -201 345 0
-313 -339 17 201 -345 0
-313 -339 -18 -202 -346 0
-313 -339 -18 202 346 0
-313 -339 18 -202 346 0
-313 -339 18 202 -346 0
-313 -339 -19 -203 -347 0
-313 -339 -19 203 347 0
-313 -339 19 -203 347 0
-313 -339 19 203 -347 0
-313 -339 -20 -204 -348 0
-313 -339 -20 204 348 0
-313 -339 20 -204 348 0
-313 -339 20 204 -348 0
-313 -339 -21 -205 -349 0
-313 -339 -21 205 349 0
-313 -339 21 -205 349 0
-313 -339 21 205 -349 0
-313 -340 -15 -232 -343 0
-313 -340 -15 232 343 0
-313 -340 15 -232 343 0
-313 -340 15 232 -343 0
-313 -340 -16 -233 -344 0
-313 -340 -16 233 344 0
-313 -340 16 -233 344 0
-313 -340 16 233 -344 0
-313 -340 -17 -234 -345 0
-313 -340 -17 234 345 0
-313 -340 17 -234 345 0
-313 -340 17 234 -345 0
-313 -340 -18 -235 -346 0
-313 -340 -18 235 346 0
-313 -340 18 -235 346 0
-313 -340 18 235 -346 0
-313 -340 -19 -236 -347 0
-313 -340 -19 236 347 0
-313 -340 19 -236 347 0
-313 -340 19 236 -347 0
-313 -340 -20 -237 -348 0
-313 -340 -20 237 348 0
-313 -340 20 -237 348 0
-313 -340 20 237 -348 0
-313 -340 -21 -238 -349 0
-313 -340 -21 238 349 0
-313 -340 21 -238 349 0
-313 -340 21 238 -349 0
-313 -341 -15 -267 -343 0
-313 -341 -15 267 343 0
-313 -341 15 -267 343 0
-313 -341 15 267 -343 0
-313 -341 -16 -268 -344 0
-313 -341 -16 268 344 0
-313 -341 16 -268 344 0
-313 -341 16 268 -344 0
-313 -341 -17 -269 -345 0
-313 -341 -17 269 345 0
-313 -341 17 -269 345 0
-313 -341 17 269 -345 0
-313 -341 -18 -270 -346 0
-313 -341 -18 270 346 0
-313 -341 18 -270 346 0
-313 -341 18 270 -346 0
-313 -341 -19 -271 -347 0
-313 -341 -19 271 347 0
-313 -341 19 -271 347 0
-313 -341 19 271 -347 0
-313 -341 -20 -272 -348 0
-313 -341 -20 272 348 0
-313 -341 20 -272 348 0
-313 -341 20 272 -348 0
-313 -341 -21 -273 -349 0
-313 -341 -21 273 349 0
-313 -341 21 -273 349 0
-313 -341 21 273 -349 0
-313 -342 -15 -304 -343 0
-313 -342 -15 304 343 0
-313 -342 15 -304 343 0
-313 -342 15 304 -343 0
-313 -342 -16 -305 -344 0
-313 -342 -16 305 344 0
-313 -342 16 -305 344 0
-313 -342 16 305 -344 0
-313 -342 -17 -306 -345 0
-313 -342 -17 306 345 0
-313 -342 17 -306 345 0
-313 -342 17 306 -345 0
-313 -342 -18 -307 -346 0
-313 -342 -18 307 346 0
-313 -342 18 -307 346 0
-313 -342 18 307 -346 0
-313 -342 -19 -308 -347 0
-313 -342 -19 308 347 0
-313 -342 19 -308 347 0
-313 -342 19 308 -347 0
-313 -342 -20 -309 -348 0
-313 -342 -20 309 348 0
-313 -342 20 -309 348 0
-313 -342 20 309 -348 0
-313 -342 -21 -310 -349 0
-313 -342 -21 310 349 0
-313 -342 21 -310 349 0
-313 -342 21 310 -349 0
-314 -331 -22 -29 -343 0
-314 -331 -22 29 343 0
-314 -331 22 -29 343 0
-314 -331 22 29 -343 0
-314 -331 -23 -30 -344 0
-314 -331 -23 30 344 0
-314 -331 23 -30 344 0
-314 -331 23 30 -344 0
-314 -331 -24 -31 -345 0
-314 -331 -24 31 345 0
-314 -331 24 -31 345 0
-314 -331 24 31 -345 0
-314 -331 -25 -32 -346 0
-314 -331 -25 32 346 0
-314 -331 25 -32 346 0
-314 -331 25 32 -346 0
-314 -331 -26 -33 -347 0
-314 -331 -26 33 347 0
-314 -331 26 -33 347 0
-314 -331 26 33 -347 0
-314 -331 -27 -34 -348 0
-314 -331 -27 34 348 0
-314 -331 27 -34 348 0
-314 -331 27 34 -348 0
-314 -331 -28 -35 -349 0
-314 -331 -28 35 349 0
-314 -331 28 -35 349 0
-314 -331 28 35 -349 0
-314 -332 -22 -36 -343 0
-314 -332 -22 36 343 0
-314 -332 22 -36 343 0
-314 -332 22 36 -343 0
-314 -332 -23 -37 -344 0
-314 -332 -23 37 344 0
-314 -332 23 -37 344 0
-314 -332 23 37 -344 0
-314 -332 -24 -38 -345 0
-314 -332 -24 38 345 0
-314 -332 24 -38 345 0
-314 -332 24 38 -345 0
-314 -332 -25 -39 -346 0
-314 -332 -25 39 346 0
-314 -332 25 -39 346 0
-314 -332 25 39 -346 0
-314 -332 -26 -40 -347 0
-314 -332 -26 40 347 0
-314 -332 26 -40 347 0
-314 -332 26 40 -347 0
-314 -332 -27 -41 -348 0
-314 -332 -27 41 348 0
-314 -332 27 -41 348 0
-314 -332 27 41 -348 0
-314 -332 -28 -42 -349 0
-314 -332 -28 42 349 0
-314 -332 28 -42 349 0
-314 -332 28 42 -349 0
-314 -333 -22 -43 -343 0
-314 -333 -22 43 343 0
-314 -333 22 -43 343 0
-314 -333 22 43 -343 0
-314 -333 -23 -44 -344 0
-314 -333 -23 44 344 0
-314 -333 23 -44 344 0
-314 -333 23 44 -344 0
-314 -333 -24 -45 -345 0
-314 -333 -24 45 345 0
-314 -333 24 -45 345 0
-314 -333 24 45 -345 0
-314 -333 -25 -46 -346 0
-314 -333 -25 46 346 0
-314 -333 25 -46 346 0
-314 -333 25 46 -346 0
-314 -333 -26 -47 -347 0
-314 -333 -26 47 347 0
-314 -333 26 -47 347 0
-314 -333 26 47 -347 0
-314 -333 -27 -48 -348 0
-314 -333 -27 48 348 0
-314 -333 27 -48 348 0
-314 -333 27 48 -348 0
-314 -333 -28 -49 -349 0
-314 -333 -28 49 349 0
-314 -333 28 -49 349 0
-314 -333 28 49 -349 0
-314 -334 -22 -64 -343 0
-314 -334 -22 64 343 0
-314 -334 22 -64 343 0
-314 -334 22 64 -343 0
-314 -334 -23 -65 -344 0
-314 -334 -23 65 344 0
-314 -334 23 -65 344 0
-314 -334 23 65 -344 0
-314 -334 -24 -66 -345 0
-314 -334 -24 66 345 0
-314 -334 24 -66 345 0
-314 -334 24 66 -345 0
-314 -334 -25 -67 -346 0
-314 -334 -25 67 346 0
-314 -334 25 -67 346 0
-314 -334 25 67 -346 0
-314 -334 -26 -68 -347 0
-314 -334 -26 68 347 0
-314 -334 26 -68 347 0
-314 -334 26 68 -347 0
-314 -334 -27 -69 -348 0
-314 -334 -27 69 348 0
-314 -334 27 -69 348 0
-314 -334 27 69 -348 0
-314 -334 -28 -70 -349 0
-314 -334 -28 70 349 0
-314 -334 28 -70 349 0
-314 -334 28 70 -349 0
-314 -335 -22 -87 -343 0
-314 -335 -22 87 343 0
-314 -335 22 -87 343 0
-314 -335 22 87 -343 0
-314 -335 -23 -88 -344 0
-314 -335 -23 88 344 0
-314 -335 23 -88 344 0
-314 -335 23 88 -344 0
-314 -335 -24 -89 -345 0
-314 -335 -24 89 345 0
-314 -335 24 -89 345 0
-314 -335 24 89 -345 0
-314 -335 -25 -90 -346 0
-314 -335 -25 90 346 0
-314 -335 25 -90 346 0
-314 -335 25 90 -346 0
-314 -335 -26 -91 -347 0
-314 -335 -26 91 347 0
-314 -335 26 -91 347 0
-314 -335 26 91 -347 0
-314 -335 -27 -92 -348 0
-314 -335 -27 92 348 0
-314 -335 27 -92 348 0
-314 -335 27 92 -348 0
-314 -335 -28 -93 -349 0
-314 -335 -28 93 349 0
-314 -335 28 -93 349 0
-314 -335 28 93 -349 0
-314 -336 -22 -112 -343 0
-314 -336 -22 112 343 0
-314 -336 22 -112 343 0
-314 -336 22 112 -343 0
-314 -336 -23 -113 -344 0
-314 -336 -23 113 344 0
-314 -336 23 -113 344 0
-314 -336 23 113 -344 0
-314 -336 -24 -114 -345 0
-314 -336 -24 114 345 0
-314 -336 24 -114 345 0
-314 -336 24 114 -345 0
-314 -336 -25 -115 -346 0
-314 -336 -25 115 346 0
-314 -336 25 -115 346 0
-314 -336 25 115 -346 0
-314 -336 -26 -116 -347 0
-314 -336 -26 116 347 0
-314 -336 26 -116 347 0
-314 -336 26 116 -347 0
-314 -336 -27 -117 -348 0
-314 -336 -27 117 348 0
-314 -336 27 -117 348 0
-314 -336 27 117 -348 0
-314 -336 -28 -118 -349 0
-314 -336 -28 118 349 0
-314 -336 28 -118 349 0
-314 -336 28 118 -349 0
-314 -337 -22 -139 -343 0
-314 -337 -22 139 343 0
-314 -337 22 -139 343 0
-314 -337 22 139 -343 0
-314 -337 -23 -140 -344 0
-314 -337 -23 140 344 0
-314 -337 23 -140 344 0
-314 -337 23 140 -344 0
-314 -337 -24 -141 -345 0
-314 -337 -24 141 345 0
-314 -337 24 -141 345 0
-314 -337 24 141 -345 0
-314 -337 -25 -142 -346 0
-314 -337 -25 142 346 0
-314 -337 25 -142 346 0
-314 -337 25 142 -346 0
-314 -337 -26 -143 -347 0
-314 -337 -26 143 347 0
-314 -337 26 -143 347 0
-314 -337 26 143 -347 0
-314 -337 -27 -144 -348 0
-314 -337 -27 144 348 0
-314 -337 27 -144 348 0
-314 -337 27 144 -348 0
-314 -337 -28 -145 -349 0
-314 -337 -28 145 349 0
-314 -337 28 -145 349 0
-314 -337 28 145 -349 0
-314 -338 -22 -168 -343 0
-314 -338 -22 168 343 0
-314 -338 22 -168 343 0
-314 -338 22 168 -343 0
-314 -338 -23 -169 -344 0
-314 -338 -23 169 344 0
-314 -338 23 -169 344 0
-314 -338 23 169 -344 0
-314 -338 -24 -170 -345 0
-314 -338 -24 170 345 0
-314 -338 24 -170 345 0
-314 -338 24 170 -345 0
-314 -338 -25 -171 -346 0
-314 -338 -25 171 346 0
-314 -338 25 -171 346 0
-314 -338 25 171 -346 0
-314 -338 -26 -172 -347 0
-314 -338 -26 172 347 0
-314 -338 26 -172 347 0
-314 -338 26 172 -347 0
-314 -338 -27 -173 -348 0
-314 -338 -27 173 348 0
-314 -338 27 -173 348 0
-314 -338 27 173 -348 0
-314 -338 -28 -174 -349 0
-314 -338 -28 174 349 0
-314 -338 28 -174 349 0
-314 -338 28 174 -349 0
-314 -339 -22 -199 -343 0
-314 -339 -22 199 343 0
-314 -339 22 -199 343 0
-314 -339 22 199 -343 0
-314 -339 -23 -200 -344 0
-314 -339 -23 200 344 0
-314 -339 23 -200 344 0
-314 -339 23 200 -344 0
-314 -339 -24 -201 -345 0
-314 -339 -24 201 345 0
-314 -339 24 -201 345 0
-314 -339 24 201 -345 0
-314 -339 -25 -202 -346 0
-314 -339 -25 202 346 0
-314 -339 25 -202 346 0
-314 -339 25 202 -346 0
-314 -339 -26 -203 -347 0
-314 -339 -26 203 347 0
-314 -339 26 -203 347 0
-314 -339 26 203 -347 0
-314 -339 -27 -204 -348 0
-314 -339 -27 204 348 0
-314 -339 27 -204 348 0
-314 -339 27 204 -348 0
-314 -339 -28 -205 -349 0
-314 -339 -28 205 349 0
-314 -339 28 -205 349 0
-314 -339 28 205 -349 0
-314 -340 -22 -232 -343 0
-314 -340 -22 232 343 0
-314 -340 22 -232 343 0
-314 -340 22 232 -343 0
-314 -340 -23 -233 -344 0
-314 -340 -23 233 344 0
-314 -340 23 -233 344 0
-314 -340 23 233 -344 0
-314 -340 -24 -234 -345 0
-314 -340 -24 234 345 0
-314 -340 24 -234 345 0
-314 -340 24 234 -345 0
-314 -340 -25 -235 -346 0
-314 -340 -25 235 346 0
-314 -340 25 -235 346 0
-314 -340 25 235 -346 0
-314 -340 -26 -236 -347 0
-314 -340 -26 236 347 0
-314 -340 26 -236 347 0
-314 -340 26 236 -347 0
-314 -340 -27 -237 -348 0
-314 -340 -27 237 348 0
-314 -340 27 -237 348 0
-314 -340 27 237 -348 0
-314 -340 -28 -238 -349 0
-314 -340 -28 238 349 0
-314 -340 28 -238 349 0
-314 -340 28 238 -349 0
-314 -341 -22 -267 -343 0
-314 -341 -22 267 343 0
-314 -341 22 -267 343 0
-314 -341 22 267 -343 0
-314 -341 -23 -268 -344 0
-314 -341 -23 268 344 0
-314 -341 23 -268 344 0
-314 -341 23 268 -344 0
-314 -341 -24 -269 -345 0
-314 -341 -24 269 345 0
-314 -341 24 -269 345 0
-314 -341 24 269 -345 0
-314 -341 -25 -270 -346 0
-314 -341 -25 270 346 0
-314 -341 25 -270 346 0
-314 -341 25 270 -346 0
-314 -341 -26 -271 -347 0
-314 -341 -26 271 347 0
-314 -341 26 -271 347 0
-314 -341 26 271 -347 0
-314 -341 -27 -272 -348 0
-314 -341 -27 272 348 0
-314 -341 27 -272 348 0
-314 -341 27 272 -348 0
-314 -341 -28 -273 -349 0
-314 -341 -28 273 349 0
-314 -341 28 -273 349 0
-314 -341 28 273 -349 0
-314 -342 -22 -304 -343 0
-314 -342 -22 304 343 0
-314 -342 22 -304 343 0
-314 -342 22 304 -343 0
-314 -342 -23 -305 -344 0
-314 -342 -23 305 344 0
-314 -342 23 -305 344 0
-314 -342 23 305 -344 0
-314 -342 -24 -306 -345 0
-314 -342 -24 306 345 0
-314 -342 24 -306 345 0
-314 -342 24 306 -345 0
-314 -342 -25 -307 -346 0
-314 -342 -25 307 346 0
-314 -342 25 -307 346 0
-314 -342 25 307 -346 0
-314 -342 -26 -308 -347 0
-314 -342 -26 308 347 0
-314 -342 26 -308 347 0
-314 -342 26 308 -347 0
-314 -342 -27 -309 -348 0
-314 -342 -27 309 348 0
-314 -342 27 -309 348 0
-314 -342 27 309 -348 0
-314 -342 -28 -310 -349 0
-314 -342 -28 310 349 0
-314 -342 28 -310 349 0
-314 -342 28 310 -349 0
-315 -332 -29 -36 -343 0
-315 -332 -29 36 343 0
-315 -332 29 -36 343 0
-315 -332 29 36 -343 0
-315 -332 -30 -37 -344 0
-315 -332 -30 37 344 0
-315 -332 30 -37 344 0
-315 -332 30 37 -344 0
-315 -332 -31 -38 -345 0
-315 -332 -31 38 345 0
-315 -332 31 -38 345 0
-315 -332 31 38 -345 0
-315 -332 -32 -39 -346 0
-315 -332 -32 39 346 0
-315 -332 32 -39 346 0
-315 -332 32 39 -346 0
-315 -332 -33 -40 -347 0
-315 -332 -33 40 347 0
-315 -332 33 -40 347 0
-315 -332 33 40 -347 0
-315 -332 -34 -41 -348 0
-315 -332 -34 41 348 0
-315 -332 34 -41 348 0
-315 -332 34 41 -348 0
-315 -332 -35 -42 -349 0
-315 -332 -35 42 349 0
-315 -332 35 -42 349 0
-315 -332 35 42 -349 0
-315 -333 -29 -43 -343 0
-315 -333 -29 43 343 0
-315 -333 29 -43 343 0
-315 -333 29 43 -343 0
-315 -333 -30 -44 -344 0
-315 -333 -30 44 344 0
-315 -333 30 -44 344 0
-315 -333 30 44 -344 0
-315 -333 -31 -45 -345 0
-315 -333 -31 45 345 0
-315 -333 31 -45 345 0
-315 -333 31 45 -345 0
-315 -333 -32 -46 -346 0
-315 -333 -32 46 346 0
-315 -333 32 -46 346 0
-315 -333 32 46 -346 0
-315 -333 -33 -47 -347 0
-315 -333 -33 47 347 0
-315 -333 33 -47 347 0
-315 -333 33 47 -347 0
-315 -333 -34 -48 -348 0
-315 -333 -34 48 348 0
-315 -333 34 -48 348 0
-315 -333 34 48 -348 0
-315 -333 -35 -49 -349 0
-315 -333 -35 49 349 0
-315 -333 35 -49 349 0
-315 -333 35 49 -349 0
-315 -334 -29 -64 -343 0
-315 -334 -29 64 343 0
-315 -334 29 -64 343 0
-315 -334 29 64 -343 0
-315 -334 -30 -65 -344 0
-315 -334 -30 65 344 0
-315 -334 30 -65 344 0
-315 -334 30 65 -344 0
-315 -334 -31 -66 -345 0
-315 -334 -31 66 345 0
-315 -334 31 -66 345 0
-315 -334 31 66 -345 0
-315 -334 -32 -67 -346 0
-315 -334 -32 67 346 0
-315 -334 32 -67 346 0
-315 -334 32 67 -346 0
-315 -334 -33 -68 -347 0
-315 -334 -33 68 347 0
-315 -334 33 -68 347 0
-315 -334 33 68 -347 0
-315 -334 -34 -69 -348 0
-315 -334 -34 69 348 0
-315 -334 34 -69 348 0
-315 -334 34 69 -348 0
-315 -334 -35 -70 -349 0
-315 -334 -35 70 349 0
-315 -334 35 -70 349 0
-315 -334 35 70 -349 0
-315 -335 -29 -87 -343 0
-315 -335 -29 87 343 0
-315 -335 29 -87 343 0
-315 -335 29 87 -343 0
-315 -335 -30 -88 -344 0
-315 -335 -30 88 344 0
-315 -335 30 -88 344 0
-315 -335 30 88 -344 0
-315 -335 -31 -89 -345 0
-315 -335 -31 89 345 0
-315 -335 31 -89 345 0
-315 -335 31 89 -345 0
-315 -335 -32 -90 -346 0
-315 -335 -32 90 346 0
-315 -335 32 -90 346 0
-315 -335 32 90 -346 0
-315 -335 -33 -91 -347 0
-315 -335 -33 91 347 0
-315 -335 33 -91 347 0
-315 -335 33 91 -347 0
-315 -335 -34 -92 -348 0
-315 -335 -34 92 348 0
-315 -335 34 -92 348 0
-315 -335 34 92 -348 0
-315 -335 -35 -93 -349 0
-315 -335 -35 93 349 0
-315 -335 35 -93 349 0
-315 -335 35 93 -349 0
-315 -336 -29 -112 -343 0
-315 -336 -29 112 343 0
-315 -336 29 -112 343 0
-315 -336 29 112 -343 0
-315 -336 -30 -113 -344 0
-315 -336 -30 113 344 0
-315 -336 30 -113 344 0
-315 -336 30 113 -344 0
-315 -336 -31 -114 -345 0
-315 -336 -31 114 345 0
-315 -336 31 -114 345 0
-315 -336 31 114 -345 0
-315 -336 -32 -115 -346 0
-315 -336 -32 115 346 0
-315 -336 32 -115 346 0
-315 -336 32 115 -346 0
-315 -336 -33 -116 -347 0
-315 -336 -33 116 347 0
-315 -336 33 -116 347 0
-315 -336 33 116 -347 0
-315 -336 -34 -117 -348 0
-315 -336 -34 117 348 0
-315 -336 34 -117 348 0
-315 -336 34 117 -348 0
-315 -336 -35 -118 -349 0
-315 -336 -35 118 349 0
-315 -336 35 -118 349 0
-315 -336 35 118 -349 0
-315 -337 -29 -139 -343 0
-315 -337 -29 139 343 0
-315 -337 29 -139 343 0
-315 -337 29 139 -343 0
-315 -337 -30 -140 -344 0
-315 -337 -30 140 344 0
-315 -337 30 -140 344 0
-315 -337 30 140 -344 0
-315 -337 -31 -141 -345 0
-315 -337 -31 141 345 0
-315 -337 31 -141 345 0
-315 -337 31 141 -345 0
-315 -337 -32 -142 -346 0
-315 -337 -32 142 346 0
-315 -337 32 -142 346 0
-315 -337 32 142 -346 0
-315 -337 -33 -143 -347 0
-315 -337 -33 143 347 0
-315 -337 33 -143 347 0
-315 -337 33 143 -347 0
-315 -337 -34 -144 -348 0
-315 -337 -34 144 348 0
-315 -337 34 -144 348 0
-315 -337 34 144 -348 0
-315 -337 -35 -145 -349 0
-315 -337 -35 145 349 0
-315 -337 35 -145 349 0
-315 -337 35 145 -349 0
-315 -338 -29 -168 -343 0
-315 -338 -29 168 343 0
-315 -338 29 -168 343 0
-315 -338 29 168 -343 0
-315 -338 -30 -169 -344 0
-315 -338 -30 169 344 0
-315 -338 30 -169 344 0
-315 -338 30 169 -344 0
-315 -338 -31 -170 -345 0
-315 -338 -31 170 345 0
-315 -338 31 -170 345 0
-315 -338 31 170 -345 0
-315 -338 -32 -171 -346 0
-315 -338 -32 171 346 0
-315 -338 32 -171 346 0
-315 -338 32 171 -346 0
-315 -338 -33 -172 -347 0
-315 -338 -33 172 347 0
-315 -338 33 -172 347 0
-315 -338 33 172 -347 0
-315 -338 -34 -173 -348 0
-315 -338 -34 173 348 0
-315 -338 34 -173 348 0
-315 -338 34 173 -348 0
-315 -338 -35 -174 -349 0
-315 -338 -35 174 349 0
-315 -338 35 -174 349 0
-315 -338 35 174 -349 0
-315 -339 -29 -199 -343 0
-315 -339 -29 199 343 0
-315 -339 29 -199 343 0
-315 -339 29 199 -343 0
-315 -339 -30 -200 -344 0
-315 -339 -30 200 344 0
-315 -339 30 -200 344 0
-315 -339 30 200 -344 0
-315 -339 -31 -201 -345 0
-315 -339 -31 201 345 0
-315 -339 31 -201 345 0
-315 -339 31 201 -345 0
-315 -339 -32 -202 -346 0
-315 -339 -32 202 346 0
-315 -339 32 -202 346 0
-315 -339 32 202 -346 0
-315 -339 -33 -203 -347 0
-315 -339 -33 203 347 0
-315 -339 33 -203 347 0
-315 -339 33 203 -347 0
-315 -339 -34 -204 -348 0
-315 -339 -34 204 348 0
-315 -339 34 -204 348 0
-315 -339 34 204 -348 0
-315 -339 -35 -205 -349 0
-315 -339 -35 205 349 0
-315 -339 35 -205 349 0
-315 -339 35 205 -349 0
-315 -340 -29 -232 -343 0
-315 -340 -29 232 343 0
-315 -340 29 -232 343 0
-315 -340 29 232 -343 0
-315 -340 -30 -233 -344 0
-315 -340 -30 233 344 0
-315 -340 30 -233 344 0
-315 -340 30 233 -344 0
-315 -340 -31 -234 -345 0
-315 -340 -31 234 345 0
-315 -340 31 -234 345 0
-315 -340 31 234 -345 0
-315 -340 -32 -235 -346 0
-315 -340 -32 235 346 0
-315 -340 32 -235 346 0
-315 -340 32 235 -346 0
-315 -340 -33 -236 -347 0
-315 -340 -33 236 347 0
-315 -340 33 -236 347 0
-315 -340 33 236 -347 0
-315 -340 -34 -237 -348 0
-315 -340 -34 237 348 0
-315 -340 34 -237 348 0
-315 -340 34 237 -348 0
-315 -340 -35 -238 -349 0
-315 -340 -35 238 349 0
-315 -340 35 -238 349 0
-315 -340 35 238 -349 0
-315 -341 -29 -267 -343 0
-315 -341 -29 267 343 0
-315 -341 29 -267 343 0
-315 -341 29 267 -343 0
-315 -341 -30 -268 -344 0
-315 -341 -30 268 344 0
-315 -341 30 -268 344 0
-315 -341 30 268 -344 0
-315 -341 -31 -269 -345 0
-315 -341 -31 269 345 0
-315 -341 31 -269 345 0
-315 -341 31 269 -345 0
-315 -341 -32 -270 -346 0
-315 -341 -32 270 346 0
-315 -341 32 -270 346 0
-315 -341 32 270 -346 0
-315 -341 -33 -271 -347 0
-315 -341 -33 271 347 0
-315 -341 33 -271 347 0
-315 -341 33 271 -347 0
-315 -341 -34 -272 -348 0
-315 -341 -34 272 348 0
-315 -341 34 -272 348 0
-315 -341 34 272 -348 0
-315 -341 -35 -273 -349 0
-315 -341 -35 273 349 0
-315 -341 35 -273 349 0
-315 -341 35 273 -349 0
-315 -342 -29 -304 -343 0
-315 -342 -29 304 343 0
-315 -342 29 -304 343 0
-315 -342 29 304 -343 0
-315 -342 -30 -305 -344 0
-315 -342 -30 305 344 0
-315 -342 30 -305 344 0
-315 -342 30 305 -344 0
-315 -342 -31 -306 -345 0
-315 -342 -31 306 345 0
-315 -342 31 -306 345 0
-315 -342 31 306 -345 0
-315 -342 -32 -307 -346 0
-315 -342 -32 307 346 0
-315 -342 32 -307 346 0
-315 -342 32 307 -346 0
-315 -342 -33 -308 -347 0
-315 -342 -33 308 347 0
-315 -342 33 -308 347 0
-315 -342 33 308 -347 0
-315 -342 -34 -309 -348 0
-315 -342 -34 309 348 0
-315 -342 34 -309 348 0
-315 -342 34 309 -348 0
-315 -342 -35 -310 -349 0
-315 -342 -35 310 349 0
-315 -342 35 -310 349 0
-315 -342 35 310 -349 0
-316 -333 -36 -43 -343 0
-316 -333 -36 43 343 0
-316 -333 36 -43 343 0
-316 -333 36 43 -343 0
-316 -333 -37 -44 -344 0
-316 -333 -37 44 344 0
-316 -333 37 -44 344 0
-316 -333 37 44 -344 0
-316 -333 -38 -45 -345 0
-316 -333 -38 45 345 0
-316 -333 38 -45 345 0
-316 -333 38 45 -345 0
-316 -333 -39 -46 -346 0
-316 -333 -39 46 346 0
-316 -333 39 -46 346 0
-316 -333 39 46 -346 0
-316 -333 -40 -47 -347 0
-316 -333 -40 47 347 0
-316 -333 40 -47 347 0
-316 -333 40 47 -347 0
-316 -333 -41 -48 -348 0
-316 -333 -41 48 348 0
-316 -333 41 -48 348 0
-316 -333 41 48 -348 0
-316 -333 -42 -49 -349 0
-316 -333 -42 49 349 0
-316 -333 42 -49 349 0
-316 -333 42 49 -349 0
-316 -334 -36 -64 -343 0
-316 -334 -36 64 343 0
-316 -334 36 -64 343 0
-316 -334 36 64 -343 0
-316 -334 -37 -65 -344 0
-316 -334 -37 65 344 0
-316 -334 37 -65 344 0
-316 -334 37 65 -344 0
-316 -334 -38 -66 -345 0
-316 -334 -38 66 345 0
-316 -334 38 -66 345 0
-316 -334 38 66 -345 0
-316 -334 -39 -67 -346 0
-316 -334 -39 67 346 0
-316 -334 39 -67 346 0
-316 -334 39 67 -346 0
-316 -334 -40 -68 -347 0
-316 -334 -40 68 347 0
-316 -334 40 -68 347 0
-316 -334 40 68 -347 0
-316 -334 -41 -69 -348 0
-316 -334 -41 69 348 0
-316 -334 41 -69 348 0
-316 -334 41 69 -348 0
-316 -334 -42 -70 -349 0
-316 -334 -42 70 349 0
-316 -334 42 -70 349 0
-316 -334 42 70 -349 0
-316 -335 -36 -87 -343 0
-316 -335 -36 87 343 0
-316 -335 36 -87 343 0
-316 -335 36 87 -343 0
-316 -335 -37 -88 -344 0
-316 -335 -37 88 344 0
-316 -335 37 -88 344 0
-316 -335 37 88 -344 0
-316 -335 -38 -89 -345 0
-316 -335 -38 89 345 0
-316 -335 38 -89 345 0
-316 -335 38 89 -345 0
-316 -335 -39 -90 -346 0
-316 -335 -39 90 346 0
-316 -335 39 -90 346 0
-316 -335 39 90 -346 0
-316 -335 -40 -91 -347 0
-316 -335 -40 91 347 0
-316 -335 40 -91 347 0
-316 -335 40 91 -347 0
-316 -335 -41 -92 -348 0
-316 -335 -41 92 348 0
-316 -335 41 -92 348 0
-316 -335 41 92 -348 0
-316 -335 -42 -93 -349 0
-316 -335 -42 93 349 0
-316 -335 42 -93 349 0
-316 -335 42 93 -349 0
-316 -336 -36 -112 -343 0
-316 -336 -36 112 343 0
-316 -336 36 -112 343 0
-316 -336 36 112 -343 0
-316 -336 -37 -113 -344 0
-316 -336 -37 113 344 0
-316 -336 37 -113 344 0
-316 -336 37 113 -344 0
-316 -336 -38 -114 -345 0
-316 -336 -38 114 345 0
-316 -336 38 -114 345 0
-316 -336 38 114 -345 0
-316 -336 -39 -115 -346 0
-316 -336 -39 115 346 0
-316 -336 39 -115 346 0
-316 -336 39 115 -346 0
-316 -336 -40 -116 -347 0
-316 -336 -40 116 347 0
-316 -336 40 -116 347 0
-316 -336 40 116 -347 0
-316 -336 -41 -117 -348 0
-316 -336 -41 117 348 0
-316 -336 41 -117 348 0
-316 -336 41 117 -348 0
-316 -336 -42 -118 -349 0
-316 -336 -42 118 349 0
-316 -336 42 -118 349 0
-316 -336 42 118 -349 0
-316 -337 -36 -139 -343 0
-316 -337 -36 139 343 0
-316 -337 36 -139 343 0
-316 -337 36 139 -343 0
-316 -337 -37 -140 -344 0
-316 -337 -37 140 344 0
-316 -337 37 -140 344 0
-316 -337 37 140 -344 0
-316 -337 -38 -141 -345 0
-316 -337 -38 141 345 0
-316 -337 38 -141 345 0
-316 -337 38 141 -345 0
-316 -337 -39 -142 -346 0
-316 -337 -39 142 346 0
-316 -337 39 -142 346 0
-316 -337 39 142 -346 0
-316 -337 -40 -143 -347 0
-316 -337 -40 143 347 0
-316 -337 40 -143 347 0
-316 -337 40 143 -347 0
-316 -337 -41 -144 -348 0
-316 -337 -41 144 348 0
-316 -337 41 -144 348 0
-316 -337 41 144 -348 0
-316 -337 -42 -145 -349 0
-316 -337 -42 145 349 0
-316 -337 42 -145 349 0
-316 -337 42 145 -349 0
-316 -338 -36 -168 -343 0
-316 -338 -36 168 343 0
-316 -338 36 -168 343 0
-316 -338 36 168 -343 0
-316 -338 -37 -169 -344 0
-316 -338 -37 169 344 0
-316 -338 37 -169 344 0
-316 -338 37 169 -344 0
-316 -338 -38 -170 -345 0
-316 -338 -38 170 345 0
-316 -338 38 -170 345 0
-316 -338 38 170 -345 0
-316 -338 -39 -171 -346 0
-316 -338 -39 171 346 0
-316 -338 39 -171 346 0
-316 -338 39 171 -346 0
-316 -338 -40 -172 -347 0
-316 -338 -40 172 347 0
-316 -338 40 -172 347 0
-316 -338 40 172 -347 0
-316 -338 -41 -173 -348 0
-316 -338 -41 173 348 0
-316 -338 41 -173 348 0
-316 -338 41 173 -348 0
-316 -338 -42 -174 -349 0
-316 -338 -42 174 349 0
-316 -338 42 -174 349 0
-316 -338 42 174 -349 0
-316 -339 -36 -199 -343 0
-316 -339 -36 199 343 0
-316 -339 36 -199 343 0
-316 -339 36 199 -343 0
-316 -339 -37 -200 -344 0
-316 -339 -37 200 344 0
-316 -339 37 -200 344 0
-316 -339 37 200 -344 0
-316 -339 -38 -201 -345 0
-316 -339 -38 201 345 0
-316 -339 38 -201 345 0
-316 -339 38 201 -345 0
-316 -339 -39 -202 -346 0
-316 -339 -39 202 346 0
-316 -339 39 -202 346 0
-316 -339 39 202 -346 0
-316 -339 -40 -203 -347 0
-316 -339 -40 203 347 0
-316 -339 40 -203 347 0
-316 -339 40 203 -347 0
-316 -339 -41 -204 -348 0
-316 -339 -41 204 348 0
-316 -339 41 -204 348 0
-316 -339 41 204 -348 0
-316 -339 -42 -205 -349 0
-316 -339 -42 205 349 0
-316 -339 42 -205 349 0
-316 -339 42 205 -349 0
-316 -340 -36 -232 -343 0
-316 -340 -36 232 343 0
-316 -340 36 -232 343 0
-316 -340 36 232 -343 0
-316 -340 -37 -233 -344 0
-316 -340 -37 233 344 0
-316 -340 37 -233 344 0
-316 -340 37 233 -344 0
-316 -340 -38 -234 -345 0
-316 -340 -38 234 345 0
-316 -340 38 -234 345 0
-316 -340 38 234 -345 0
-316 -340 -39 -235 -346 0
-316 -340 -39 235 346 0
-316 -340 39 -235 346 0
-316 -340 39 235 -346 0
-316 -340 -40 -236 -347 0
-316 -340 -40 236 347 0
-316 -340 40 -236 347 0
-316 -340 40 236 -347 0
-316 -340 -41 -237 -348 0
-316 -340 -41 237 348 0
-316 -340 41 -237 348 0
-316 -340 41 237 -348 0
-316 -340 -42 -238 -349 0
-316 -340 -42 238 349 0
-316 -340 42 -238 349 0
-316 -340 42 238 -349 0
-316 -341 -36 -267 -343 0
-316 -341 -36 267 343 0
-316 -341 36 -267 343 0
-316 -341 36 267 -343 0
-316 -341 -37 -268 -344 0
-316 -341 -37 268 344 0
-316 -341 37 -268 344 0
-316 -341 37 268 -344 0
-316 -341 -38 -269 -345 0
-316 -341 -38 269 345 0
-316 -341 38 -269 345 0
-316 -341 38 269 -345 0
-316 -341 -39 -270 -346 0
-316 -341 -39 270 346 0
-316 -341 39 -270 346 0
-316 -341 39 270 -346 0
-316 -341 -40 -271 -347 0
-316 -341 -40 271 347 0
-316 -341 40 -271 347 0
-316 -341 40 271 -347 0
-316 -341 -41 -272 -348 0
-316 -341 -41 272 348 0
-316 -341 41 -272 348 0
-316 -341 41 272 -348 0
-316 -341 -42 -273 -349 0
-316 -341 -42 273 349 0
-316 -341 42 -273 349 0
-316 -341 42 273 -349 0
-316 -342 -36 -304 -343 0
-316 -342 -36 304 343 0
-316 -342 36 -304 343 0
-316 -342 36 304 -343 0
-316 -342 -37 -305 -344 0
-316 -342 -37 305 344 0
-316 -342 37 -305 344 0
-316 -342 37 305 -344 0
-316 -342 -38 -306 -345 0
-316 -342 -38 306 345 0
-316 -342 38 -306 345 0
-316 -342 38 306 -345 0
-316 -342 -39 -307 -346 0
-316 -342 -39 307 346 0
-316 -342 39 -307 346 0
-316 -342 39 307 -346 0
-316 -342 -40 -308 -347 0
-316 -342 -40 308 347 0
-316 -342 40 -308 347 0
-316 -342 40 308 -347 0
-316 -342 -41 -309 -348 0
-316 -342 -41 309 348 0
-316 -342 41 -309 348 0
-316 -342 41 309 -348 0
-316 -342 -42 -310 -349 0
-316 -342 -42 310 349 0
-316 -342 42 -310 349 0
-316 -342 42 310 -349 0
-317 -334 -43 -64 -343 0
-317 -334 -43 64 343 0
-317 -334 43 -64 343 0
-317 -334 43 64 -343 0
-317 -334 -44 -65 -344 0
-317 -334 -44 65 344 0
-317 -334 44 -65 344 0
-317 -334 44 65 -344 0
-317 -334 -45 -66 -345 0
-317 -334 -45 66 345 0
-317 -334 45 -66 345 0
-317 -334 45 66 -345 0
-317 -334 -46 -67 -346 0
-317 -334 -46 67 346 0
-317 -334 46 -67 346 0
-317 -334 46 67 -346 0
-317 -334 -47 -68 -347 0
-317 -334 -47 68 347 0
-317 -334 47 -68 347 0
-317 -334 47 68 -347 0
-317 -334 -48 -69 -348 0
-317 -334 -48 69 348 0
-317 -334 48 -69 348 0
-317 -334 48 69 -348 0
-317 -334 -49 -70 -349 0
-317 -334 -49 70 349 0
-317 -334 49 -70 349 0
-317 -334 49 70 -349 0
-317 -335 -43 -87 -343 0
-317 -335 -43 87 343 0
-317 -335 43 -87 343 0
-317 -335 43 87 -343 0
-317 -335 -44 -88 -344 0
-317 -335 -44 88 344 0
-317 -335 44 -88 344 0
-317 -335 44 88 -344 0
-317 -335 -45 -89 -345 0
-317 -335 -45 89 345 0
-317 -335 45 -89 345 0
-317 -335 45 89 -345 0
-317 -335 -46 -90 -346 0
-317 -335 -46 90 346 0
-317 -335 46 -90 346 0
-317 -335 46 90 -346 0
-317 -335 -47 -91 -347 0
-317 -335 -47 91 347 0
-317 -335 47 -91 347 0
-317 -335 47 91 -347 0
-317 -335 -48 -92 -348 0
-317 -335 -48 92 348 0
-317 -335 48 -92 348 0
-317 -335 48 92 -348 0
-317 -335 -49 -93 -349 0
-317 -335 -49 93 349 0
-317 -335 49 -93 349 0
-317 -335 49 93 -349 0
-317 -336 -43 -112 -343 0
-317 -336 -43 112 343 0
-317 -336 43 -112 343 0
-317 -336 43 112 -343 0
-317 -336 -44 -113 -344 0
-317 -336 -44 113 344 0
-317 -336 44 -113 344 0
-317 -336 44 113 -344 0
-317 -336 -45 -114 -345 0
-317 -336 -45 114 345 0
-317 -336 45 -114 345 0
-317 -336 45 114 -345 0
-317 -336 -46 -115 -346 0
-317 -336 -46 115 346 0
-317 -336 46 -115 346 0
-317 -336 46 115 -346 0
-317 -336 -47 -116 -347 0
-317 -336 -47 116 347 0
-317 -336 47 -116 347 0
-317 -336 47 116 -347 0
-317 -336 -48 -117 -348 0
-317 -336 -48 117 348 0
-317 -336 48 -117 348 0
-317 -336 48 117 -348 0
-317 -336 -49 -118 -349 0
-317 -336 -49 118 349 0
-317 -336 49 -118 349 0
-317 -336 49 118 -349 0
-317 -337 -43 -139 -343 0
-317 -337 -43 139 343 0
-317 -337 43 -139 343 0
-317 -337 43 139 -343 0
-317 -337 -44 -140 -344 0
-317 -337 -44 140 344 0
-317 -337 44 -140 344 0
-317 -337 44 140 -344 0
-317 -337 -45 -141 -345 0
-317 -337 -45 141 345 0
-317 -337 45 -141 345 0
-317 -337 45 141 -345 0
-317 -337 -46 -142 -346 0
-317 -337 -46 142 346 0
-317 -337 46 -142 346 0
-317 -337 46 142 -346 0
-317 -337 -47 -143 -347 0
-317 -337 -47 143 347 0
-317 -337 47 -143 347 0
-317 -337 47 143 -347 0
-317 -337 -48 -144 -348 0
-317 -337 -48 144 348 0
-317 -337 48 -144 348 0
-317 -337 48 144 -348 0
-317 -337 -49 -145 -349 0
-317 -337 -49 145 349 0
-317 -337 49 -145 349 0
-317 -337 49 145 -349 0
-317 -338 -43 -168 -343 0
-317 -338 -43 168 343 0
-317 -338 43 -168 343 0
-317 -338 43 168 -343 0
-317 -338 -44 -169 -344 0
-317 -338 -44 169 344 0
-317 -338 44 -169 344 0
-317 -338 44 169 -344 0
-317 -338 -45 -170 -345 0
-317 -338 -45 170 345 0
-317 -338 45 -170 345 0
-317 -338 45 170 -345 0
-317 -338 -46 -171 -346 0
-317 -338 -46 171 346 0
-317 -338 46 -171 346 0
-317 -338 46 171 -346 0
-317 -338 -47 -172 -347 0
-317 -338 -47 172 347 0
-317 -338 47 -172 347 0
-317 -338 47 172 -347 0
-317 -338 -48 -173 -348 0
-317 -338 -48 173 348 0
-317 -338 48 -173 348 0
-317 -338 48 173 -348 0
-317 -338 -49 -174 -349 0
-317 -338 -49 174 349 0
-317 -338 49 -174 349 0
-317 -338 49 174 -349 0
-317 -339 -43 -199 -343 0
-317 -339 -43 199 343 0
-317 -339 43 -199 343 0
-317 -339 43 199 -343 0
-317 -339 -44 -200 -344 0
-317 -339 -44 200 344 0
-317 -339 44 -200 344 0
-317 -339 44 200 -344 0
-317 -339 -45 -201 -345 0
-317 -339 -45 201 345 0
-317 -339 45 -201 345 0
-317 -339 45 201 -345 0
-317 -339 -46 -202 -346 0
-317 -339 -46 202 346 0
-317 -339 46 -202 346 0
-317 -339 46 202 -346 0
-317 -339 -47 -203 -347 0
-317 -339 -47 203 347 0
-317 -339 47 -203 347 0
-317 -339 47 203 -347 0
-317 -339 -48 -204 -348 0
-317 -339 -48 204 348 0
-317 -339 48 -204 348 0
-317 -339 48 204 -348 0
-317 -339 -49 -205 -349 0
-317 -339 -49 205 349 0
-317 -339 49 -205 349 0
-317 -339 49 205 -349 0
-317 -340 -43 -232 -343 0
-317 -340 -43 232 343 0
-317 -340 43 -232 343 0
-317 -340 43 232 -343 0
-317 -340 -44 -233 -344 0
-317 -340 -44 233 344 0
-317 -340 44 -233 344 0
-317 -340 44 233 -344 0
-317 -340 -45 -234 -345 0
-317 -340 -45 234 345 0
-317 -340 45 -234 345 0
-317 -340 45 234 -345 0
-317 -340 -46 -235 -346 0
-317 -340 -46 235 346 0
-317 -340 46 -235 346 0
-317 -340 46 235 -346 0
-317 -340 -47 -236 -347 0
-317 -340 -47 236 347 0
-317 -340 47 -236 347 0
-317 -340 47 236 -347 0
-317 -340 -48 -237 -348 0
-317 -340 -48 237 348 0
-317 -340 48 -237 348 0
-317 -340 48 237 -348 0
-317 -340 -49 -238 -349 0
-317 -340 -49 238 349 0
-317 -340 49 -238 349 0
-317 -340 49 238 -349 0
-317 -341 -43 -267 -343 0
-317 -341 -43 267 343 0
-317 -341 43 -267 343 0
-317 -341 43 267 -343 0
-317 -341 -44 -268 -344 0
-317 -341 -44 268 344 0
-317 -341 44 -268 344 0
-317 -341 44 268 -344 0
-317 -341 -45 -269 -345 0
-317 -341 -45 269 345 0
-317 -341 45 -269 345 0
-317 -341 45 269 -345 0
-317 -341 -46 -270 -346 0
-317 -341 -46 270 346 0
-317 -341 46 -270 346 0
-317 -341 46 270 -346 0
-317 -341 -47 -271 -347 0
-317 -341 -47 271 347 0
-317 -341 47 -271 347 0
-317 -341 47 271 -347 0
-317 -341 -48 -272 -348 0
-317 -341 -48 272 348 0
-317 -341 48 -272 348 0
-317 -341 48 272 -348 0
-317 -341 -49 -273 -349 0
-317 -341 -49 273 349 0
-317 -341 49 -273 349 0
-317 -341 49 273 -349 0
-317 -342 -43 -304 -343 0
-317 -342 -43 304 343 0
-317 -342 43 -304 343 0
-317 -342 43 304 -343 0
-317 -342 -44 -305 -344 0
-317 -342 -44 305 344 0
-317 -342 44 -305 344 0
-317 -342 44 305 -344 0
-317 -342 -45 -306 -345 0
-317 -342 -45 306 345 0
-317 -342 45 -306 345 0
-317 -342 45 306 -345 0
-317 -342 -46 -307 -346 0
-317 -342 -46 307 346 0
-317 -342 46 -307 346 0
-317 -342 46 307 -346 0
-317 -342 -47 -308 -347 0
-317 -342 -47 308 347 0
-317 -342 47 -308 347 0
-317 -342 47 308 -347 0
-317 -342 -48 -309 -348 0
-317 -342 -48 309 348 0
-317 -342 48 -309 348 0
-317 -342 48 309 -348 0
-317 -342 -49 -310 -349 0
-317 -342 -49 310 349 0
-317 -342 49 -310 349 0
-317 -342 49 310 -349 0
-318 -335 -64 -87 -343 0
-318 -335 -64 87 343 0
-318 -335 64 -87 343 0
-318 -335 64 87 -343 0
-318 -335 -65 -88 -344 0
-318 -335 -65 88 344 0
-318 -335 65 -88 344 0
-318 -335 65 88 -344 0
-318 -335 -66 -89 -345 0
-318 -335 -66 89 345 0
-318 -335 66 -89 345 0
-318 -335 66 89 -345 0
-318 -335 -67 -90 -346 0
-318 -335 -67 90 346 0
-318 -335 67 -90 346 0
-318 -335 67 90 -346 0
-318 -335 -68 -91 -347 0
-318 -335 -68 91 347 0
-318 -335 68 -91 347 0
-318 -335 68 91 -347 0
-318 -335 -69 -92 -348 0
-318 -335 -69 92 348 0
-318 -335 69 -92 348 0
-318 -335 69 92 -348 0
-318 -335 -70 -93 -349 0
-318 -335 -70 93 349 0
-318 -335 70 -93 349 0
-318 -335 70 93 -349 0
-318 -336 -64 -112 -343 0
-318 -336 -64 112 343 0
-318 -336 64 -112 343 0
-318 -336 64 112 -343 0
-318 -336 -65 -113 -344 0
-318 -336 -65 113 344 0
-318 -336 65 -113 344 0
-318 -336 65 113 -344 0
-318 -336 -66 -114 -345 0
-318 -336 -66 114 345 0
-318 -336 66 -114 345 0
-318 -336 66 114 -345 0
-318 -336 -67 -115 -346 0
-318 -336 -67 115 346 0
-318 -336 67 -115 346 0
-318 -336 67 115 -346 0
-318 -336 -68 -116 -347 0
-318 -336 -68 116 347 0
-318 -336 68 -116 347 0
-318 -336 68 116 -347 0
-318 -336 -69 -117 -348 0
-318 -336 -69 117 348 0
-318 -336 69 -117 348 0
-318 -336 69 117 -348 0
-318 -336 -70 -118 -349 0
-318 -336 -70 118 349 0
-318 -336 70 -118 349 0
-318 -336 70 118 -349 0
-318 -337 -64 -139 -343 0
-318 -337 -64 139 343 0
-318 -337 64 -139 343 0
-318 -337 64 139 -343 0
-318 -337 -65 -140 -344 0
-318 -337 -65 140 344 0
-318 -337 65 -140 344 0
-318 -337 65 140 -344 0
-318 -337 -66 -141 -345 0
-318 -337 -66 141 345 0
-318 -337 66 -141 345 0
-318 -337 66 141 -345 0
-318 -337 -67 -142 -346 0
-318 -337 -67 142 346 0
-318 -337 67 -142 346 0
-318 -337 67 142 -346 0
-318 -337 -68 -143 -347 0
-318 -337 -68 143 347 0
-318 -337 68 -143 347 0
-318 -337 68 143 -347 0
-318 -337 -69 -144 -348 0
-318 -337 -69 144 348 0
-318 -337 69 -144 348 0
-318 -337 69 144 -348 0
-318 -337 -70 -145 -349 0
-318 -337 -70 145 349 0
-318 -337 70 -145 349 0
-318 -337 70 145 -349 0
-318 -338 -64 -168 -343 0
-318 -338 -64 168 343 0
-318 -338 64 -168 343 0
-318 -338 64 168 -343 0
-318 -338 -65 -169 -344 0
-318 -338 -65 169 344 0
-318 -338 65 -169 344 0
-318 -338 65 169 -344 0
-318 -338 -66 -170 -345 0
-318 -338 -66 170 345 0
-318 -338 66 -170 345 0
-318 -338 66 170 -345 0
-318 -338 -67 -171 -346 0
-318 -338 -67 171 346 0
-318 -338 67 -171 346 0
-318 -338 67 171 -346 0
-318 -338 -68 -172 -347 0
-318 -338 -68 172 347 0
-318 -338 68 -172 347 0
-318 -338 68 172 -347 0
-318 -338 -69 -173 -348 0
-318 -338 -69 173 348 0
-318 -338 69 -173 348 0
-318 -338 69 173 -348 0
-318 -338 -70 -174 -349 0
-318 -338 -70 174 349 0
-318 -338 70 -174 349 0
-318 -338 70 174 -349 0
-318 -339 -64 -199 -343 0
-318 -339 -64 199 343 0
-318 -339 64 -199 343 0
-318 -339 64 199 -343 0
-318 -339 -65 -200 -344 0
-318 -339 -65 200 344 0
-318 -339 65 -200 344 0
-318 -339 65 200 -344 0
-318 -339 -66 -201 -345 0
-318 -339 -66 201 345 0
-318 -339 66 -201 345 0
-318 -339 66 201 -345 0
-318 -339 -67 -202 -346 0
-318 -339 -67 202 346 0
-318 -339 67 -202 346 0
-318 -339 67 202 -346 0
-318 -339 -68 -203 -347 0
-318 -339 -68 203 347 0
-318 -339 68 -203 347 0
-318 -339 68 203 -347 0
-318 -339 -69 -204 -348 0
-318 -339 -69 204 348 0
-318 -339 69 -204 348 0
-318 -339 69 204 -348 0
-318 -339 -70 -205 -349 0
-318 -339 -70 205 349 0
-318 -339 70 -205 349 0
-318 -339 70 205 -349 0
-318 -340 -64 -232 -343 0
-318 -340 -64 232 343 0
-318 -340 64 -232 343 0
-318 -340 64 232 -343 0
-318 -340 -65 -233 -344 0
-318 -340 -65 233 344 0
-318 -340 65 -233 344 0
-318 -340 65 233 -344 0
-318 -340 -66 -234 -345 0
-318 -340 -66 234 345 0
-318 -340 66 -234 345 0
-318 -340 66 234 -345 0
-318 -340 -67 -235 -346 0
-318 -340 -67 235 346 0
-318 -340 67 -235 346 0
-318 -340 67 235 -346 0
-318 -340 -68 -236 -347 0
-318 -340 -68 236 347 0
-318 -340 68 -236 347 0
-318 -340 68 236 -347 0
-318 -340 -69 -237 -348 0
-318 -340 -69 237 348 0
-318 -340 69 -237 348 0
-318 -340 69 237 -348 0
-318 -340 -70 -238 -349 0
-318 -340 -70 238 349 0
-318 -340 70 -238 349 0
-318 -340 70 238 -349 0
-318 -341 -64 -267 -343 0
-318 -341 -64 267 343 0
-318 -341 64 -267 343 0
-318 -341 64 267 -343 0
-318 -341 -65 -268 -344 0
-318 -341 -65 268 344 0
-318 -341 65 -268 344 0
-318 -341 65 268 -344 0
-318 -341 -66 -269 -345 0
-318 -341 -66 269 345 0
-318 -341 66 -269 345 0
-318 -341 66 269 -345 0
-318 -341 -67 -270 -346 0
-318 -341 -67 270 346 0
-318 -341 67 -270 346 0
-318 -341 67 270 -346 0
-318 -341 -68 -271 -347 0
-318 -341 -68 271 347 0
-318 -341 68 -271 347 0
-318 -341 68 271 -347 0
-318 -341 -69 -272 -348 0
-318 -341 -69 272 348 0
-318 -341 69 -272 348 0
-318 -341 69 272 -348 0
-318 -341 -70 -273 -349 0
-318 -341 -70 273 349 0
-318 -341 70 -273 349 0
-318 -341 70 273 -349 0
-318 -342 -64 -304 -343 0
-318 -342 -64 304 343 0
-318 -342 64 -304 343 0
-318 -342 64 304 -343 0
-318 -342 -65 -305 -344 0
-318 -342 -65 305 344 0
-318 -342 65 -305 344 0
-318 -342 65 305 -344 0
-318 -342 -66 -306 -345 0
-318 -342 -66 306 345 0
-318 -342 66 -306 345 0
-318 -342 66 306 -345 0
-318 -342 -67 -307 -346 0
-318 -342 -67 307 346 0
-318 -342 67 -307 346 0
-318 -342 67 307 -346 0
-318 -342 -68 -308 -347 0
-318 -342 -68 308 347 0
-318 -342 68 -308 347 0
-318 -342 68 308 -347 0
-318 -342 -69 -309 -348 0
-318 -342 -69 309 348 0
-318 -342 69 -309 348 0
-318 -342 69 309 -348 0
-318 -342 -70 -310 -349 0
-318 -342 -70 310 349 0
-318 -342 70 -310 349 0
-318 -342 70 310 -349 0
-319 -336 -87 -112 -343 0
-319 -336 -87 112 343 0
-319 -336 87 -112 343 0
-319 -336 87 112 -343 0
-319 -336 -88 -113 -344 0
-319 -336 -88 113 344 0
-319 -336 88 -113 344 0
-319 -336 88 113 -344 0
-319 -336 -89 -114 -345 0
-319 -336 -89 114 345 0
-319 -336 89 -114 345 0
-319 -336 89 114 -345 0
-319 -336 -90 -115 -346 0
-319 -336 -90 115 346 0
-319 -336 90 -115 346 0
-319 -336 90 115 -346 0
-319 -336 -91 -116 -347 0
-319 -336 -91 116 347 0
-319 -336 91 -116 347 0
-319 -336 91 116 -347 0
-319 -336 -92 -117 -348 0
-319 -336 -92 117 348 0
-319 -336 92 -117 348 0
-319 -336 92 117 -348 0
-319 -336 -93 -118 -349 0
-319 -336 -93 118 349 0
-319 -336 93 -118 349 0
-319 -336 93 118 -349 0
-319 -337 -87 -139 -343 0
-319 -337 -87 139 343 0
-319 -337 87 -139 343 0
-319 -337 87 139 -343 0
-319 -337 -88 -140 -344 0
-319 -337 -88 140 344 0
-319 -337 88 -140 344 0
-319 -337 88 140 -344 0
-319 -337 -89 -141 -345 0
-319 -337 -89 141 345 0
-319 -337 89 -141 345 0
-319 -337 89 141 -345 0
-319 -337 -90 -142 -346 0
-319 -337 -90 142 346 0
-319 -337 90 -142 346 0
-319 -337 90 142 -346 0
-319 -337 -91 -143 -347 0
-319 -337 -91 143 347 0
-319 -337 91 -143 347 0
-319 -337 91 143 -347 0
-319 -337 -92 -144 -348 0
-319 -337 -92 144 348 0
-319 -337 92 -144 348 0
-319 -337 92 144 -348 0
-319 -337 -93 -145 -349 0
-319 -337 -93 145 349 0
-319 -337 93 -145 349 0
-319 -337 93 145 -349 0
-319 -338 -87 -168 -343 0
-319 -338 -87 168 343 0
-319 -338 87 -168 343 0
-319 -338 87 168 -343 0
-319 -338 -88 -169 -344 0
-319 -338 -88 169 344 0
-319 -338 88 -169 344 0
-319 -338 88 169 -344 0
-319 -338 -89 -170 -345 0
-319 -338 -89 170 345 0
-319 -338 89 -170 345 0
-319 -338 89 170 -345 0
-319 -338 -90 -171 -346 0
-319 -338 -90 171 346 0
-319 -338 90 -171 346 0
-319 -338 90 171 -346 0
-319 -338 -91 -172 -347 0
-319 -338 -91 172 347 0
-319 -338 91 -172 347 0
-319 -338 91 172 -347 0
-319 -338 -92 -173 -348 0
-319 -338 -92 173 348 0
-319 -338 92 -173 348 0
-319 -338 92 173 -348 0
-319 -338 -93 -174 -349 0
-319 -338 -93 174 349 0
-319 -338 93 -174 349 0
-319 -338 93 174 -349 0
-319 -339 -87 -199 -343 0
-319 -339 -87 199 343 0
-319 -339 87 -199 343 0
-319 -339 87 199 -343 0
-319 -339 -88 -200 -344 0
-319 -339 -88 200 344 0
-319 -339 88 -200 344 0
-319 -339 88 200 -344 0
-319 -339 -89 -201 -345 0
-319 -339 -89 201 345 0
-319 -339 89 -201 345 0
-319 -339 89 201 -345 0
-319 -339 -90 -202 -346 0
-319 -339 -90 202 346 0
-319 -339 90 -202 346 0
-319 -339 90 202 -346 0
-319 -339 -91 -203 -347 0
-319 -339 -91 203 347 0
-319 -339 91 -203 347 0
-319 -339 91 203 -347 0
-319 -339 -92 -204 -348 0
-319 -339 -92 204 348 0
-319 -339 92 -204 348 0
-319 -339 92 204 -348 0
-319 -339 -93 -205 -349 0
-319 -339 -93 205 349 0
-319 -339 93 -205 349 0
-319 -339 93 205 -349 0
-319 -340 -87 -232 -343 0
-319 -340 -87 232 343 0
-319 -340 87 -232 343 0
-319 -340 87 232 -343 0
-319 -340 -88 -233 -344 0
-319 -340 -88 233 344 0
-319 -340 88 -233 344 0
-319 -340 88 233 -344 0
-319 -340 -89 -234 -345 0
-319 -340 -89 234 345 0
-319 -340 89 -234 345 0
-319 -340 89 234 -345 0
-319 -340 -90 -235 -346 0
-319 -340 -90 235 346 0
-319 -340 90 -235 346 0
-319 -340 90 235 -346 0
-319 -340 -91 -236 -347 0
-319 -340 -91 236 347 0
-319 -340 91 -236 347 0
-319 -340 91 236 -347 0
-319 -340 -92 -237 -348 0
-319 -340 -92 237 348 0
-319 -340 92 -237 348 0
-319 -340 92 237 -348 0
-319 -340 -93 -238 -349 0
-319 -340 -93 238 349 0
-319 -340 93 -238 349 0
-319 -340 93 238 -349 0
-319 -341 -87 -267 -343 0
-319 -341 -87 267 343 0
-319 -341 87 -267 343 0
-319 -341 87 267 -343 0
-319 -341 -88 -268 -344 0
-319 -341 -88 268 344 0
-319 -341 88 -268 344 0
-319 -341 88 268 -344 0
-319 -341 -89 -269 -345 0
-319 -341 -89 269 345 0
-319 -341 89 -269 345 0
-319 -341 89 269 -345 0
-319 -341 -90 -270 -346 0
-319 -341 -90 270 346 0
-319 -341 90 -270 346 0
-319 -341 90 270 -346 0
-319 -341 -91 -271 -347 0
-319 -341 -91 271 347 0
-319 -341 91 -271 347 0
-319 -341 91 271 -347 0
-319 -341 -92 -272 -348 0
-319 -341 -92 272 348 0
-319 -341 92 -272 348 0
-319 -341 92 272 -348 0
-319 -341 -93 -273 -349 0
-319 -341 -93 273 349 0
-319 -341 93 -273 349 0
-319 -341 93 273 -349 0
-319 -342 -87 -304 -343 0
-319 -342 -87 304 343 0
-319 -342 87 -304 343 0
-319 -342 87 304 -343 0
-319 -342 -88 -305 -344 0
-319 -342 -88 305 344 0
-319 -342 88 -305 344 0
-319 -342 88 305 -344 0
-319 -342 -89 -306 -345 0
-319 -342 -89 306 345 0
-319 -342 89 -306 345 0
-319 -342 89 306 -345 0
-319 -342 -90 -307 -346 0
-319 -342 -90 307 346 0
-319 -342 90 -307 346 0
-319 -342 90 307 -346 0
-319 -342 -91 -308 -347 0
-319 -342 -91 308 347 0
-319 -342 91 -308 347 0
-319 -342 91 308 -347 0
-319 -342 -92 -309 -348 0
-319 -342 -92 309 348 0
-319 -342 92 -309 348 0
-319 -342 92 309 -348 0
-319 -342 -93 -310 -349 0
-319 -342 -93 310 349 0
-319 -342 93 -310 349 0
-319 -342 93 310 -349 0
-320 -337 -112 -139 -343 0
-320 -337 -112 139 343 0
-320 -337 112 -139 343 0
-320 -337 112 139 -343 0
-320 -337 -113 -140 -344 0
-320 -337 -113 140 344 0
-320 -337 113 -140 344 0
-320 -337 113 140 -344 0
-320 -337 -114 -141 -345 0
-320 -337 -114 141 345 0
-320 -337 114 -141 345 0
-320 -337 114 141 -345 0
-320 -337 -115 -142 -346 0
-320 -337 -115 142 346 0
-320 -337 115 -142 346 0
-320 -337 115 142 -346 0
-320 -337 -116 -143 -347 0
-320 -337 -116 143 347 0
-320 -337 116 -143 347 0
-320 -337 116 143 -347 0
-320 -337 -117 -144 -348 0
-320 -337 -117 144 348 0
-320 -337 117 -144 348 0
-320 -337 117 144 -348 0
-320 -337 -118 -145 -349 0
-320 -337 -118 145 349 0
-320 -337 118 -145 349 0
-320 -337 118 145 -349 0
-320 -338 -112 -168 -343 0
-320 -338 -112 168 343 0
-320 -338 112 -168 343 0
-320 -338 112 168 -343 0
-320 -338 -113 -169 -344 0
-320 -338 -113 169 344 0
-320 -338 113 -169 344 0
-320 -338 113 169 -344 0
-320 -338 -114 -170 -345 0
-320 -338 -114 170 345 0
-320 -338 114 -170 345 0
-320 -338 114 170 -345 0
-320 -338 -115 -171 -346 0
-320 -338 -115 171 346 0
-320 -338 115 -171 346 0
-320 -338 115 171 -346 0
-320 -338 -116 -172 -347 0
-320 -338 -116 172 347 0
-320 -338 116 -172 347 0
-320 -338 116 172 -347 0
-320 -338 -117 -173 -348 0
-320 -338 -117 173 348 0
-320 -338 117 -173 348 0
-320 -338 117 173 -348 0
-320 -338 -118 -174 -349 0
-320 -338 -118 174 349 0
-320 -338 118 -174 349 0
-320 -338 118 174 -349 0
-320 -339 -112 -199 -343 0
-320 -339 -112 199 343 0
-320 -339 112 -199 343 0
-320 -339 112 199 -343 0
-320 -339 -113 -200 -344 0
-320 -339 -113 200 344 0
-320 -339 113 -200 344 0
-320 -339 113 200 -344 0
-320 -339 -114 -201 -345 0
-320 -339 -114 201 345 0
-320 -339 114 -201 345 0
-320 -339 114 201 -345 0
-320 -339 -115 -202 -346 0
-320 -339 -115 202 346 0
-320 -339 115 -202 346 0
-320 -339 115 202 -346 0
-320 -339 -116 -203 -347 0
-320 -339 -116 203 347 0
-320 -339 116 -203 347 0
-320 -339 116 203 -347 0
-320 -339 -117 -204 -348 0
-320 -339 -117 204 348 0
-320 -339 117 -204 348 0
-320 -339 117 204 -348 0
-320 -339 -118 -205 -349 0
-320 -339 -118 205 349 0
-320 -339 118 -205 349 0
-320 -339 118 205 -349 0
-320 -340 -112 -232 -343 0
-320 -340 -112 232 343 0
-320 -340 112 -232 343 0
-320 -340 112 232 -343 0
-320 -340 -113 -233 -344 0
-320 -340 -113 233 344 0
-320 -340 113 -233 344 0
-320 -340 113 233 -344 0
-320 -340 -114 -234 -345 0
-320 -340 -114 234 345 0
-320 -340 114 -234 345 0
-320 -340 114 234 -345 0
-320 -340 -115 -235 -346 0
-320 -340 -115 235 346 0
-320 -340 115 -235 346 0
-320 -340 115 235 -346 0
-320 -340 -116 -236 -347 0
-320 -340 -116 236 347 0
-320 -340 116 -236 347 0
-320 -340 116 236 -347 0
-320 -340 -117 -237 -348 0
-320 -340 -117 237 348 0
-320 -340 117 -237 348 0
-320 -340 117 237 -348 0
-320 -340 -118 -238 -349 0
-320 -340 -118 238 349 0
-320 -340 118 -238 349 0
-320 -340 118 238 -349 0
-320 -341 -112 -267 -343 0
-320 -341 -112 267 343 0
-320 -341 112 -267 343 0
-320 -341 112 267 -343 0
-320 -341 -113 -268 -344 0
-320 -341 -113 268 344 0
-320 -341 113 -268 344 0
-320 -341 113 268 -344 0
-320 -341 -114 -269 -345 0
-320 -341 -114 269 345 0
-320 -341 114 -269 345 0
-320 -341 114 269 -345 0
-320 -341 -115 -270 -346 0
-320 -341 -115 270 346 0
-320 -341 115 -270 346 0
-320 -341 115 270 -346 0
-320 -341 -116 -271 -347 0
-320 -341 -116 271 347 0
-320 -341 116 -271 347 0
-320 -341 116 271 -347 0
-320 -341 -117 -272 -348 0
-320 -341 -117 272 348 0
-320 -341 117 -272 348 0
-320 -341 117 272 -348 0
-320 -341 -118 -273 -349 0
-320 -341 -118 273 349 0
-320 -341 118 -273 349 0
-320 -341 118 273 -349 0
-320 -342 -112 -304 -343 0
-320 -342 -112 304 343 0
-320 -342 112 -304 343 0
-320 -342 112 304 -343 0
-320 -342 -113 -305 -344 0
-320 -342 -113 305 344 0
-320 -342 113 -305 344 0
-320 -342 113 305 -344 0
-320 -342 -114 -306 -345 0
-320 -342 -114 306 345 0
-320 -342 114 -306 345 0
-320 -342 114 306 -345 0
-320 -342 -115 -307 -346 0
-320 -342 -115 307 346 0
-320 -342 115 -307 346 0
-320 -342 115 307 -346 0
-320 -342 -116 -308 -347 0
-320 -342 -116 308 347 0
-320 -342 116 -308 347 0
-320 -342 116 308 -347 0
-320 -342 -117 -309 -348 0
-320 -342 -117 309 348 0
-320 -342 117 -309 348 0
-320 -342 117 309 -348 0
-320 -342 -118 -310 -349 0
-320 -342 -118 310 349 0
-320 -342 118 -310 349 0
-320 -342 118 310 -349 0
-321 -338 -139 -168 -343 0
-321 -338 -139 168 343 0
-321 -338 139 -168 343 0
-321 -338 139 168 -343 0
-321 -338 -140 -169 -344 0
-321 -338 -140 169 344 0
-321 -338 140 -169 344 0
-321 -338 140 169 -344 0
-321 -338 -141 -170 -345 0
-321 -338 -141 170 345 0
-321 -338 141 -170 345 0
-321 -338 141 170 -345 0
-321 -338 -142 -171 -346 0
-321 -338 -142 171 346 0
-321 -338 142 -171 346 0
-321 -338 142 171 -346 0
-321 -338 -143 -172 -347 0
-321 -338 -143 172 347 0
-321 -338 143 -172 347 0
-321 -338 143 172 -347 0
-321 -338 -144 -173 -348 0
-321 -338 -144 173 348 0
-321 -338 144 -173 348 0
-321 -338 144 173 -348 0
-321 -338 -145 -174 -349 0
-321 -338 -145 174 349 0
-321 -338 145 -174 349 0
-321 -338 145 174 -349 0
-321 -339 -139 -199 -343 0
-321 -339 -139 199 343 0
-321 -339 139 -199 343 0
-321 -339 139 199 -343 0
-321 -339 -140 -200 -344 0
-321 -339 -140 200 344 0
-321 -339 140 -200 344 0
-321 -339 140 200 -344 0
-321 -339 -141 -201 -345 0
-321 -339 -141 201 345 0
-321 -339 141 -201 345 0
-321 -339 141 201 -345 0
-321 -339 -142 -202 -346 0
-321 -339 -142 202 346 0
-321 -339 142 -202 346 0
-321 -339 142 202 -346 0
-321 -339 -143 -203 -347 0
-321 -339 -143 203 347 0
-321 -339 143 -203 347 0
-321 -339 143 203 -347 0
-321 -339 -144 -204 -348 0
-321 -339 -144 204 348 0
-321 -339 144 -204 348 0
-321 -339 144 204 -348 0
-321 -339 -145 -205 -349 0
-321 -339 -145 205 349 0
-321 -339 145 -205 349 0
-321 -339 145 205 -349 0
-321 -340 -139 -232 -343 0
-321 -340 -139 232 343 0
-321 -340 139 -232 343 0
-321 -340 139 232 -343 0
-321 -340 -140 -233 -344 0
-321 -340 -140 233 344 0
-321 -340 140 -233 344 0
-321 -340 140 233 -344 0
-321 -340 -141 -234 -345 0
-321 -340 -141 234 345 0
-321 -340 141 -234 345 0
-321 -340 141 234 -345 0
-321 -340 -142 -235 -346 0
-321 -340 -142 235 346 0
-321 -340 142 -235 346 0
-321 -340 142 235 -346 0
-321 -340 -143 -236 -347 0
-321 -340 -143 236 347 0
-321 -340 143 -236 347 0
-321 -340 143 236 -347 0
-321 -340 -144 -237 -348 0
-321 -340 -144 237 348 0
-321 -340 144 -237 348 0
-321 -340 144 237 -348 0
-321 -340 -145 -238 -349 0
-321 -340 -145 238 349 0
-321 -340 145 -238 349 0
-321 -340 145 238 -349 0
-321 -341 -139 -267 -343 0
-321 -341 -139 267 343 0
-321 -341 139 -267 343 0
-321 -341 139 267 -343 0
-321 -341 -140 -268 -344 0
-321 -341 -140 268 344 0
-321 -341 140 -268 344 0
-321 -341 140 268 -344 0
-321 -341 -141 -269 -345 0
-321 -341 -141 269 345 0
-321 -341 141 -269 345 0
-321 -341 141 269 -345 0
-321 -341 -142 -270 -346 0
-321 -341 -142 270 346 0
-321 -341 142 -270 346 0
-321 -341 142 270 -346 0
-321 -341 -143 -271 -347 0
-321 -341 -143 271 347 0
-321 -341 143 -271 347 0
-321 -341 143 271 -347 0
-321 -341 -144 -272 -348 0
-321 -341 -144 272 348 0
-321 -341 144 -272 348 0
-321 -341 144 272 -348 0
-321 -341 -145 -273 -349 0
-321 -341 -145 273 349 0
-321 -341 145 -273 349 0
-321 -341 145 273 -349 0
-321 -342 -139 -304 -343 0
-321 -342 -139 304 343 0
-321 -342 139 -304 343 0
-321 -342 139 304 -343 0
-321 -342 -140 -305 -344 0
-321 -342 -140 305 344 0
-321 -342 140 -305 344 0
-321 -342 140 305 -344 0
-321 -342 -141 -306 -345 0
-321 -342 -141 306 345 0
-321 -342 141 -306 345 0
-321 -342 141 306 -345 0
-321 -342 -142 -307 -346 0
-321 -342 -142 307 346 0
-321 -342 142 -307 346 0
-321 -342 142 307 -346 0
-321 -342 -143 -308 -347 0
-321 -342 -143 308 347 0
-321 -342 143 -308 347 0
-321 -342 143 308 -347 0
-321 -342 -144 -309 -348 0
-321 -342 -144 309 348 0
-321 -342 144 -309 348 0
-321 -342 144 309 -348 0
-321 -342 -145 -310 -349 0
-321 -342 -145 310 349 0
-321 -342 145 -310 349 0
-321 -342 145 310 -349 0
-322 -339 -168 -199 -343 0
-322 -339 -168 199 343 0
-322 -339 168 -199 343 0
-322 -339 168 199 -343 0
-322 -339 -169 -200 -344 0
-322 -339 -169 200 344 0
-322 -339 169 -200 344 0
-322 -339 169 200 -344 0
-322 -339 -170 -201 -345 0
-322 -339 -170 201 345 0
-322 -339 170 -201 345 0
-322 -339 170 201 -345 0
-322 -339 -171 -202 -346 0
-322 -339 -171 202 346 0
-322 -339 171 -202 346 0
-322 -339 171 202 -346 0
-322 -339 -172 -203 -347 0
-322 -339 -172 203 347 0
-322 -339 172 -203 347 0
-322 -339 172 203 -347 0
-322 -339 -173 -204 -348 0
-322 -339 -173 204 348 0
-322 -339 173 -204 348 0
-322 -339 173 204 -348 0
-322 -339 -174 -205 -349 0
-322 -339 -174 205 349 0
-322 -339 174 -205 349 0
-322 -339 174 205 -349 0
-322 -340 -168 -232 -343 0
-322 -340 -168 232 343 0
-322 -340 168 -232 343 0
-322 -340 168 232 -343 0
-322 -340 -169 -233 -344 0
-322 -340 -169 233 344 0
-322 -340 169 -233 344 0
-322 -340 169 233 -344 0
-322 -340 -170 -234 -345 0
-322 -340 -170 234 345 0
-322 -340 170 -234 345 0
-322 -340 170 234 -345 0
-322 -340 -171 -235 -346 0
-322 -340 -171 235 346 0
-322 -340 171 -235 346 0
-322 -340 171 235 -346 0
-322 -340 -172 -236 -347 0
-322 -340 -172 236 347 0
-322 -340 172 -236 347 0
-322 -340 172 236 -347 0
-322 -340 -173 -237 -348 0
-322 -340 -173 237 348 0
-322 -340 173 -237 348 0
-322 -340 173 237 -348 0
-322 -340 -174 -238 -349 0
-322 -340 -174 238 349 0
-322 -340 174 -238 349 0
-322 -340 174 238 -349 0
-322 -341 -168 -267 -343 0
-322 -341 -168 267 343 0
-322 -341 168 -267 343 0
-322 -341 168 267 -343 0
-322 -341 -169 -268 -344 0
-322 -341 -169 268 344 0
-322 -341 169 -268 344 0
-322 -341 169 268 -344 0
-322 -341 -170 -269 -345 0
-322 -341 -170 269 345 0
-322 -341 170 -269 345 0
-322 -341 170 269 -345 0
-322 -341 -171 -270 -346 0
-322 -341 -171 270 346 0
-322 -341 171 -270 346 0
-322 -341 171 270 -346 0
-322 -341 -172 -271 -347 0
-322 -341 -172 271 347 0
-322 -341 172 -271 347 0
-322 -341 172 271 -347 0
-322 -341 -173 -272 -348 0
-322 -341 -173 272 348 0
-322 -341 173 -272 348 0
-322 -341 173 272 -348 0
-322 -341 -174 -273 -349 0
-322 -341 -174 273 349 0
-322 -341 174 -273 349 0
-322 -341 174 273 -349 0
-322 -342 -168 -304 -343 0
-322 -342 -168 304 343 0
-322 -342 168 -304 343 0
-322 -342 168 304 -343 0
-322 -342 -169 -305 -344 0
-322 -342 -169 305 344 0
-322 -342 169 -305 344 0
-322 -342 169 305 -344 0
-322 -342 -170 -306 -345 0
-322 -342 -170 306 345 0
-322 -342 170 -306 345 0
-322 -342 170 306 -345 0
-322 -342 -171 -307 -346 0
-322 -342 -171 307 346 0
-322 -342 171 -307 346 0
-322 -342 171 307 -346 0
-322 -342 -172 -308 -347 0
-322 -342 -172 308 347 0
-322 -342 172 -308 347 0
-322 -342 172 308 -347 0
-322 -342 -173 -309 -348 0
-322 -342 -173 309 348 0
-322 -342 173 -309 348 0
-322 -342 173 309 -348 0
-322 -342 -174 -310 -349 0
-322 -342 -174 310 349 0
-322 -342 174 -310 349 0
-322 -342 174 310 -349 0
-323 -340 -199 -232 -343 0
-323 -340 -199 232 343 0
-323 -340 199 -232 343 0
-323 -340 199 232 -343 0
-323 -340 -200 -233 -344 0
-323 -340 -200 233 344 0
-323 -340 200 -233 344 0
-323 -340 200 233 -344 0
-323 -340 -201 -234 -345 0
-323 -340 -201 234 345 0
-323 -340 201 -234 345 0
-323 -340 201 234 -345 0
-323 -340 -202 -235 -346 0
-323 -340 -202 235 346 0
-323 -340 202 -235 346 0
-323 -340 202 235 -346 0
-323 -340 -203 -236 -347 0
-323 -340 -203 236 347 0
-323 -340 203 -236 347 0
-323 -340 203 236 -347 0
-323 -340 -204 -237 -348 0
-323 -340 -204 237 348 0
-323 -340 204 -237 348 0
-323 -340 204 237 -348 0
-323 -340 -205 -238 -349 0
-323 -340 -205 238 349 0
-323 -340 205 -238 349 0
-323 -340 205 238 -349 0
-323 -341 -199 -267 -343 0
-323 -341 -199 267 343 0
-323 -341 199 -267 343 0
-323 -341 199 267 -343 0
-323 -341 -200 -268 -344 0
-323 -341 -200 268 344 0
-323 -341 200 -268 344 0
-323 -341 200 268 -344 0
-323 -341 -201 -269 -345 0
-323 -341 -201 269 345 0
-323 -341 201 -269 345 0
-323 -341 201 269 -345 0
-323 -341 -202 -270 -346 0
-323 -341 -202 270 346 0
-323 -341 202 -270 346 0
-323 -341 202 270 -346 0
-323 -341 -203 -271 -347 0
-323 -341 -203 271 347 0
-323 -341 203 -271 347 0
-323 -341 203 271 -347 0
-323 -341 -204 -272 -348 0
-323 -341 -204 272 348 0
-323 -341 204 -272 348 0
-323 -341 204 272 -348 0
-323 -341 -205 -273 -349 0
-323 -341 -205 273 349 0
-323 -341 205 -273 349 0
-323 -341 205 273 -349 0
-323 -342 -199 -304 -343 0
-323 -342 -199 304 343 0
-323 -342 199 -304 343 0
-323 -342 199 304 -343 0
-323 -342 -200 -305 -344 0
-323 -342 -200 305 344 0
-323 -342 200 -305 344 0
-323 -342 200 305 -344 0
-323 -342 -201 -306 -345 0
-323 -342 -201 306 345 0
-323 -342 201 -306 345 0
-323 -342 201 306 -345 0
-323 -342 -202 -307 -346 0
-323 -342 -202 307 346 0
-323 -342 202 -307 346 0
-323 -342 202 307 -346 0
-323 -342 -203 -308 -347 0
-323 -342 -203 308 347 0
-323 -342 203 -308 347 0
-323 -342 203 308 -347 0
-323 -342 -204 -309 -348 0
-323 -342 -204 309 348 0
-323 -342 204 -309 348 0
-323 -342 204 309 -348 0
-323 -342 -205 -310 -349 0
-323 -342 -205 310 349 0
-323 -342 205 -310 349 0
-323 -342 205 310 -349 0
-324 -341 -232 -267 -343 0
-324 -341 -232 267 343 0
-324 -341 232 -267 343 0
-324 -341 232 267 -343 0
-324 -341 -233 -268 -344 0
-324 -341 -233 268 344 0
-324 -341 233 -268 344 0
-324 -341 233 268 -344 0
-324 -341 -234 -269 -345 0
-324 -341 -234 269 345 0
-324 -341 234 -269 345 0
-324 -341 234 269 -345 0
-324 -341 -235 -270 -346 0
-324 -341 -235 270 346 0
-324 -341 235 -270 346 0
-324 -341 235 270 -346 0
-324 -341 -236 -271 -347 0
-324 -341 -236 271 347 0
-324 -341 236 -271 347 0
-324 -341 236 271 -347 0
-324 -341 -237 -272 -348 0
-324 -341 -237 272 348 0
-324 -341 237 -272 348 0
-324 -341 237 272 -348 0
-324 -341 -238 -273 -349 0
-324 -341 -238 273 349 0
-324 -341 238 -273 349 0
-324 -341 238 273 -349 0
-324 -342 -232 -304 -343 0
-324 -342 -232 304 343 0
-324 -342 232 -304 343 0
-324 -342 232 304 -343 0
-324 -342 -233 -305 -344 0
-324 -342 -233 305 344 0
-324 -342 233 -305 344 0
-324 -342 233 305 -344 0
-324 -342 -234 -306 -345 0
-324 -342 -234 306 345 0
-324 -342 234 -306 345 0
-324 -342 234 306 -345 0
-324 -342 -235 -307 -346 0
-324 -342 -235 307 346 0
-324 -342 235 -307 346 0
-324 -342 235 307 -346 0
-324 -342 -236 -308 -347 0
-324 -342 -236 308 347 0
-324 -342 236 -308 347 0
-324 -342 236 308 -347 0
-324 -342 -237 -309 -348 0
-324 -342 -237 309 348 0
-324 -342 237 -309 348 0
-324 -342 237 309 -348 0
-324 -342 -238 -310 -349 0
-324 -342 -238 310 349 0
-324 -342 238 -310 349 0
-324 -342 238 310 -349 0
-325 -342 -267 -304 -343 0
-325 -342 -267 304 343 0
-325 -342 267 -304 343 0
-325 -342 267 304 -343 0
-325 -342 -268 -305 -344 0
-325 -342 -268 305 344 0
-325 -342 268 -305 344 0
-325 -342 268 305 -344 0
-325 -342 -269 -306 -345 0
-325 -342 -269 306 345 0
-325 -342 269 -306 345 0
-325 -342 269 306 -345 0
-325 -342 -270 -307 -346 0
-325 -342 -270 307 346 0
-325 -342 270 -307 346 0
-325 -342 270 307 -346 0
-325 -342 -271 -308 -347 0
-325 -342 -271 308 347 0
-325 -342 271 -308 347 0
-325 -342 271 308 -347 0
-325 -342 -272 -309 -348 0
-325 -342 -272 309 348 0
-325 -342 272 -309 348 0
-325 -342 272 309 -348 0
-325 -342 -273 -310 -349 0
-325 -342 -273 310 349 0
-325 -342 273 -310 349 0
-325 -342 273 310 -349 0
343 344 345 346 347 348 349 0
-350 64 1 0
-350 -64 -1 0
350 -64 1 0
350 64 -1 0
-351 65 2 0
-351 -65 -2 0
351 -65 2 0
351 65 -2 0
-352 66 3 0
-352 -66 -3 0
352 -66 3 0
352 66 -3 0
-353 67 4 0
-353 -67 -4 0
353 -67 4 0
353 67 -4 0
-354 68 5 0
-354 -68 -5 0
354 -68 5 0
354 68 -5 0
-355 69 6 0
-355 -69 -6 0
355 -69 6 0
355 69 -6 0
-356 70 7 0
-356 -70 -7 0
356 -70 7 0
356 70 -7 0
350 351 352 353 354 355 356 0
-357 64 8 0
-357 -64 -8 0
357 -64 8 0
357 64 -8 0
-358 65 9 0
-358 -65 -9 0
358 -65 9 0
358 65 -9 0
-359 66 10 0
-359 -66 -10 0
359 -66 10 0
359 66 -10 0
-360 67 11 0
-360 -67 -11 0
360 -67 11 0
360 67 -11 0
-361 68 12 0
-361 -68 -12 0
361 -68 12 0
361 68 -12 0
-362 69 13 0
-362 -69 -13 0
362 -69 13 0
362 69 -13 0
-363 70 14 0
-363 -70 -14 0
363 -70 14 0
363 70 -14 0
357 358 359 360 361 362 363 0
-364 64 15 0
-364 -64 -15 0
364 -64 15 0
364 64 -15 0
-365 65 16 0
-365 -65 -16 0
365 -65 16 0
365 65 -16 0
-366 66 17 0
-366 -66 -17 0
366 -66 17 0
366 66 -17 0
-367 67 18 0
-367 -67 -18 0
367 -67 18 0
367 67 -18 0
-368 68 19 0
-368 -68 -19 0
368 -68 19 0
368 68 -19 0
-369 69 20 0
-369 -69 -20 0
369 -69 20 0
369 69 -20 0
-370 70 21 0
-370 -70 -21 0
370 -70 21 0
370 70 -21 0
364 365 366 367 368 369 370 0
-371 64 22 0
-371 -64 -22 0
371 -64 22 0
371 64 -22 0
-372 65 23 0
-372 -65 -23 0
372 -65 23 0
372 65 -23 0
-373 66 24 0
-373 -66 -24 0
373 -66 24 0
373 66 -24 0
-374 67 25 0
-374 -67 -25 0
374 -67 25 0
374 67 -25 0
-375 68 26 0
-375 -68 -26 0
375 -68 26 0
375 68 -26 0
-376 69 27 0
-376 -69 -27 0
376 -69 27 0
376 69 -27 0
-377 70 28 0
-377 -70 -28 0
377 -70 28 0
377 70 -28 0
371 372 373 374 375 376 377 0
-378 64 29 0
-378 -64 -29 0
378 -64 29 0
378 64 -29 0
-379 65 30 0
-379 -65 -30 0
379 -65 30 0
379 65 -30 0
-380 66 31 0
-380 -66 -31 0
380 -66 31 0
380 66 -31 0
-381 67 32 0
-381 -67 -32 0
381 -67 32 0
381 67 -32 0
-382 68 33 0
-382 -68 -33 0
382 -68 33 0
382 68 -33 0
-383 69 34 0
-383 -69 -34 0
383 -69 34 0
383 69 -34 0
-384 70 35 0
-384 -70 -35 0
384 -70 35 0
384 70 -35 0
378 379 380 381 382 383 384 0
-385 64 36 0
-385 -64 -36 0
385 -64 36 0
385 64 -36 0
-386 65 37 0
-386 -65 -37 0
386 -65 37 0
386 65 -37 0
-387 66 38 0
-387 -66 -38 0
387 -66 38 0
387 66 -38 0
-388 67 39 0
-388 -67 -39 0
388 -67 39 0
388 67 -39 0
-389 68 40 0
-389 -68 -40 0
389 -68 40 0
389 68 -40 0
-390 69 41 0
-390 -69 -41 0
390 -69 41 0
390 69 -41 0
-391 70 42 0
-391 -70 -42 0
391 -70 42 0
391 70 -42 0
385 386 387 388 389 390 391 0
-392 64 43 0
-392 -64 -43 0
392 -64 43 0
392 64 -43 0
-393 65 44 0
-393 -65 -44 0
393 -65 44 0
393 65 -44 0
-394 66 45 0
-394 -66 -45 0
394 -66 45 0
394 66 -45 0
-395 67 46 0
-395 -67 -46 0
395 -67 46 0
395 67 -46 0
-396 68 47 0
-396 -68 -47 0
396 -68 47 0
396 68 -47 0
-397 69 48 0
-397 -69 -48 0
397 -69 48 0
397 69 -48 0
-398 70 49 0
-398 -70 -49 0
398 -70 49 0
398 70 -49 0
392 393 394 395 396 397 398 0
-399 87 1 0
-399 -87 -1 0
399 -87 1 0
399 87 -1 0
-400 88 2 0
-400 -88 -2 0
400 -88 2 0
400 88 -2 0
-401 89 3 0
-401 -89 -3 0
401 -89 3 0
401 89 -3 0
-402 90 4 0
-402 -90 -4 0
402 -90 4 0
402 90 -4 0
-403 91 5 0
-403 -91 -5 0
403 -91 5 0
403 91 -5 0
-404 92 6 0
-404 -92 -6 0
404 -92 6 0
404 92 -6 0
-405 93 7 0
-405 -93 -7 0
405 -93 7 0
405 93 -7 0
399 400 401 402 403 404 405 0
-406 87 8 0
-406 -87 -8 0
406 -87 8 0
406 87 -8 0
-407 88 9 0
-407 -88 -9 0
407 -88 9 0
407 88 -9 0
-408 89 10 0
-408 -89 -10 0
408 -89 10 0
408 89 -10 0
-409 90 11 0
-409 -90 -11 0
409 -90 11 0
409 90 -11 0
-410 91 12 0
-410 -91 -12 0
410 -91 12 0
410 91 -12 0
-411 92 13 0
-411 -92 -13 0
411 -92 13 0
411 92 -13 0
-412 93 14 0
-412 -93 -14 0
412 -93 14 0
412 93 -14 0
406 407 408 409 410 411 412 0
-413 87 15 0
-413 -87 -15 0
413 -87 15 0
413 87 -15 0
-414 88 16 0
-414 -88 -16 0
414 -88 16 0
414 88 -16 0
-415 89 17 0
-415 -89 -17 0
415 -89 17 0
415 89 -17 0
-416 90 18 0
-416 -90 -18 0
416 -90 18 0
416 90 -18 0
-417 91 19 0
-417 -91 -19 0
417 -91 19 0
417 91 -19 0
-418 92 20 0
-418 -92 -20 0
418 -92 20 0
418 92 -20 0
-419 93 21 0
-419 -93 -21 0
419 -93 21 0
419 93 -21 0
413 414 415 416 417 418 419 0
-420 87 22 0
-420 -87 -22 0
420 -87 22 0
420 87 -22 0
-421 88 23 0
-421 -88 -23 0
421 -88 23 0
421 88 -23 0
-422 89 24 0
-422 -89 -24 0
422 -89 24 0
422 89 -24 0
-423 90 25 0
-423 -90 -25 0
423 -90 25 0
423 90 -25 0
-424 91 26 0
-424 -91 -26 0
424 -91 26 0
424 91 -26 0
-425 92 27 0
-425 -92 -27 0
425 -92 27 0
425 92 -27 0
-426 93 28 0
-426 -93 -28 0
426 -93 28 0
426 93 -28 0
420 421 422 423 424 425 426 0
-427 87 29 0
-427 -87 -29 0
427 -87 29 0
427 87 -29 0
-428 88 30 0
-428 -88 -30 0
428 -88 30 0
428 88 -30 0
-429 89 31 0
-429 -89 -31 0
429 -89 31 0
429 89 -31 0
-430 90 32 0
-430 -90 -32 0
430 -90 32 0
430 90 -32 0
-431 91 33 0
-431 -91 -33 0
431 -91 33 0
431 91 -33 0
-432 92 34 0
-432 -92 -34 0
432 -92 34 0
432 92 -34 0
-433 93 35 0
-433 -93 -35 0
433 -93 35 0
433 93 -35 0
427 428 429 430 431 432 433 0
-434 87 36 0
-434 -87 -36 0
434 -87 36 0
434 87 -36 0
-435 88 37 0
-435 -88 -37 0
435 -88 37 0
435 88 -37 0
-436 89 38 0
-436 -89 -38 0
436 -89 38 0
436 89 -38 0
-437 90 39 0
-437 -90 -39 0
437 -90 39 0
437 90 -39 0
-438 91 40 0
-438 -91 -40 0
438 -91 40 0
438 91 -40 0
-439 92 41 0
-439 -92 -41 0
439 -92 41 0
439 92 -41 0
-440 93 42 0
-440 -93 -42 0
440 -93 42 0
440 93 -42 0
434 435 436 437 438 439 440 0
-441 87 43 0
-441 -87 -43 0
441 -87 43 0
441 87 -43 0
-442 88 44 0
-442 -88 -44 0
442 -88 44 0
442 88 -44 0
-443 89 45 0
-443 -89 -45 0
443 -89 45 0
443 89 -45 0
-444 90 46 0
-444 -90 -46 0
444 -90 46 0
444 90 -46 0
-445 91 47 0
-445 -91 -47 0
445 -91 47 0
445 91 -47 0
-446 92 48 0
-446 -92 -48 0
446 -92 48 0
446 92 -48 0
-447 93 49 0
-447 -93 -49 0
447 -93 49 0
447 93 -49 0
441 442 443 444 445 446 447 0
-448 87 64 0
-448 -87 -64 0
448 -87 64 0
448 87 -64 0
-449 88 65 0
-449 -88 -65 0
449 -88 65 0
449 88 -65 0
-450 89 66 0
-450 -89 -66 0
450 -89 66 0
450 89 -66 0
-451 90 67 0
-451 -90 -67 0
451 -90 67 0
451 90 -67 0
-452 91 68 0
-452 -91 -68 0
452 -91 68 0
452 91 -68 0
-453 92 69 0
-453 -92 -69 0
453 -92 69 0
453 92 -69 0
-454 93 70 0
-454 -93 -70 0
454 -93 70 0
454 93 -70 0
448 449 450 451 452 453 454 0
-455 112 1 0
-455 -112 -1 0
455 -112 1 0
455 112 -1 0
-456 113 2 0
-456 -113 -2 0
456 -113 2 0
456 113 -2 0
-457 114 3 0
-457 -114 -3 0
457 -114 3 0
457 114 -3 0
-458 115 4 0
-458 -115 -4 0
458 -115 4 0
458 115 -4 0
-459 116 5 0
-459 -116 -5 0
459 -116 5 0
459 116 -5 0
-460 117 6 0
-460 -117 -6 0
460 -117 6 0
460 117 -6 0
-461 118 7 0
-461 -118 -7 0
461 -118 7 0
461 118 -7 0
455 456 457 458 459 460 461 0
-462 112 8 0
-462 -112 -8 0
462 -112 8 0
462 112 -8 0
-463 113 9 0
-463 -113 -9 0
463 -113 9 0
463 113 -9 0
-464 114 10 0
-464 -114 -10 0
464 -114 10 0
464 114 -10 0
-465 115 11 0
-465 -115 -11 0
465 -115 11 0
465 115 -11 0
-466 116 12 0
-466 -116 -12 0
466 -116 12 0
466 116 -12 0
-467 117 13 0
-467 -117 -13 0
467 -117 13 0
467 117 -13 0
-468 118 14 0
-468 -118 -14 0
468 -118 14 0
468 118 -14 0
462 463 464 465 466 467 468 0
-469 112 15 0
-469 -112 -15 0
469 -112 15 0
469 112 -15 0
-470 113 16 0
-470 -113 -16 0
470 -113 16 0
470 113 -16 0
-471 114 17 0
-471 -114 -17 0
471 -114 17 0
471 114 -17 0
-472 115 18 0
-472 -115 -18 0
472 -115 18 0
472 115 -18 0
-473 116 19 0
-473 -116 -19 0
473 -116 19 0
473 116 -19 0
-474 117 20 0
-474 -117 -20 0
474 -117 20 0
474 117 -20 0
-475 118 21 0
-475 -118 -21 0
475 -118 21 0
475 118 -21 0
469 470 471 472 473 474 475 0
-476 112 22 0
-476 -112 -22 0
476 -112 22 0
476 112 -22 0
-477 113 23 0
-477 -113 -23 0
477 -113 23 0
477 113 -23 0
-478 114 24 0
-478 -114 -24 0
478 -114 24 0
478 114 -24 0
-479 115 25 0
-479 -115 -25 0
479 -115 25 0
479 115 -25 0
-480 116 26 0
-480 -116 -26 0
480 -116 26 0
480 116 -26 0
-481 117 27 0
-481 -117 -27 0
481 -117 27 0
481 117 -27 0
-482 118 28 0
-482 -118 -28 0
482 -118 28 0
482 118 -28 0
476 477 478 479 480 481 482 0
-483 112 29 0
-483 -112 -29 0
483 -112 29 0
483 112 -29 0
-484 113 30 0
-484 -113 -30 0
484 -113 30 0
484 113 -30 0
-485 114 31 0
-485 -114 -31 0
485 -114 31 0
485 114 -31 0
-486 115 32 0
-486 -115 -32 0
486 -115 32 0
486 115 -32 0
-487 116 33 0
-487 -116 -33 0
487 -116 33 0
487 116 -33 0
-488 117 34 0
-488 -117 -34 0
488 -117 34 0
488 117 -34 0
-489 118 35 0
-489 -118 -35 0
489 -118 35 0
489 118 -35 0
483 484 485 486 487 488 489 0
-490 112 36 0
-490 -112 -36 0
490 -112 36 0
490 112 -36 0
-491 113 37 0
-491 -113 -37 0
491 -113 37 0
491 113 -37 0
-492 114 38 0
-492 -114 -38 0
492 -114 38 0
492 114 -38 0
-493 115 39 0
-493 -115 -39 0
493 -115 39 0
493 115 -39 0
-494 116 40 0
-494 -116 -40 0
494 -116 40 0
494 116 -40 0
-495 117 41 0
-495 -117 -41 0
495 -117 41 0
495 117 -41 0
-496 118 42 0
-496 -118 -42 0
496 -118 42 0
496 118 -42 0
490 491 492 493 494 495 496 0
-497 112 43 0
-497 -112 -43 0
497 -112 43 0
497 112 -43 0
-498 113 44 0
-498 -113 -44 0
498 -113 44 0
498 113 -44 0
-499 114 45 0
-499 -114 -45 0
499 -114 45 0
499 114 -45 0
-500 115 46 0
-500 -115 -46 0
500 -115 46 0
500 115 -46 0
-501 116 47 0
-501 -116 -47 0
501 -116 47 0
501 116 -47 0
-502 117 48 0
-502 -117 -48 0
502 -117 48 0
502 117 -48 0
-503 118 49 0
-503 -118 -49 0
503 -118 49 0
503 118 -49 0
497 498 499 500 501 502 503 0
-504 112 64 0
-504 -112 -64 0
504 -112 64 0
504 112 -64 0
-505 113 65 0
-505 -113 -65 0
505 -113 65 0
505 113 -65 0
-506 114 66 0
-506 -114 -66 0
506 -114 66 0
506 114 -66 0
-507 115 67 0
-507 -115 -67 0
507 -115 67 0
507 115 -67 0
-508 116 68 0
-508 -116 -68 0
508 -116 68 0
508 116 -68 0
-509 117 69 0
-509 -117 -69 0
509 -117 69 0
509 117 -69 0
-510 118 70 0
-510 -118 -70 0
510 -118 70 0
510 118 -70 0
504 505 506 507 508 509 510 0
-511 112 87 0
-511 -112 -87 0
511 -112 87 0
511 112 -87 0
-512 113 88 0
-512 -113 -88 0
512 -113 88 0
512 113 -88 0
-513 114 89 0
-513 -114 -89 0
513 -114 89 0
513 114 -89 0
-514 115 90 0
-514 -115 -90 0
514 -115 90 0
514 115 -90 0
-515 116 91 0
-515 -116 -91 0
515 -116 91 0
515 116 -91 0
-516 117 92 0
-516 -117 -92 0
516 -117 92 0
516 117 -92 0
-517 118 93 0
-517 -118 -93 0
517 -118 93 0
517 118 -93 0
511 512 513 514 515 516 517 0
-518 139 1 0
-518 -139 -1 0
518 -139 1 0
518 139 -1 0
-519 140 2 0
-519 -140 -2 0
519 -140 2 0
519 140 -2 0
-520 141 3 0
-520 -141 -3 0
520 -141 3 0
520 141 -3 0
-521 142 4 0
-521 -142 -4 0
521 -142 4 0
521 142 -4 0
-522 143 5 0
-522 -143 -5 0
522 -143 5 0
522 143 -5 0
-523 144 6 0
-523 -144 -6 0
523 -144 6 0
523 144 -6 0
-524 145 7 0
-524 -145 -7 0
524 -145 7 0
524 145 -7 0
518 519 520 521 522 523 524 0
-525 139 8 0
-525 -139 -8 0
525 -139 8 0
525 139 -8 0
-526 140 9 0
-526 -140 -9 0
526 -140 9 0
526 140 -9 0
-527 141 10 0
-527 -141 -10 0
527 -141 10 0
527 141 -10 0
-528 142 11 0
-528 -142 -11 0
528 -142 11 0
528 142 -11 0
-529 143 12 0
-529 -143 -12 0
529 -143 12 0
529 143 -12 0
-530 144 13 0
-530 -144 -13 0
530 -144 13 0
530 144 -13 0
-531 145 14 0
-531 -145 -14 0
531 -145 14 0
531 145 -14 0
525 526 527 528 529 530 531 0
-532 139 15 0
-532 -139 -15 0
532 -139 15 0
532 139 -15 0
-533 140 16 0
-533 -140 -16 0
533 -140 16 0
533 140 -16 0
-534 141 17 0
-534 -141 -17 0
534 -141 17 0
534 141 -17 0
-535 142 18 0
-535 -142 -18 0
535 -142 18 0
535 142 -18 0
-536 143 19 0
-536 -143 -19 0
536 -143 19 0
536 143 -19 0
-537 144 20 0
-537 -144 -20 0
537 -144 20 0
537 144 -20 0
-538 145 21 0
-538 -145 -21 0
538 -145 21 0
538 145 -21 0
532 533 534 535 536 537 538 0
-539 139 22 0
-539 -139 -22 0
539 -139 22 0
539 139 -22 0
-540 140 23 0
-540 -140 -23 0
540 -140 23 0
540 140 -23 0
-541 141 24 0
-541 -141 -24 0
541 -141 24 0
541 141 -24 0
-542 142 25 0
-542 -142 -25 0
542 -142 25 0
542 142 -25 0
-543 143 26 0
-543 -143 -26 0
543 -143 26 0
543 143 -26 0
-544 144 27 0
-544 -144 -27 0
544 -144 27 0
544 144 -27 0
-545 145 28 0
-545 -145 -28 0
545 -145 28 0
545 145 -28 0
539 540 541 542 543 544 545 0
-546 139 29 0
-546 -139 -29 0
546 -139 29 0
546 139 -29 0
-547 140 30 0
-547 -140 -30 0
547 -140 30 0
547 140 -30 0
-548 141 31 0
-548 -141 -31 0
548 -141 31 0
548 141 -31 0
-549 142 32 0
-549 -142 -32 0
549 -142 32 0
549 142 -32 0
-550 143 33 0
-550 -143 -33 0
550 -143 33 0
550 143 -33 0
-551 144 34 0
-551 -144 -34 0
551 -144 34 0
551 144 -34 0
-552 145 35 0
-552 -145 -35 0
552 -145 35 0
552 145 -35 0
546 547 548 549 550 551 552 0
-553 139 36 0
-553 -139 -36 0
553 -139 36 0
553 139 -36 0
-554 140 37 0
-554 -140 -37 0
554 -140 37 0
554 140 -37 0
-555 141 38 0
-555 -141 -38 0
555 -141 38 0
555 141 -38 0
-556 142 39 0
-556 -142 -39 0
556 -142 39 0
556 142 -39 0
-557 143 40 0
-557 -143 -40 0
557 -143 40 0
557 143 -40 0
-558 144 41 0
-558 -144 -41 0
558 -144 41 0
558 144 -41 0
-559 145 42 0
-559 -145 -42 0
559 -145 42 0
559 145 -42 0
553 554 555 556 557 558 559 0
-560 139 43 0
-560 -139 -43 0
560 -139 43 0
560 139 -43 0
-561 140 44 0
-561 -140 -44 0
561 -140 44 0
561 140 -44 0
-562 141 45 0
-562 -141 -45 0
562 -141 45 0
562 141 -45 0
-563 142 46 0
-563 -142 -46 0
563 -142 46 0
563 142 -46 0
-564 143 47 0
-564 -143 -47 0
564 -143 47 0
564 143 -47 0
-565 144 48 0
-565 -144 -48 0
565 -144 48 0
565 144 -48 0
-566 145 49 0
-566 -145 -49 0
566 -145 49 0
566 145 -49 0
560 561 562 563 564 565 566 0
-567 139 64 0
-567 -139 -64 0
567 -139 64 0
567 139 -64 0
-568 140 65 0
-568 -140 -65 0
568 -140 65 0
568 140 -65 0
-569 141 66 0
-569 -141 -66 0
569 -141 66 0
569 141 -66 0
-570 142 67 0
-570 -142 -67 0
570 -142 67 0
570 142 -67 0
-571 143 68 0
-571 -143 -68 0
571 -143 68 0
571 143 -68 0
-572 144 69 0
-572 -144 -69 0
572 -144 69 0
572 144 -69 0
-573 145 70 0
-573 -145 -70 0
573 -145 70 0
573 145 -70 0
567 568 569 570 571 572 573 0
-574 139 87 0
-574 -139 -87 0
574 -139 87 0
574 139 -87 0
-575 140 88 0
-575 -140 -88 0
575 -140 88 0
575 140 -88 0
-576 141 89 0
-576 -141 -89 0
576 -141 89 0
576 141 -89 0
-577 142 90 0
-577 -142 -90 0
577 -142 90 0
577 142 -90 0
-578 143 91 0
-578 -143 -91 0
578 -143 91 0
578 143 -91 0
-579 144 92 0
-579 -144 -92 0
579 -144 92 0
579 144 -92 0
-580 145 93 0
-580 -145 -93 0
580 -145 93 0
580 145 -93 0
574 575 576 577 578 579 580 0
-581 139 112 0
-581 -139 -112 0
581 -139 112 0
581 139 -112 0
-582 140 113 0
-582 -140 -113 0
582 -140 113 0
582 140 -113 0
-583 141 114 0
-583 -141 -114 0
583 -141 114 0
583 141 -114 0
-584 142 115 0
-584 -142 -115 0
584 -142 115 0
584 142 -115 0
-585 143 116 0
-585 -143 -116 0
585 -143 116 0
585 143 -116 0
-586 144 117 0
-586 -144 -117 0
586 -144 117 0
586 144 -117 0
-587 145 118 0
-587 -145 -118 0
587 -145 118 0
587 145 -118 0
581 582 583 584 585 586 587 0
-588 168 1 0
-588 -168 -1 0
588 -168 1 0
588 168 -1 0
-589 169 2 0
-589 -169 -2 0
589 -169 2 0
589 169 -2 0
-590 170 3 0
-590 -170 -3 0
590 -170 3 0
590 170 -3 0
-591 171 4 0
-591 -171 -4 0
591 -171 4 0
591 171 -4 0
-592 172 5 0
-592 -172 -5 0
592 -172 5 0
592 172 -5 0
-593 173 6 0
-593 -173 -6 0
593 -173 6 0
593 173 -6 0
-594 174 7 0
-594 -174 -7 0
594 -174 7 0
594 174 -7 0
588 589 590 591 592 593 594 0
-595 168 8 0
-595 -168 -8 0
595 -168 8 0
595 168 -8 0
-596 169 9 0
-596 -169 -9 0
596 -169 9 0
596 169 -9 0
-597 170 10 0
-597 -170 -10 0
597 -170 10 0
597 170 -10 0
-598 171 11 0
-598 -171 -11 0
598 -171 11 0
598 171 -11 0
-599 172 12 0
-599 -172 -12 0
599 -172 12 0
599 172 -12 0
-600 173 13 0
-600 -173 -13 0
600 -173 13 0
600 173 -13 0
-601 174 14 0
-601 -174 -14 0
601 -174 14 0
601 174 -14 0
595 596 597 598 599 600 601 0
-602 168 15 0
-602 -168 -15 0
602 -168 15 0
602 168 -15 0
-603 169 16 0
-603 -169 -16 0
603 -169 16 0
603 169 -16 0
-604 170 17 0
-604 -170 -17 0
604 -170 17 0
604 170 -17 0
-605 171 18 0
-605 -171 -18 0
605 -171 18 0
605 171 -18 0
-606 172 19 0
-606 -172 -19 0
606 -172 19 0
606 172 -19 0
-607 173 20 0
-607 -173 -20 0
607 -173 20 0
607 173 -20 0
-608 174 21 0
-608 -174 -21 0
608 -174 21 0
608 174 -21 0
602 603 604 605 606 607 608 0
-609 168 22 0
-609 -168 -22 0
609 -168 22 0
609 168 -22 0
-610 169 23 0
-610 -169 -23 0
610 -169 23 0
610 169 -23 0
-611 170 24 0
-611 -170 -24 0
611 -170 24 0
611 170 -24 0
-612 171 25 0
-612 -171 -25 0
612 -171 25 0
612 171 -25 0
-613 172 26 0
-613 -172 -26 0
613 -172 26 0
613 172 -26 0
-614 173 27 0
-614 -173 -27 0
614 -173 27 0
614 173 -27 0
-615 174 28 0
-615 -174 -28 0
615 -174 28 0
615 174 -28 0
609 610 611 612 613 614 615 0
-616 168 29 0
-616 -168 -29 0
616 -168 29 0
616 168 -29 0
-617 169 30 0
-617 -169 -30 0
617 -169 30 0
617 169 -30 0
-618 170 31 0
-618 -170 -31 0
618 -170 31 0
618 170 -31 0
-619 171 32 0
-619 -171 -32 0
619 -171 32 0
619 171 -32 0
-620 172 33 0
-620 -172 -33 0
620 -172 33 0
620 172 -33 0
-621 173 34 0
-621 -173 -34 0
621 -173 34 0
621 173 -34 0
-622 174 35 0
-622 -174 -35 0
622 -174 35 0
622 174 -35 0
616 617 618 619 620 621 622 0
-623 168 36 0
-623 -168 -36 0
623 -168 36 0
623 168 -36 0
-624 169 37 0
-624 -169 -37 0
624 -169 37 0
624 169 -37 0
-625 170 38 0
-625 -170 -38 0
625 -170 38 0
625 170 -38 0
-626 171 39 0
-626 -171 -39 0
626 -171 39 0
626 171 -39 0
-627 172 40 0
-627 -172 -40 0
627 -172 40 0
627 172 -40 0
-628 173 41 0
-628 -173 -41 0
628 -173 41 0
628 173 -41 0
-629 174 42 0
-629 -174 -42 0
629 -174 42 0
629 174 -42 0
623 624 625 626 627 628 629 0
-630 168 43 0
-630 -168 -43 0
630 -168 43 0
630 168 -43 0
-631 169 44 0
-631 -169 -44 0
631 -169 44 0
631 169 -44 0
-632 170 45 0
-632 -170 -45 0
632 -170 45 0
632 170 -45 0
-633 171 46 0
-633 -171 -46 0
633 -171 46 0
633 171 -46 0
-634 172 47 0
-634 -172 -47 0
634 -172 47 0
634 172 -47 0
-635 173 48 0
-635 -173 -48 0
635 -173 48 0
635 173 -48 0
-636 174 49 0
-636 -174 -49 0
636 -174 49 0
636 174 -49 0
630 631 632 633 634 635 636 0
-637 168 64 0
-637 -168 -64 0
637 -168 64 0
637 168 -64 0
-638 169 65 0
-638 -169 -65 0
638 -169 65 0
638 169 -65 0
-639 170 66 0
-639 -170 -66 0
639 -170 66 0
639 170 -66 0
-640 171 67 0
-640 -171 -67 0
640 -171 67 0
640 171 -67 0
-641 172 68 0
-641 -172 -68 0
641 -172 68 0
641 172 -68 0
-642 173 69 0
-642 -173 -69 0
642 -173 69 0
642 173 -69 0
-643 174 70 0
-643 -174 -70 0
643 -174 70 0
643 174 -70 0
637 638 639 640 641 642 643 0
-644 168 87 0
-644 -168 -87 0
644 -168 87 0
644 168 -87 0
-645 169 88 0
-645 -169 -88 0
645 -169 88 0
645 169 -88 0
-646 170 89 0
-646 -170 -89 0
646 -170 89 0
646 170 -89 0
-647 171 90 0
-647 -171 -90 0
647 -171 90 0
647 171 -90 0
-648 172 91 0
-648 -172 -91 0
648 -172 91 0
648 172 -91 0
-649 173 92 0
-649 -173 -92 0
649 -173 92 0
649 173 -92 0
-650 174 93 0
-650 -174 -93 0
650 -174 93 0
650 174 -93 0
644 645 646 647 648 649 650 0
-651 168 112 0
-651 -168 -112 0
651 -168 112 0
651 168 -112 0
-652 169 113 0
-652 -169 -113 0
652 -169 113 0
652 169 -113 0
-653 170 114 0
-653 -170 -114 0
653 -170 114 0
653 170 -114 0
-654 171 115 0
-654 -171 -115 0
654 -171 115 0
654 171 -115 0
-655 172 116 0
-655 -172 -116 0
655 -172 116 0
655 172 -116 0
-656 173 117 0
-656 -173 -117 0
656 -173 117 0
656 173 -117 0
-657 174 118 0
-657 -174 -118 0
657 -174 118 0
657 174 -118 0
651 652 653 654 655 656 657 0
-658 168 139 0
-658 -168 -139 0
658 -168 139 0
658 168 -139 0
-659 169 140 0
-659 -169 -140 0
659 -169 140 0
659 169 -140 0
-660 170 141 0
-660 -170 -141 0
660 -170 141 0
660 170 -141 0
-661 171 142 0
-661 -171 -142 0
661 -171 142 0
661 171 -142 0
-662 172 143 0
-662 -172 -143 0
662 -172 143 0
662 172 -143 0
-663 173 144 0
-663 -173 -144 0
663 -173 144 0
663 173 -144 0
-664 174 145 0
-664 -174 -145 0
664 -174 145 0
664 174 -145 0
658 659 660 661 662 663 664 0
-665 199 1 0
-665 -199 -1 0
665 -199 1 0
665 199 -1 0
-666 200 2 0
-666 -200 -2 0
666 -200 2 0
666 200 -2 0
-667 201 3 0
-667 -201 -3 0
667 -201 3 0
667 201 -3 0
-668 202 4 0
-668 -202 -4 0
668 -202 4 0
668 202 -4 0
-669 203 5 0
-669 -203 -5 0
669 -203 5 0
669 203 -5 0
-670 204 6 0
-670 -204 -6 0
670 -204 6 0
670 204 -6 0
-671 205 7 0
-671 -205 -7 0
671 -205 7 0
671 205 -7 0
665 666 667 668 669 670 671 0
-672 199 8 0
-672 -199 -8 0
672 -199 8 0
672 199 -8 0
-673 200 9 0
-673 -200 -9 0
673 -200 9 0
673 200 -9 0
-674 201 10 0
-674 -201 -10 0
674 -201 10 0
674 201 -10 0
-675 202 11 0
-675 -202 -11 0
675 -202 11 0
675 202 -11 0
-676 203 12 0
-676 -203 -12 0
676 -203 12 0
676 203 -12 0
-677 204 13 0
-677 -204 -13 0
677 -204 13 0
677 204 -13 0
-678 205 14 0
-678 -205 -14 0
678 -205 14 0
678 205 -14 0
672 673 674 675 676 677 678 0
-679 199 15 0
-679 -199 -15 0
679 -199 15 0
679 199 -15 0
-680 200 16 0
-680 -200 -16 0
680 -200 16 0
680 200 -16 0
-681 201 17 0
-681 -201 -17 0
681 -201 17 0
681 201 -17 0
-682 202 18 0
-682 -202 -18 0
682 -202 18 0
682 202 -18 0
-683 203 19 0
-683 -203 -19 0
683 -203 19 0
683 203 -19 0
-684 204 20 0
-684 -204 -20 0
684 -204 20 0
684 204 -20 0
-685 205 21 0
-685 -205 -21 0
685 -205 21 0
685 205 -21 0
679 680 681 682 683 684 685 0
-686 199 22 0
-686 -199 -22 0
686 -199 22 0
686 199 -22 0
-687 200 23 0
-687 -200 -23 0
687 -200 23 0
687 200 -23 0
-688 201 24 0
-688 -201 -24 0
688 -201 24 0
688 201 -24 0
-689 202 25 0
-689 -202 -25 0
689 -202 25 0
689 202 -25 0
-690 203 26 0
-690 -203 -26 0
690 -203 26 0
690 203 -26 0
-691 204 27 0
-691 -204 -27 0
691 -204 27 0
691 204 -27 0
-692 205 28 0
-692 -205 -28 0
692 -205 28 0
692 205 -28 0
686 687 688 689 690 691 692 0
-693 199 29 0
-693 -199 -29 0
693 -199 29 0
693 199 -29 0
-694 200 30 0
-694 -200 -30 0
694 -200 30 0
694 200 -30 0
-695 201 31 0
-695 -201 -31 0
695 -201 31 0
695 201 -31 0
-696 202 32 0
-696 -202 -32 0
696 -202 32 0
696 202 -32 0
-697 203 33 0
-697 -203 -33 0
697 -203 33 0
697 203 -33 0
-698 204 34 0
-698 -204 -34 0
698 -204 34 0
698 204 -34 0
-699 205 35 0
-699 -205 -35 0
699 -205 35 0
699 205 -35 0
693 694 695 696 697 698 699 0
-700 199 36 0
-700 -199 -36 0
700 -199 36 0
700 199 -36 0
-701 200 37 0
-701 -200 -37 0
701 -200 37 0
701 200 -37 0
-702 201 38 0
-702 -201 -38 0
702 -201 38 0
702 201 -38 0
-703 202 39 0
-703 -202 -39 0
703 -202 39 0
703 202 -39 0
-704 203 40 0
-704 -203 -40 0
704 -203 40 0
704 203 -40 0
-705 204 41 0
-705 -204 -41 0
705 -204 41 0
705 204 -41 0
-706 205 42 0
-706 -205 -42 0
706 -205 42 0
706 205 -42 0
700 701 702 703 704 705 706 0
-707 199 43 0
-707 -199 -43 0
707 -199 43 0
707 199 -43 0
-708 200 44 0
-708 -200 -44 0
708 -200 44 0
708 200 -44 0
-709 201 45 0
-709 -201 -45 0
709 -201 45 0
709 201 -45 0
-710 202 46 0
-710 -202 -46 0
710 -202 46 0
710 202 -46 0
-711 203 47 0
-711 -203 -47 0
711 -203 47 0
711 203 -47 0
-712 204 48 0
-712 -204 -48 0
712 -204 48 0
712 204 -48 0
-713 205 49 0
-713 -205 -49 0
713 -205 49 0
713 205 -49 0
707 708 709 710 711 712 713 0
-714 199 64 0
-714 -199 -64 0
714 -199 64 0
714 199 -64 0
-715 200 65 0
-715 -200 -65 0
715 -200 65 0
715 200 -65 0
-716 201 66 0
-716 -201 -66 0
716 -201 66 0
716 201 -66 0
-717 202 67 0
-717 -202 -67 0
717 -202 67 0
717 202 -67 0
-718 203 68 0
-718 -203 -68 0
718 -203 68 0
718 203 -68 0
-719 204 69 0
-719 -204 -69 0
719 -204 69 0
719 204 -69 0
-720 205 70 0
-720 -205 -70 0
720 -205 70 0
720 205 -70 0
714 715 716 717 718 719 720 0
-721 199 87 0
-721 -199 -87 0
721 -199 87 0
721 199 -87 0
-722 200 88 0
-722 -200 -88 0
722 -200 88 0
722 200 -88 0
-723 201 89 0
-723 -201 -89 0
723 -201 89 0
723 201 -89 0
-724 202 90 0
-724 -202 -90 0
724 -202 90 0
724 202 -90 0
-725 203 91 0
-725 -203 -91 0
725 -203 91 0
725 203 -91 0
-726 204 92 0
-726 -204 -92 0
726 -204 92 0
726 204 -92 0
-727 205 93 0
-727 -205 -93 0
727 -205 93 0
727 205 -93 0
721 722 723 724 725 726 727 0
-728 199 112 0
-728 -199 -112 0
728 -199 112 0
728 199 -112 0
-729 200 113 0
-729 -200 -113 0
729 -200 113 0
729 200 -113 0
-730 201 114 0
-730 -201 -114 0
730 -201 114 0
730 201 -114 0
-731 202 115 0
-731 -202 -115 0
731 -202 115 0
731 202 -115 0
-732 203 116 0
-732 -203 -116 0
732 -203 116 0
732 203 -116 0
-733 204 117 0
-733 -204 -117 0
733 -204 117 0
733 204 -117 0
-734 205 118 0
-734 -205 -118 0
734 -205 118 0
734 205 -118 0
728 729 730 731 732 733 734 0
-735 199 139 0
-735 -199 -139 0
735 -199 139 0
735 199 -139 0
-736 200 140 0
-736 -200 -140 0
736 -200 140 0
736 200 -140 0
-737 201 141 0
-737 -201 -141 0
737 -201 141 0
737 201 -141 0
-738 202 142 0
-738 -202 -142 0
738 -202 142 0
738 202 -142 0
-739 203 143 0
-739 -203 -143 0
739 -203 143 0
739 203 -143 0
-740 204 144 0
-740 -204 -144 0
740 -204 144 0
740 204 -144 0
-741 205 145 0
-741 -205 -145 0
741 -205 145 0
741 205 -145 0
735 736 737 738 739 740 741 0
-742 199 168 0
-742 -199 -168 0
742 -199 168 0
742 199 -168 0
-743 200 169 0
-743 -200 -169 0
743 -200 169 0
743 200 -169 0
-744 201 170 0
-744 -201 -170 0
744 -201 170 0
744 201 -170 0
-745 202 171 0
-745 -202 -171 0
745 -202 171 0
745 202 -171 0
-746 203 172 0
-746 -203 -172 0
746 -203 172 0
746 203 -172 0
-747 204 173 0
-747 -204 -173 0
747 -204 173 0
747 204 -173 0
-748 205 174 0
-748 -205 -174 0
748 -205 174 0
748 205 -174 0
742 743 744 745 746 747 748 0
-749 232 1 0
-749 -232 -1 0
749 -232 1 0
749 232 -1 0
-750 233 2 0
-750 -233 -2 0
750 -233 2 0
750 233 -2 0
-751 234 3 0
-751 -234 -3 0
751 -234 3 0
751 234 -3 0
-752 235 4 0
-752 -235 -4 0
752 -235 4 0
752 235 -4 0
-753 236 5 0
-753 -236 -5 0
753 -236 5 0
753 236 -5 0
-754 237 6 0
-754 -237 -6 0
754 -237 6 0
754 237 -6 0
-755 238 7 0
-755 -238 -7 0
755 -238 7 0
755 238 -7 0
749 750 751 752 753 754 755 0
-756 232 8 0
-756 -232 -8 0
756 -232 8 0
756 232 -8 0
-757 233 9 0
-757 -233 -9 0
757 -233 9 0
757 233 -9 0
-758 234 10 0
-758 -234 -10 0
758 -234 10 0
758 234 -10 0
-759 235 11 0
-759 -235 -11 0
759 -235 11 0
759 235 -11 0
-760 236 12 0
-760 -236 -12 0
760 -236 12 0
760 236 -12 0
-761 237 13 0
-761 -237 -13 0
761 -237 13 0
761 237 -13 0
-762 238 14 0
-762 -238 -14 0
762 -238 14 0
762 238 -14 0
756 757 758 759 760 761 762 0
-763 232 15 0
-763 -232 -15 0
763 -232 15 0
763 232 -15 0
-764 233 16 0
-764 -233 -16 0
764 -233 16 0
764 233 -16 0
-765 234 17 0
-765 -234 -17 0
765 -234 17 0
765 234 -17 0
-766 235 18 0
-766 -235 -18 0
766 -235 18 0
766 235 -18 0
-767 236 19 0
-767 -236 -19 0
767 -236 19 0
767 236 -19 0
-768 237 20 0
-768 -237 -20 0
768 -237 20 0
768 237 -20 0
-769 238 21 0
-769 -238 -21 0
769 -238 21 0
769 238 -21 0
763 764 765 766 767 768 769 0
-770 232 22 0
-770 -232 -22 0
770 -232 22 0
770 232 -22 0
-771 233 23 0
-771 -233 -23 0
771 -233 23 0
771 233 -23 0
-772 234 24 0
-772 -234 -24 0
772 -234 24 0
772 234 -24 0
-773 235 25 0
-773 -235 -25 0
773 -235 25 0
773 235 -25 0
-774 236 26 0
-774 -236 -26 0
774 -236 26 0
774 236 -26 0
-775 237 27 0
-775 -237 -27 0
775 -237 27 0
775 237 -27 0
-776 238 28 0
-776 -238 -28 0
776 -238 28 0
776 238 -28 0
770 771 772 773 774 775 776 0
-777 232 29 0
-777 -232 -29 0
777 -232 29 0
777 232 -29 0
-778 233 30 0
-778 -233 -30 0
778 -233 30 0
778 233 -30 0
-779 234 31 0
-779 -234 -31 0
779 -234 31 0
779 234 -31 0
-780 235 32 0
-780 -235 -32 0
780 -235 32 0
780 235 -32 0
-781 236 33 0
-781 -236 -33 0
781 -236 33 0
781 236 -33 0
-782 237 34 0
-782 -237 -34 0
782 -237 34 0
782 237 -34 0
-783 238 35 0
-783 -238 -35 0
783 -238 35 0
783 238 -35 0
777 778 779 780 781 782 783 0
-784 232 36 0
-784 -232 -36 0
784 -232 36 0
784 232 -36 0
-785 233 37 0
-785 -233 -37 0
785 -233 37 0
785 233 -37 0
-786 234 38 0
-786 -234 -38 0
786 -234 38 0
786 234 -38 0
-787 235 39 0
-787 -235 -39 0
787 -235 39 0
787 235 -39 0
-788 236 40 0
-788 -236 -40 0
788 -236 40 0
788 236 -40 0
-789 237 41 0
-789 -237 -41 0
789 -237 41 0
789 237 -41 0
-790 238 42 0
-790 -238 -42 0
790 -238 42 0
790 238 -42 0
784 785 786 787 788 789 790 0
-791 232 43 0
-791 -232 -43 0
791 -232 43 0
791 232 -43 0
-792 233 44 0
-792 -233 -44 0
792 -233 44 0
792 233 -44 0
-793 234 45 0
-793 -234 -45 0
793 -234 45 0
793 234 -45 0
-794 235 46 0
-794 -235 -46 0
794 -235 46 0
794 235 -46 0
-795 236 47 0
-795 -236 -47 0
795 -236 47 0
795 236 -47 0
-796 237 48 0
-796 -237 -48 0
796 -237 48 0
796 237 -48 0
-797 238 49 0
-797 -238 -49 0
797 -238 49 0
797 238 -49 0
791 792 793 794 795 796 797 0
-798 232 64 0
-798 -232 -64 0
798 -232 64 0
798 232 -64 0
-799 233 65 0
-799 -233 -65 0
799 -233 65 0
799 233 -65 0
-800 234 66 0
-800 -234 -66 0
800 -234 66 0
800 234 -66 0
-801 235 67 0
-801 -235 -67 0
801 -235 67 0
801 235 -67 0
-802 236 68 0
-802 -236 -68 0
802 -236 68 0
802 236 -68 0
-803 237 69 0
-803 -237 -69 0
803 -237 69 0
803 237 -69 0
-804 238 70 0
-804 -238 -70 0
804 -238 70 0
804 238 -70 0
798 799 800 801 802 803 804 0
-805 232 87 0
-805 -232 -87 0
805 -232 87 0
805 232 -87 0
-806 233 88 0
-806 -233 -88 0
806 -233 88 0
806 233 -88 0
-807 234 89 0
-807 -234 -89 0
807 -234 89 0
807 234 -89 0
-808 235 90 0
-808 -235 -90 0
808 -235 90 0
808 235 -90 0
-809 236 91 0
-809 -236 -91 0
809 -236 91 0
809 236 -91 0
-810 237 92 0
-810 -237 -92 0
810 -237 92 0
810 237 -92 0
-811 238 93 0
-811 -238 -93 0
811 -238 93 0
811 238 -93 0
805 806 807 808 809 810 811 0
-812 232 112 0
-812 -232 -112 0
812 -232 112 0
812 232 -112 0
-813 233 113 0
-813 -233 -113 0
813 -233 113 0
813 233 -113 0
-814 234 114 0
-814 -234 -114 0
814 -234 114 0
814 234 -114 0
-815 235 115 0
-815 -235 -115 0
815 -235 115 0
815 235 -115 0
-816 236 116 0
-816 -236 -116 0
816 -236 116 0
816 236 -116 0
-817 237 117 0
-817 -237 -117 0
817 -237 117 0
817 237 -117 0
-818 238 118 0
-818 -238 -118 0
818 -238 118 0
818 238 -118 0
812 813 814 815 816 817 818 0
-819 232 139 0
-819 -232 -139 0
819 -232 139 0
819 232 -139 0
-820 233 140 0
-820 -233 -140 0
820 -233 140 0
820 233 -140 0
-821 234 141 0
-821 -234 -141 0
821 -234 141 0
821 234 -141 0
-822 235 142 0
-822 -235 -142 0
822 -235 142 0
822 235 -142 0
-823 236 143 0
-823 -236 -143 0
823 -236 143 0
823 236 -143 0
-824 237 144 0
-824 -237 -144 0
824 -237 144 0
824 237 -144 0
-825 238 145 0
-825 -238 -145 0
825 -238 145 0
825 238 -145 0
819 820 821 822 823 824 825 0
-826 232 168 0
-826 -232 -168 0
826 -232 168 0
826 232 -168 0
-827 233 169 0
-827 -233 -169 0
827 -233 169 0
827 233 -169 0
-828 234 170 0
-828 -234 -170 0
828 -234 170 0
828 234 -170 0
-829 235 171 0
-829 -235 -171 0
829 -235 171 0
829 235 -171 0
-830 236 172 0
-830 -236 -172 0
830 -236 172 0
830 236 -172 0
-831 237 173 0
-831 -237 -173 0
831 -237 173 0
831 237 -173 0
-832 238 174 0
-832 -238 -174 0
832 -238 174 0
832 238 -174 0
826 827 828 829 830 831 832 0
-833 232 199 0
-833 -232 -199 0
833 -232 199 0
833 232 -199 0
-834 233 200 0
-834 -233 -200 0
834 -233 200 0
834 233 -200 0
-835 234 201 0
-835 -234 -201 0
835 -234 201 0
835 234 -201 0
-836 235 202 0
-836 -235 -202 0
836 -235 202 0
836 235 -202 0
-837 236 203 0
-837 -236 -203 0
837 -236 203 0
837 236 -203 0
-838 237 204 0
-838 -237 -204 0
838 -237 204 0
838 237 -204 0
-839 238 205 0
-839 -238 -205 0
839 -238 205 0
839 238 -205 0
833 834 835 836 837 838 839 0
-840 267 1 0
-840 -267 -1 0
840 -267 1 0
840 267 -1 0
-841 268 2 0
-841 -268 -2 0
841 -268 2 0
841 268 -2 0
-842 269 3 0
-842 -269 -3 0
842 -269 3 0
842 269 -3 0
-843 270 4 0
-843 -270 -4 0
843 -270 4 0
843 270 -4 0
-844 271 5 0
-844 -271 -5 0
844 -271 5 0
844 271 -5 0
-845 272 6 0
-845 -272 -6 0
845 -272 6 0
845 272 -6 0
-846 273 7 0
-846 -273 -7 0
846 -273 7 0
846 273 -7 0
840 841 842 843 844 845 846 0
-847 267 8 0
-847 -267 -8 0
847 -267 8 0
847 267 -8 0
-848 268 9 0
-848 -268 -9 0
848 -268 9 0
848 268 -9 0
-849 269 10 0
-849 -269 -10 0
849 -269 10 0
849 269 -10 0
-850 270 11 0
-850 -270 -11 0
850 -270 11 0
850 270 -11 0
-851 271 12 0
-851 -271 -12 0
851 -271 12 0
851 271 -12 0
-852 272 13 0
-852 -272 -13 0
852 -272 13 0
852 272 -13 0
-853 273 14 0
-853 -273 -14 0
853 -273 14 0
853 273 -14 0
847 848 849 850 851 852 853 0
-854 267 15 0
-854 -267 -15 0
854 -267 15 0
854 267 -15 0
-855 268 16 0
-855 -268 -16 0
855 -268 16 0
855 268 -16 0
-856 269 17 0
-856 -269 -17 0
856 -269 17 0
856 269 -17 0
-857 270 18 0
-857 -270 -18 0
857 -270 18 0
857 270 -18 0
-858 271 19 0
-858 -271 -19 0
858 -271 19 0
858 271 -19 0
-859 272 20 0
-859 -272 -20 0
859 -272 20 0
859 272 -20 0
-860 273 21 0
-860 -273 -21 0
860 -273 21 0
860 273 -21 0
854 855 856 857 858 859 860 0
-861 267 22 0
-861 -267 -22 0
861 -267 22 0
861 267 -22 0
-862 268 23 0
-862 -268 -23 0
862 -268 23 0
862 268 -23 0
-863 269 24 0
-863 -269 -24 0
863 -269 24 0
863 269 -24 0
-864 270 25 0
-864 -270 -25 0
864 -270 25 0
864 270 -25 0
-865 271 26 0
-865 -271 -26 0
865 -271 26 0
865 271 -26 0
-866 272 27 0
-866 -272 -27 0
866 -272 27 0
866 272 -27 0
-867 273 28 0
-867 -273 -28 0
867 -273 28 0
867 273 -28 0
861 862 863 864 865 866 867 0
-868 267 29 0
-868 -267 -29 0
868 -267 29 0
868 267 -29 0
-869 268 30 0
-869 -268 -30 0
869 -268 30 0
869 268 -30 0
-870 269 31 0
-870 -269 -31 0
870 -269 31 0
870 269 -31 0
-871 270 32 0
-871 -270 -32 0
871 -270 32 0
871 270 -32 0
-872 271 33 0
-872 -271 -33 0
872 -271 33 0
872 271 -33 0
-873 272 34 0
-873 -272 -34 0
873 -272 34 0
873 272 -34 0
-874 273 35 0
-874 -273 -35 0
874 -273 35 0
874 273 -35 0
868 869 870 871 872 873 874 0
-875 267 36 0
-875 -267 -36 0
875 -267 36 0
875 267 -36 0
-876 268 37 0
-876 -268 -37 0
876 -268 37 0
876 268 -37 0
-877 269 38 0
-877 -269 -38 0
877 -269 38 0
877 269 -38 0
-878 270 39 0
-878 -270 -39 0
878 -270 39 0
878 270 -39 0
-879 271 40 0
-879 -271 -40 0
879 -271 40 0
879 271 -40 0
-880 272 41 0
-880 -272 -41 0
880 -272 41 0
880 272 -41 0
-881 273 42 0
-881 -273 -42 0
881 -273 42 0
881 273 -42 0
875 876 877 878 879 880 881 0
-882 267 43 0
-882 -267 -43 0
882 -267 43 0
882 267 -43 0
-883 268 44 0
-883 -268 -44 0
883 -268 44 0
883 268 -44 0
-884 269 45 0
-884 -269 -45 0
884 -269 45 0
884 269 -45 0
-885 270 46 0
-885 -270 -46 0
885 -270 46 0
885 270 -46 0
-886 271 47 0
-886 -271 -47 0
886 -271 47 0
886 271 -47 0
-887 272 48 0
-887 -272 -48 0
887 -272 48 0
887 272 -48 0
-888 273 49 0
-888 -273 -49 0
888 -273 49 0
888 273 -49 0
882 883 884 885 886 887 888 0
-889 267 64 0
-889 -267 -64 0
889 -267 64 0
889 267 -64 0
-890 268 65 0
-890 -268 -65 0
890 -268 65 0
890 268 -65 0
-891 269 66 0
-891 -269 -66 0
891 -269 66 0
891 269 -66 0
-892 270 67 0
-892 -270 -67 0
892 -270 67 0
892 270 -67 0
-893 271 68 0
-893 -271 -68 0
893 -271 68 0
893 271 -68 0
-894 272 69 0
-894 -272 -69 0
894 -272 69 0
894 272 -69 0
-895 273 70 0
-895 -273 -70 0
895 -273 70 0
895 273 -70 0
889 890 891 892 893 894 895 0
-896 267 87 0
-896 -267 -87 0
896 -267 87 0
896 267 -87 0
-897 268 88 0
-897 -268 -88 0
897 -268 88 0
897 268 -88 0
-898 269 89 0
-898 -269 -89 0
898 -269 89 0
898 269 -89 0
-899 270 90 0
-899 -270 -90 0
899 -270 90 0
899 270 -90 0
-900 271 91 0
-900 -271 -91 0
900 -271 91 0
900 271 -91 0
-901 272 92 0
-901 -272 -92 0
901 -272 92 0
901 272 -92 0
-902 273 93 0
-902 -273 -93 0
902 -273 93 0
902 273 -93 0
896 897 898 899 900 901 902 0
-903 267 112 0
-903 -267 -112 0
903 -267 112 0
903 267 -112 0
-904 268 113 0
-904 -268 -113 0
904 -268 113 0
904 268 -113 0
-905 269 114 0
-905 -269 -114 0
905 -269 114 0
905 269 -114 0
-906 270 115 0
-906 -270 -115 0
906 -270 115 0
906 270 -115 0
-907 271 116 0
-907 -271 -116 0
907 -271 116 0
907 271 -116 0
-908 272 117 0
-908 -272 -117 0
908 -272 117 0
908 272 -117 0
-909 273 118 0
-909 -273 -118 0
909 -273 118 0
909 273 -118 0
903 904 905 906 907 908 909 0
-910 267 139 0
-910 -267 -139 0
910 -267 139 0
910 267 -139 0
-911 268 140 0
-911 -268 -140 0
911 -268 140 0
911 268 -140 0
-912 269 141 0
-912 -269 -141 0
912 -269 141 0
912 269 -141 0
-913 270 142 0
-913 -270 -142 0
913 -270 142 0
913 270 -142 0
-914 271 143 0
-914 -271 -143 0
914 -271 143 0
914 271 -143 0
-915 272 144 0
-915 -272 -144 0
915 -272 144 0
915 272 -144 0
-916 273 145 0
-916 -273 -145 0
916 -273 145 0
916 273 -145 0
910 911 912 913 914 915 916 0
-917 267 168 0
-917 -267 -168 0
917 -267 168 0
917 267 -168 0
-918 268 169 0
-918 -268 -169 0
918 -268 169 0
918 268 -169 0
-919 269 170 0
-919 -269 -170 0
919 -269 170 0
919 269 -170 0
-920 270 171 0
-920 -270 -171 0
920 -270 171 0
920 270 -171 0
-921 271 172 0
-921 -271 -172 0
921 -271 172 0
921 271 -172 0
-922 272 173 0
-922 -272 -173 0
922 -272 173 0
922 272 -173 0
-923 273 174 0
-923 -273 -174 0
923 -273 174 0
923 273 -174 0
917 918 919 920 921 922 923 0
-924 267 199 0
-924 -267 -199 0
924 -267 199 0
924 267 -199 0
-925 268 200 0
-925 -268 -200 0
925 -268 200 0
925 268 -200 0
-926 269 201 0
-926 -269 -201 0
926 -269 201 0
926 269 -201 0
-927 270 202 0
-927 -270 -202 0
927 -270 202 0
927 270 -202 0
-928 271 203 0
-928 -271 -203 0
928 -271 203 0
928 271 -203 0
-929 272 204 0
-929 -272 -204 0
929 -272 204 0
929 272 -204 0
-930 273 205 0
-930 -273 -205 0
930 -273 205 0
930 273 -205 0
924 925 926 927 928 929 930 0
-931 267 232 0
-931 -267 -232 0
931 -267 232 0
931 267 -232 0
-932 268 233 0
-932 -268 -233 0
932 -268 233 0
932 268 -233 0
-933 269 234 0
-933 -269 -234 0
933 -269 234 0
933 269 -234 0
-934 270 235 0
-934 -270 -235 0
934 -270 235 0
934 270 -235 0
-935 271 236 0
-935 -271 -236 0
935 -271 236 0
935 271 -236 0
-936 272 237 0
-936 -272 -237 0
936 -272 237 0
936 272 -237 0
-937 273 238 0
-937 -273 -238 0
937 -273 238 0
937 273 -238 0
931 932 933 934 935 936 937 0
-938 304 1 0
-938 -304 -1 0
938 -304 1 0
938 304 -1 0
-939 305 2 0
-939 -305 -2 0
939 -305 2 0
939 305 -2 0
-940 306 3 0
-940 -306 -3 0
940 -306 3 0
940 306 -3 0
-941 307 4 0
-941 -307 -4 0
941 -307 4 0
941 307 -4 0
-942 308 5 0
-942 -308 -5 0
942 -308 5 0
942 308 -5 0
-943 309 6 0
-943 -309 -6 0
943 -309 6 0
943 309 -6 0
-944 310 7 0
-944 -310 -7 0
944 -310 7 0
944 310 -7 0
938 939 940 941 942 943 944 0
-945 304 8 0
-945 -304 -8 0
945 -304 8 0
945 304 -8 0
-946 305 9 0
-946 -305 -9 0
946 -305 9 0
946 305 -9 0
-947 306 10 0
-947 -306 -10 0
947 -306 10 0
947 306 -10 0
-948 307 11 0
-948 -307 -11 0
948 -307 11 0
948 307 -11 0
-949 308 12 0
-949 -308 -12 0
949 -308 12 0
949 308 -12 0
-950 309 13 0
-950 -309 -13 0
950 -309 13 0
950 309 -13 0
-951 310 14 0
-951 -310 -14 0
951 -310 14 0
951 310 -14 0
945 946 947 948 949 950 951 0
-952 304 15 0
-952 -304 -15 0
952 -304 15 0
952 304 -15 0
-953 305 16 0
-953 -305 -16 0
953 -305 16 0
953 305 -16 0
-954 306 17 0
-954 -306 -17 0
954 -306 17 0
954 306 -17 0
-955 307 18 0
-955 -307 -18 0
955 -307 18 0
955 307 -18 0
-956 308 19 0
-956 -308 -19 0
956 -308 19 0
956 308 -19 0
-957 309 20 0
-957 -309 -20 0
957 -309 20 0
957 309 -20 0
-958 310 21 0
-958 -310 -21 0
958 -310 21 0
958 310 -21 0
952 953 954 955 956 957 958 0
-959 304 22 0
-959 -304 -22 0
959 -304 22 0
959 304 -22 0
-960 305 23 0
-960 -305 -23 0
960 -305 23 0
960 305 -23 0
-961 306 24 0
-961 -306 -24 0
961 -306 24 0
961 306 -24 0
-962 307 25 0
-962 -307 -25 0
962 -307 25 0
962 307 -25 0
-963 308 26 0
-963 -308 -26 0
963 -308 26 0
963 308 -26 0
-964 309 27 0
-964 -309 -27 0
964 -309 27 0
964 309 -27 0
-965 310 28 0
-965 -310 -28 0
965 -310 28 0
965 310 -28 0
959 960 961 962 963 964 965 0
-966 304 29 0
-966 -304 -29 0
966 -304 29 0
966 304 -29 0
-967 305 30 0
-967 -305 -30 0
967 -305 30 0
967 305 -30 0
-968 306 31 0
-968 -306 -31 0
968 -306 31 0
968 306 -31 0
-969 307 32 0
-969 -307 -32 0
969 -307 32 0
969 307 -32 0
-970 308 33 0
-970 -308 -33 0
970 -308 33 0
970 308 -33 0
-971 309 34 0
-971 -309 -34 0
971 -309 34 0
971 309 -34 0
-972 310 35 0
-972 -310 -35 0
972 -310 35 0
972 310 -35 0
966 967 968 969 970 971 972 0
-973 304 36 0
-973 -304 -36 0
973 -304 36 0
973 304 -36 0
-974 305 37 0
-974 -305 -37 0
974 -305 37 0
974 305 -37 0
-975 306 38 0
-975 -306 -38 0
975 -306 38 0
975 306 -38 0
-976 307 39 0
-976 -307 -39 0
976 -307 39 0
976 307 -39 0
-977 308 40 0
-977 -308 -40 0
977 -308 40 0
977 308 -40 0
-978 309 41 0
-978 -309 -41 0
978 -309 41 0
978 309 -41 0
-979 310 42 0
-979 -310 -42 0
979 -310 42 0
979 310 -42 0
973 974 975 976 977 978 979 0
-980 304 43 0
-980 -304 -43 0
980 -304 43 0
980 304 -43 0
-981 305 44 0
-981 -305 -44 0
981 -305 44 0
981 305 -44 0
-982 306 45 0
-982 -306 -45 0
982 -306 45 0
982 306 -45 0
-983 307 46 0
-983 -307 -46 0
983 -307 46 0
983 307 -46 0
-984 308 47 0
-984 -308 -47 0
984 -308 47 0
984 308 -47 0
-985 309 48 0
-985 -309 -48 0
985 -309 48 0
985 309 -48 0
-986 310 49 0
-986 -310 -49 0
986 -310 49 0
986 310 -49 0
980 981 982 983 984 985 986 0
-987 304 64 0
-987 -304 -64 0
987 -304 64 0
987 304 -64 0
-988 305 65 0
-988 -305 -65 0
988 -305 65 0
988 305 -65 0
-989 306 66 0
-989 -306 -66 0
989 -306 66 0
989 306 -66 0
-990 307 67 0
-990 -307 -67 0
990 -307 67 0
990 307 -67 0
-991 308 68 0
-991 -308 -68 0
991 -308 68 0
991 308 -68 0
-992 309 69 0
-992 -309 -69 0
992 -309 69 0
992 309 -69 0
-993 310 70 0
-993 -310 -70 0
993 -310 70 0
993 310 -70 0
987 988 989 990 991 992 993 0
-994 304 87 0
-994 -304 -87 0
994 -304 87 0
994 304 -87 0
-995 305 88 0
-995 -305 -88 0
995 -305 88 0
995 305 -88 0
-996 306 89 0
-996 -306 -89 0
996 -306 89 0
996 306 -89 0
-997 307 90 0
-997 -307 -90 0
997 -307 90 0
997 307 -90 0
-998 308 91 0
-998 -308 -91 0
998 -308 91 0
998 308 -91 0
-999 309 92 0
-999 -309 -92 0
999 -309 92 0
999 309 -92 0
-1000 310 93 0
-1000 -310 -93 0
1000 -310 93 0
1000 310 -93 0
994 995 996 997 998 999 1000 0
-1001 304 112 0
-1001 -304 -112 0
1001 -304 112 0
1001 304 -112 0
-1002 305 113 0
-1002 -305 -113 0
1002 -305 113 0
1002 305 -113 0
-1003 306 114 0
-1003 -306 -114 0
1003 -306 114 0
1003 306 -114 0
-1004 307 115 0
-1004 -307 -115 0
1004 -307 115 0
1004 307 -115 0
-1005 308 116 0
-1005 -308 -116 0
1005 -308 116 0
1005 308 -116 0
-1006 309 117 0
-1006 -309 -117 0
1006 -309 117 0
1006 309 -117 0
-1007 310 118 0
-1007 -310 -118 0
1007 -310 118 0
1007 310 -118 0
1001 1002 1003 1004 1005 1006 1007 0
-1008 304 139 0
-1008 -304 -139 0
1008 -304 139 0
1008 304 -139 0
-1009 305 140 0
-1009 -305 -140 0
1009 -305 140 0
1009 305 -140 0
-1010 306 141 0
-1010 -306 -141 0
1010 -306 141 0
1010 306 -141 0
-1011 307 142 0
-1011 -307 -142 0
1011 -307 142 0
1011 307 -142 0
-1012 308 143 0
-1012 -308 -143 0
1012 -308 143 0
1012 308 -143 0
-1013 309 144 0
-1013 -309 -144 0
1013 -309 144 0
1013 309 -144 0
-1014 310 145 0
-1014 -310 -145 0
1014 -310 145 0
1014 310 -145 0
1008 1009 1010 1011 1012 1013 1014 0
-1015 304 168 0
-1015 -304 -168 0
1015 -304 168 0
1015 304 -168 0
-1016 305 169 0
-1016 -305 -169 0
1016 -305 169 0
1016 305 -169 0
-1017 306 170 0
-1017 -306 -170 0
1017 -306 170 0
1017 306 -170 0
-1018 307 171 0
-1018 -307 -171 0
1018 -307 171 0
1018 307 -171 0
-1019 308 172 0
-1019 -308 -172 0
1019 -308 172 0
1019 308 -172 0
-1020 309 173 0
-1020 -309 -173 0
1020 -309 173 0
1020 309 -173 0
-1021 310 174 0
-1021 -310 -174 0
1021 -310 174 0
1021 310 -174 0
1015 1016 1017 1018 1019 1020 1021 0
-1022 304 199 0
-1022 -304 -199 0
1022 -304 199 0
1022 304 -199 0
-1023 305 200 0
-1023 -305 -200 0
1023 -305 200 0
1023 305 -200 0
-1024 306 201 0
-1024 -306 -201 0
1024 -306 201 0
1024 306 -201 0
-1025 307 202 0
-1025 -307 -202 0
1025 -307 202 0
1025 307 -202 0
-1026 308 203 0
-1026 -308 -203 0
1026 -308 203 0
1026 308 -203 0
-1027 309 204 0
-1027 -309 -204 0
1027 -309 204 0
1027 309 -204 0
-1028 310 205 0
-1028 -310 -205 0
1028 -310 205 0
1028 310 -205 0
1022 1023 1024 1025 1026 1027 1028 0
-1029 304 232 0
-1029 -304 -232 0
1029 -304 232 0
1029 304 -232 0
-1030 305 233 0
-1030 -305 -233 0
1030 -305 233 0
1030 305 -233 0
-1031 306 234 0
-1031 -306 -234 0
1031 -306 234 0
1031 306 -234 0
-1032 307 235 0
-1032 -307 -235 0
1032 -307 235 0
1032 307 -235 0
-1033 308 236 0
-1033 -308 -236 0
1033 -308 236 0
1033 308 -236 0
-1034 309 237 0
-1034 -309 -237 0
1034 -309 237 0
1034 309 -237 0
-1035 310 238 0
-1035 -310 -238 0
1035 -310 238 0
1035 310 -238 0
1029 1030 1031 1032 1033 1034 1035 0
-1036 304 267 0
-1036 -304 -267 0
1036 -304 267 0
1036 304 -267 0
-1037 305 268 0
-1037 -305 -268 0
1037 -305 268 0
1037 305 -268 0
-1038 306 269 0
-1038 -306 -269 0
1038 -306 269 0
1038 306 -269 0
-1039 307 270 0
-1039 -307 -270 0
1039 -307 270 0
1039 307 -270 0
-1040 308 271 0
-1040 -308 -271 0
1040 -308 271 0
1040 308 -271 0
-1041 309 272 0
-1041 -309 -272 0
1041 -309 272 0
1041 309 -272 0
-1042 310 273 0
-1042 -310 -273 0
1042 -310 273 0
1042 310 -273 0
1036 1037 1038 1039 1040 1041 1042 0
-1043 343 1 0
-1043 -343 -1 0
1043 -343 1 0
1043 343 -1 0
-1044 344 2 0
-1044 -344 -2 0
1044 -344 2 0
1044 344 -2 0
-1045 345 3 0
-1045 -345 -3 0
1045 -345 3 0
1045 345 -3 0
-1046 346 4 0
-1046 -346 -4 0
1046 -346 4 0
1046 346 -4 0
-1047 347 5 0
-1047 -347 -5 0
1047 -347 5 0
1047 347 -5 0
-1048 348 6 0
-1048 -348 -6 0
1048 -348 6 0
1048 348 -6 0
-1049 349 7 0
-1049 -349 -7 0
1049 -349 7 0
1049 349 -7 0
1043 1044 1045 1046 1047 1048 1049 0
-1050 343 8 0
-1050 -343 -8 0
1050 -343 8 0
1050 343 -8 0
-1051 344 9 0
-1051 -344 -9 0
1051 -344 9 0
1051 344 -9 0
-1052 345 10 0
-1052 -345 -10 0
1052 -345 10 0
1052 345 -10 0
-1053 346 11 0
-1053 -346 -11 0
1053 -346 11 0
1053 346 -11 0
-1054 347 12 0
-1054 -347 -12 0
1054 -347 12 0
1054 347 -12 0
-1055 348 13 0
-1055 -348 -13 0
1055 -348 13 0
1055 348 -13 0
-1056 349 14 0
-1056 -349 -14 0
1056 -349 14 0
1056 349 -14 0
1050 1051 1052 1053 1054 1055 1056 0
-1057 343 15 0
-1057 -343 -15 0
1057 -343 15 0
1057 343 -15 0
-1058 344 16 0
-1058 -344 -16 0
1058 -344 16 0
1058 344 -16 0
-1059 345 17 0
-1059 -345 -17 0
1059 -345 17 0
1059 345 -17 0
-1060 346 18 0
-1060 -346 -18 0
1060 -346 18 0
1060 346 -18 0
-1061 347 19 0
-1061 -347 -19 0
1061 -347 19 0
1061 347 -19 0
-1062 348 20 0
-1062 -348 -20 0
1062 -348 20 0
1062 348 -20 0
-1063 349 21 0
-1063 -349 -21 0
1063 -349 21 0
1063 349 -21 0
1057 1058 1059 1060 1061 1062 1063 0
-1064 343 22 0
-1064 -343 -22 0
1064 -343 22 0
1064 343 -22 0
-1065 344 23 0
-1065 -344 -23 0
1065 -344 23 0
1065 344 -23 0
-1066 345 24 0
-1066 -345 -24 0
1066 -345 24 0
1066 345 -24 0
-1067 346 25 0
-1067 -346 -25 0
1067 -346 25 0
1067 346 -25 0
-1068 347 26 0
-1068 -347 -26 0
1068 -347 26 0
1068 347 -26 0
-1069 348 27 0
-1069 -348 -27 0
1069 -348 27 0
1069 348 -27 0
-1070 349 28 0
-1070 -349 -28 0
1070 -349 28 0
1070 349 -28 0
1064 1065 1066 1067 1068 1069 1070 0
-1071 343 29 0
-1071 -343 -29 0
1071 -343 29 0
1071 343 -29 0
-1072 344 30 0
-1072 -344 -30 0
1072 -344 30 0
1072 344 -30 0
-1073 345 31 0
-1073 -345 -31 0
1073 -345 31 0
1073 345 -31 0
-1074 346 32 0
-1074 -346 -32 0
1074 -346 32 0
1074 346 -32 0
-1075 347 33 0
-1075 -347 -33 0
1075 -347 33 0
1075 347 -33 0
-1076 348 34 0
-1076 -348 -34 0
1076 -348 34 0
1076 348 -34 0
-1077 349 35 0
-1077 -349 -35 0
1077 -349 35 0
1077 349 -35 0
1071 1072 1073 1074 1075 1076 1077 0
-1078 343 36 0
-1078 -343 -36 0
1078 -343 36 0
1078 343 -36 0
-1079 344 37 0
-1079 -344 -37 0
1079 -344 37 0
1079 344 -37 0
-1080 345 38 0
-1080 -345 -38 0
1080 -345 38 0
1080 345 -38 0
-1081 346 39 0
-1081 -346 -39 0
1081 -346 39 0
1081 346 -39 0
-1082 347 40 0
-1082 -347 -40 0
1082 -347 40 0
1082 347 -40 0
-1083 348 41 0
-1083 -348 -41 0
1083 -348 41 0
1083 348 -41 0
-1084 349 42 0
-1084 -349 -42 0
1084 -349 42 0
1084 349 -42 0
1078 1079 1080 1081 1082 1083 1084 0
-1085 343 43 0
-1085 -343 -43 0
1085 -343 43 0
1085 343 -43 0
-1086 344 44 0
-1086 -344 -44 0
1086 -344 44 0
1086 344 -44 0
-1087 345 45 0
-1087 -345 -45 0
1087 -345 45 0
1087 345 -45 0
-1088 346 46 0
-1088 -346 -46 0
1088 -346 46 0
1088 346 -46 0
-1089 347 47 0
-1089 -347 -47 0
1089 -347 47 0
1089 347 -47 0
-1090 348 48 0
-1090 -348 -48 0
1090 -348 48 0
1090 348 -48 0
-1091 349 49 0
-1091 -349 -49 0
1091 -349 49 0
1091 349 -49 0
1085 1086 1087 1088 1089 1090 1091 0
-1092 343 64 0
-1092 -343 -64 0
1092 -343 64 0
1092 343 -64 0
-1093 344 65 0
-1093 -344 -65 0
1093 -344 65 0
1093 344 -65 0
-1094 345 66 0
-1094 -345 -66 0
1094 -345 66 0
1094 345 -66 0
-1095 346 67 0
-1095 -346 -67 0
1095 -346 67 0
1095 346 -67 0
-1096 347 68 0
-1096 -347 -68 0
1096 -347 68 0
1096 347 -68 0
-1097 348 69 0
-1097 -348 -69 0
1097 -348 69 0
1097 348 -69 0
-1098 349 70 0
-1098 -349 -70 0
1098 -349 70 0
1098 349 -70 0
1092 1093 1094 1095 1096 1097 1098 0
-1099 343 87 0
-1099 -343 -87 0
1099 -343 87 0
1099 343 -87 0
-1100 344 88 0
-1100 -344 -88 0
1100 -344 88 0
1100 344 -88 0
-1101 345 89 0
-1101 -345 -89 0
1101 -345 89 0
1101 345 -89 0
-1102 346 90 0
-1102 -346 -90 0
1102 -346 90 0
1102 346 -90 0
-1103 347 91 0
-1103 -347 -91 0
1103 -347 91 0
1103 347 -91 0
-1104 348 92 0
-1104 -348 -92 0
1104 -348 92 0
1104 348 -92 0
-1105 349 93 0
-1105 -349 -93 0
1105 -349 93 0
1105 349 -93 0
1099 1100 1101 1102 1103 1104 1105 0
-1106 343 112 0
-1106 -343 -112 0
1106 -343 112 0
1106 343 -112 0
-1107 344 113 0
-1107 -344 -113 0
1107 -344 113 0
1107 344 -113 0
-1108 345 114 0
-1108 -345 -114 0
1108 -345 114 0
1108 345 -114 0
-1109 346 115 0
-1109 -346 -115 0
1109 -346 115 0
1109 346 -115 0
-1110 347 116 0
-1110 -347 -116 0
1110 -347 116 0
1110 347 -116 0
-1111 348 117 0
-1111 -348 -117 0
1111 -348 117 0
1111 348 -117 0
-1112 349 118 0
-1112 -349 -118 0
1112 -349 118 0
1112 349 -118 0
1106 1107 1108 1109 1110 1111 1112 0
-1113 343 139 0
-1113 -343 -139 0
1113 -343 139 0
1113 343 -139 0
-1114 344 140 0
-1114 -344 -140 0
1114 -344 140 0
1114 344 -140 0
-1115 345 141 0
-1115 -345 -141 0
1115 -345 141 0
1115 345 -141 0
-1116 346 142 0
-1116 -346 -142 0
1116 -346 142 0
1116 346 -142 0
-1117 347 143 0
-1117 -347 -143 0
1117 -347 143 0
1117 347 -143 0
-1118 348 144 0
-1118 -348 -144 0
1118 -348 144 0
1118 348 -144 0
-1119 349 145 0
-1119 -349 -145 0
1119 -349 145 0
1119 349 -145 0
1113 1114 1115 1116 1117 1118 1119 0
-1120 343 168 0
-1120 -343 -168 0
1120 -343 168 0
1120 343 -168 0
-1121 344 169 0
-1121 -344 -169 0
1121 -344 169 0
1121 344 -169 0
-1122 345 170 0
-1122 -345 -170 0
1122 -345 170 0
1122 345 -170 0
-1123 346 171 0
-1123 -346 -171 0
1123 -346 171 0
1123 346 -171 0
-1124 347 172 0
-1124 -347 -172 0
1124 -347 172 0
1124 347 -172 0
-1125 348 173 0
-1125 -348 -173 0
1125 -348 173 0
1125 348 -173 0
-1126 349 174 0
-1126 -349 -174 0
1126 -349 174 0
1126 349 -174 0
1120 1121 1122 1123 1124 1125 1126 0
-1127 343 199 0
-1127 -343 -199 0
1127 -343 199 0
1127 343 -199 0
-1128 344 200 0
-1128 -344 -200 0
1128 -344 200 0
1128 344 -200 0
-1129 345 201 0
-1129 -345 -201 0
1129 -345 201 0
1129 345 -201 0
-1130 346 202 0
-1130 -346 -202 0
1130 -346 202 0
1130 346 -202 0
-1131 347 203 0
-1131 -347 -203 0
1131 -347 203 0
1131 347 -203 0
-1132 348 204 0
-1132 -348 -204 0
1132 -348 204 0
1132 348 -204 0
-1133 349 205 0
-1133 -349 -205 0
1133 -349 205 0
1133 349 -205 0
1127 1128 1129 1130 1131 1132 1133 0
-1134 343 232 0
-1134 -343 -232 0
1134 -343 232 0
1134 343 -232 0
-1135 344 233 0
-1135 -344 -233 0
1135 -344 233 0
1135 344 -233 0
-1136 345 234 0
-1136 -345 -234 0
1136 -345 234 0
1136 345 -234 0
-1137 346 235 0
-1137 -346 -235 0
1137 -346 235 0
1137 346 -235 0
-1138 347 236 0
-1138 -347 -236 0
1138 -347 236 0
1138 347 -236 0
-1139 348 237 0
-1139 -348 -237 0
1139 -348 237 0
1139 348 -237 0
-1140 349 238 0
-1140 -349 -238 0
1140 -349 238 0
1140 349 -238 0
1134 1135 1136 1137 1138 1139 1140 0
-1141 343 267 0
-1141 -343 -267 0
1141 -343 267 0
1141 343 -267 0
-1142 344 268 0
-1142 -344 -268 0
1142 -344 268 0
1142 344 -268 0
-1143 345 269 0
-1143 -345 -269 0
1143 -345 269 0
1143 345 -269 0
-1144 346 270 0
-1144 -346 -270 0
1144 -346 270 0
1144 346 -270 0
-1145 347 271 0
-1145 -347 -271 0
1145 -347 271 0
1145 347 -271 0
-1146 348 272 0
-1146 -348 -272 0
1146 -348 272 0
1146 348 -272 0
-1147 349 273 0
-1147 -349 -273 0
1147 -349 273 0
1147 349 -273 0
1141 1142 1143 1144 1145 1146 1147 0
-1148 343 304 0
-1148 -343 -304 0
1148 -343 304 0
1148 343 -304 0
-1149 344 305 0
-1149 -344 -305 0
1149 -344 305 0
1149 344 -305 0
-1150 345 306 0
-1150 -345 -306 0
1150 -345 306 0
1150 345 -306 0
-1151 346 307 0
-1151 -346 -307 0
1151 -346 307 0
1151 346 -307 0
-1152 347 308 0
-1152 -347 -308 0
1152 -347 308 0
1152 347 -308 0
-1153 348 309 0
-1153 -348 -309 0
1153 -348 309 0
1153 348 -309 0
-1154 349 310 0
-1154 -349 -310 0
1154 -349 310 0
1154 349 -310 0
1148 1149 1150 1151 1152 1153 1154 0
1155 1156 1157 1158 1159 1160 1161 1162 1163 1164 1165 1166 1167 1168 1169 1170 1171 0
-1155 -1 0
-1155 -2 0
-1155 3 0
-1155 4 0
-1155 5 0
-1155 6 0
-1155 7 0
-1156 -8 0
-1156 -9 0
-1156 10 0
-1156 11 0
-1156 12 0
-1156 13 0
-1156 14 0
-1157 -15 0
-1157 -16 0
-1157 17 0
-1157 18 0
-1157 19 0
-1157 20 0
-1157 21 0
-1158 -22 0
-1158 -23 0
-1158 24 0
-1158 25 0
-1158 26 0
-1158 27 0
-1158 28 0
-1159 -29 0
-1159 -30 0
-1159 31 0
-1159 32 0
-1159 33 0
-1159 34 0
-1159 35 0
-1160 -36 0
-1160 -37 0
-1160 38 0
-1160 39 0
-1160 40 0
-1160 41 0
-1160 42 0
-1161 -43 0
-1161 -44 0
-1161 45 0
-1161 46 0
-1161 47 0
-1161 48 0
-1161 49 0
-1162 -64 0
-1162 -65 0
-1162 66 0
-1162 67 0
-1162 68 0
-1162 69 0
-1162 70 0
-1163 -87 0
-1163 -88 0
-1163 89 0
-1163 90 0
-1163 91 0
-1163 92 0
-1163 93 0
-1164 -112 0
-1164 -113 0
-1164 114 0
-1164 115 0
-1164 116 0
-1164 117 0
-1164 118 0
-1165 -139 0
-1165 -140 0
-1165 141 0
-1165 142 0
-1165 143 0
-1165 144 0
-1165 145 0
-1166 -168 0
-1166 -169 0
-1166 170 0
-1166 171 0
-1166 172 0
-1166 173 0
-1166 174 0
-1167 -199 0
-1167 -200 0
-1167 201 0
-1167 202 0
-1167 203 0
-1167 204 0
-1167 205 0
-1168 -232 0
-1168 -233 0
-1168 234 0
-1168 235 0
-1168 236 0
-1168 237 0
-1168 238 0
-1169 -267 0
-1169 -268 0
-1169 269 0
-1169 270 0
-1169 271 0
-1169 272 0
-1169 273 0
-1170 -304 0
-1170 -305 0
-1170 306 0
-1170 307 0
-1170 308 0
-1170 309 0
-1170 310 0
-1171 -343 0
-1171 -344 0
-1171 345 0
-1171 346 0
-1171 347 0
-1171 348 0
-1171 349 0
1172 1173 1174 1175 1176 1177 1178 1179 1180 1181 1182 1183 1184 1185 1186 1187 1188 0
-1172 -1 0
-1172 2 0
-1172 -3 0
-1172 4 0
-1172 -5 0
-1172 6 0
-1172 7 0
-1173 -8 0
-1173 9 0
-1173 -10 0
-1173 11 0
-1173 -12 0
-1173 13 0
-1173 14 0
-1174 -15 0
-1174 16 0
-1174 -17 0
-1174 18 0
-1174 -19 0
-1174 20 0
-1174 21 0
-1175 -22 0
-1175 23 0
-1175 -24 0
-1175 25 0
-1175 -26 0
-1175 27 0
-1175 28 0
-1176 -29 0
-1176 30 0
-1176 -31 0
-1176 32 0
-1176 -33 0
-1176 34 0
-1176 35 0
-1177 -36 0
-1177 37 0
-1177 -38 0
-1177 39 0
-1177 -40 0
-1177 41 0
-1177 42 0
-1178 -43 0
-1178 44 0
-1178 -45 0
-1178 46 0
-1178 -47 0
-1178 48 0
-1178 49 0
-1179 -64 0
-1179 65 0
-1179 -66 0
-1179 67 0
-1179 -68 0
-1179 69 0
-1179 70 0
-1180 -87 0
-1180 88 0
-1180 -89 0
-1180 90 0
-1180 -91 0
-1180 92 0
-1180 93 0
-1181 -112 0
-1181 113 0
-1181 -114 0
-1181 115 0
-1181 -116 0
-1181 117 0
-1181 118 0
-1182 -139 0
-1182 140 0
-1182 -141 0
-1182 142 0
-1182 -143 0
-1182 144 0
-1182 145 0
-1183 -168 0
-1183 169 0
-1183 -170 0
-1183 171 0
-1183 -172 0
-1183 173 0
-1183 174 0
-1184 -199 0
-1184 200 0
-1184 -201 0
-1184 202 0
-1184 -203 0
-1184 204 0
-1184 205 0
-1185 -232 0
-1185 233 0
-1185 -234 0
-1185 235 0
-1185 -236 0
-1185 237 0
-1185 238 0
-1186 -267 0
-1186 268 0
-1186 -269 0
-1186 270 0
-1186 -271 0
-1186 272 0
-1186 273 0
-1187 -304 0
-1187 305 0
-1187 -306 0
-1187 307 0
-1187 -308 0
-1187 309 0
-1187 310 0
-1188 -343 0
-1188 344 0
-1188 -345 0
-1188 346 0
-1188 -347 0
-1188 348 0
-1188 349 0
1189 1190 1191 1192 1193 1194 1195 1196 1197 1198 1199 1200 1201 1202 1203 1204 1205 0
-1189 1 0
-1189 -2 0
-1189 3 0
-1189 4 0
-1189 -5 0
-1189 6 0
-1189 -7 0
-1190 8 0
-1190 -9 0
-1190 10 0
-1190 11 0
-1190 -12 0
-1190 13 0
-1190 -14 0
-1191 15 0
-1191 -16 0
-1191 17 0
-1191 18 0
-1191 -19 0
-1191 20 0
-1191 -21 0
-1192 22 0
-1192 -23 0
-1192 24 0
-1192 25 0
-1192 -26 0
-1192 27 0
-1192 -28 0
-1193 29 0
-1193 -30 0
-1193 31 0
-1193 32 0
-1193 -33 0
-1193 34 0
-1193 -35 0
-1194 36 0
-1194 -37 0
-1194 38 0
-1194 39 0
-1194 -40 0
-1194 41 0
-1194 -42 0
-1195 43 0
-1195 -44 0
-1195 45 0
-1195 46 0
-1195 -47 0
-1195 48 0
-1195 -49 0
-1196 64 0
-1196 -65 0
-1196 66 0
-1196 67 0
-1196 -68 0
-1196 69 0
-1196 -70 0
-1197 87 0
-1197 -88 0
-1197 89 0
-1197 90 0
-1197 -91 0
-1197 92 0
-1197 -93 0
-1198 112 0
-1198 -113 0
-1198 114 0
-1198 115 0
-1198 -116 0
-1198 117 0
-1198 -118 0
-1199 139 0
-1199 -140 0
-1199 141 0
-1199 142 0
-1199 -143 0
-1199 144 0
-1199 -145 0
-1200 168 0
-1200 -169 0
-1200 170 0
-1200 171 0
-1200 -172 0
-1200 173 0
-1200 -174 0
-1201 199 0
-1201 -200 0
-1201 201 0
-1201 202 0
-1201 -203 0
-1201 204 0
-1201 -205 0
-1202 232 0
-1202 -233 0
-1202 234 0
-1202 235 0
-1202 -236 0
-1202 237 0
-1202 -238 0
-1203 267 0
-1203 -268 0
-1203 269 0
-1203 270 0
-1203 -271 0
-1203 272 0
-1203 -273 0
-1204 304 0
-1204 -305 0
-1204 306 0
-1204 307 0
-1204 -308 0
-1204 309 0
-1204 -310 0
-1205 343 0
-1205 -344 0
-1205 345 0
-1205 346 0
-1205 -347 0
-1205 348 0
-1205 -349 0
1206 1207 1208 1209 1210 1211 1212 1213 1214 1215 1216 1217 1218 1219 1220 1221 1222 0
-1206 1 0
-1206 -2 0
-1206 -3 0
-1206 -4 0
-1206 -5 0
-1206 6 0
-1206 7 0
-1207 8 0
-1207 -9 0
-1207 -10 0
-1207 -11 0
-1207 -12 0
-1207 13 0
-1207 14 0
-1208 15 0
-1208 -16 0
-1208 -17 0
-1208 -18 0
-1208 -19 0
-1208 20 0
-1208 21 0
-1209 22 0
-1209 -23 0
-1209 -24 0
-1209 -25 0
-1209 -26 0
-1209 27 0
-1209 28 0
-1210 29 0
-1210 -30 0
-1210 -31 0
-1210 -32 0
-1210 -33 0
-1210 34 0
-1210 35 0
-1211 36 0
-1211 -37 0
-1211 -38 0
-1211 -39 0
-1211 -40 0
-1211 41 0
-1211 42 0
-1212 43 0
-1212 -44 0
-1212 -45 0
-1212 -46 0
-1212 -47 0
-1212 48 0
-1212 49 0
-1213 64 0
-1213 -65 0
-1213 -66 0
-1213 -67 0
-1213 -68 0
-1213 69 0
-1213 70 0
-1214 87 0
-1214 -88 0
-1214 -89 0
-1214 -90 0
-1214 -91 0
-1214 92 0
-1214 93 0
-1215 112 0
-1215 -113 0
-1215 -114 0
-1215 -115 0
-1215 -116 0
-1215 117 0
-1215 118 0
-1216 139 0
-1216 -140 0
-1216 -141 0
-1216 -142 0
-1216 -143 0
-1216 144 0
-1216 145 0
-1217 168 0
-1217 -169 0
-1217 -170 0
-1217 -171 0
-1217 -172 0
-1217 173 0
-1217 174 0
-1218 199 0
-1218 -200 0
-1218 -201 0
-1218 -202 0
-1218 -203 0
-1218 204 0
-1218 205 0
-1219 232 0
-1219 -233 0
-1219 -234 0
-1219 -235 0
-1219 -236 0
-1219 237 0
-1219 238 0
-1220 267 0
-1220 -268 0
-1220 -269 0
-1220 -270 0
-1220 -271 0
-1220 272 0
-1220 273 0
-1221 304 0
-1221 -305 0
-1221 -306 0
-1221 -307 0
-1221 -308 0
-1221 309 0
-1221 310 0
-1222 343 0
-1222 -344 0
-1222 -345 0
-1222 -346 0
-1222 -347 0
-1222 348 0
-1222 349 0
1223 1224 1225 1226 1227 1228 1229 1230 1231 1232 1233 1234 1235 1236 1237 1238 1239 0
-1223 -1 0
-1223 -2 0
-1223 3 0
-1223 -4 0
-1223 5 0
-1223 6 0
-1223 7 0
-1224 -8 0
-1224 -9 0
-1224 10 0
-1224 -11 0
-1224 12 0
-1224 13 0
-1224 14 0
-1225 -15 0
-1225 -16 0
-1225 17 0
-1225 -18 0
-1225 19 0
-1225 20 0
-1225 21 0
-1226 -22 0
-1226 -23 0
-1226 24 0
-1226 -25 0
-1226 26 0
-1226 27 0
-1226 28 0
-1227 -29 0
-1227 -30 0
-1227 31 0
-1227 -32 0
-1227 33 0
-1227 34 0
-1227 35 0
-1228 -36 0
-1228 -37 0
-1228 38 0
-1228 -39 0
-1228 40 0
-1228 41 0
-1228 42 0
-1229 -43 0
-1229 -44 0
-1229 45 0
-1229 -46 0
-1229 47 0
-1229 48 0
-1229 49 0
-1230 -64 0
-1230 -65 0
-1230 66 0
-1230 -67 0
-1230 68 0
-1230 69 0
-1230 70 0
-1231 -87 0
-1231 -88 0
-1231 89 0
-1231 -90 0
-1231 91 0
-1231 92 0
-1231 93 0
-1232 -112 0
-1232 -113 0
-1232 114 0
-1232 -115 0
-1232 116 0
-1232 117 0
-1232 118 0
-1233 -139 0
-1233 -140 0
-1233 141 0
-1233 -142 0
-1233 143 0
-1233 144 0
-1233 145 0
-1234 -168 0
-1234 -169 0
-1234 170 0
-1234 -171 0
-1234 172 0
-1234 173 0
-1234 174 0
-1235 -199 0
-1235 -200 0
-1235 201 0
-1235 -202 0
-1235 203 0
-1235 204 0
-1235 205 0
-1236 -232 0
-1236 -233 0
-1236 234 0
-1236 -235 0
-1236 236 0
-1236 237 0
-1236 238 0
-1237 -267 0
-1237 -268 0
-1237 269 0
-1237 -270 0
-1237 271 0
-1237 272 0
-1237 273 0
-1238 -304 0
-1238 -305 0
-1238 306 0
-1238 -307 0
-1238 308 0
-1238 309 0
-1238 310 0
-1239 -343 0
-1239 -344 0
-1239 345 0
-1239 -346 0
-1239 347 0
-1239 348 0
-1239 349 0
1240 1241 1242 1243 1244 1245 1246 1247 1248 1249 1250 1251 1252 1253 1254 1255 1256 0
-1240 1 0
-1240 2 0
-1240 3 0
-1240 -4 0
-1240 5 0
-1240 6 0
-1240 7 0
-1241 8 0
-1241 9 0
-1241 10 0
-1241 -11 0
-1241 12 0
-1241 13 0
-1241 14 0
-1242 15 0
-1242 16 0
-1242 17 0
-1242 -18 0
-1242 19 0
-1242 20 0
-1242 21 0
-1243 22 0
-1243 23 0
-1243 24 0
-1243 -25 0
-1243 26 0
-1243 27 0
-1243 28 0
-1244 29 0
-1244 30 0
-1244 31 0
-1244 -32 0
-1244 33 0
-1244 34 0
-1244 35 0
-1245 36 0
-1245 37 0
-1245 38 0
-1245 -39 0
-1245 40 0
-1245 41 0
-1245 42 0
-1246 43 0
-1246 44 0
-1246 45 0
-1246 -46 0
-1246 47 0
-1246 48 0
-1246 49 0
-1247 64 0
-1247 65 0
-1247 66 0
-1247 -67 0
-1247 68 0
-1247 69 0
-1247 70 0
-1248 87 0
-1248 88 0
-1248 89 0
-1248 -90 0
-1248 91 0
-1248 92 0
-1248 93 0
-1249 112 0
-1249 113 0
-1249 114 0
-1249 -115 0
-1249 116 0
-1249 117 0
-1249 118 0
-1250 139 0
-1250 140 0
-1250 141 0
-1250 -142 0
-1250 143 0
-1250 144 0
-1250 145 0
-1251 168 0
-1251 169 0
-1251 170 0
-1251 -171 0
-1251 172 0
-1251 173 0
-1251 174 0
-1252 199 0
-1252 200 0
-1252 201 0
-1252 -202 0
-1252 203 0
-1252 204 0
-1252 205 0
-1253 232 0
-1253 233 0
-1253 234 0
-1253 -235 0
-1253 236 0
-1253 237 0
-1253 238 0
-1254 267 0
-1254 268 0
-1254 269 0
-1254 -270 0
-1254 271 0
-1254 272 0
-1254 273 0
-1255 304 0
-1255 305 0
-1255 306 0
-1255 -307 0
-1255 308 0
-1255 309 0
-1255 310 0
-1256 343 0
-1256 344 0
-1256 345 0
-1256 -346 0
-1256 347 0
-1256 348 0
-1256 349 0
