p cnf 1538 32104
1 0
-2 0
-3 0
-4 0
-5 0
-6 0
-7 0
-8 0
-9 0
10 0
-11 0
-12 0
-13 0
-14 0
-15 0
-16 0
-17 0
-18 0
19 0
-20 0
-21 0
-22 0
-23 0
-24 0
-25 0
-26 0
-27 0
28 0
-29 0
-30 0
-31 0
-32 0
-33 0
-34 0
-35 0
-36 0
37 0
-38 0
-39 0
-40 0
-41 0
-42 0
-43 0
-44 0
-45 0
46 0
-47 0
-48 0
-49 0
-50 0
-51 0
-52 0
-53 0
-54 0
55 0
-56 0
-57 0
-58 0
-59 0
-60 0
-61 0
-62 0
-63 0
64 0
65 66 67 68 69 70 71 72 0
-65 -66 0
-65 -67 0
-65 -68 0
-65 -69 0
-65 -70 0
-65 -71 0
-65 -72 0
-66 -67 0
-66 -68 0
-66 -69 0
-66 -70 0
-66 -71 0
-66 -72 0
-67 -68 0
-67 -69 0
-67 -70 0
-67 -71 0
-67 -72 0
-68 -69 0
-68 -70 0
-68 -71 0
-68 -72 0
-69 -70 0
-69 -71 0
-69 -72 0
-70 -71 0
-70 -72 0
-71 -72 0
73 74 75 76 77 78 79 80 0
-73 -74 0
-73 -75 0
-73 -76 0
-73 -77 0
-73 -78 0
-73 -79 0
-73 -80 0
-74 -75 0
-74 -76 0
-74 -77 0
-74 -78 0
-74 -79 0
-74 -80 0
-75 -76 0
-75 -77 0
-75 -78 0
-75 -79 0
-75 -80 0
-76 -77 0
-76 -78 0
-76 -79 0
-76 -80 0
-77 -78 0
-77 -79 0
-77 -80 0
-78 -79 0
-78 -80 0
-79 -80 0
-65 -73 0
-66 -73 0
-66 -74 0
-67 -73 0
-67 -74 0
-67 -75 0
-68 -73 0
-68 -74 0
-68 -75 0
-68 -76 0
-69 -73 0
-69 -74 0
-69 -75 0
-69 -76 0
-69 -77 0
-70 -73 0
-70 -74 0
-70 -75 0
-70 -76 0
-70 -77 0
-70 -78 0
-71 -73 0
-71 -74 0
-71 -75 0
-71 -76 0
-71 -77 0
-71 -78 0
-71 -79 0
-72 -73 0
-72 -74 0
-72 -75 0
-72 -76 0
-72 -77 0
-72 -78 0
-72 -79 0
-72 -80 0
-65 -74 -1 -9 -81 0
-65 -74 -1 9 81 0
-65 -74 1 -9 81 0
-65 -74 1 9 -81 0
-65 -74 -2 -10 -82 0
-65 -74 -2 10 82 0
-65 -74 2 -10 82 0
-65 -74 2 10 -82 0
-65 -74 -3 -11 -83 0
-65 -74 -3 11 83 0
-65 -74 3 -11 83 0
-65 -74 3 11 -83 0
-65 -74 -4 -12 -84 0
-65 -74 -4 12 84 0
-65 -74 4 -12 84 0
-65 -74 4 12 -84 0
-65 -74 -5 -13 -85 0
-65 -74 -5 13 85 0
-65 -74 5 -13 85 0
-65 -74 5 13 -85 0
-65 -74 -6 -14 -86 0
-65 -74 -6 14 86 0
-65 -74 6 -14 86 0
-65 -74 6 14 -86 0
-65 -74 -7 -15 -87 0
-65 -74 -7 15 87 0
-65 -74 7 -15 87 0
-65 -74 7 15 -87 0
-65 -74 -8 -16 -88 0
-65 -74 -8 16 88 0
-65 -74 8 -16 88 0
-65 -74 8 16 -88 0
-65 -75 -1 -17 -81 0
-65 -75 -1 17 81 0
-65 -75 1 -17 81 0
-65 -75 1 17 -81 0
-65 -75 -2 -18 -82 0
-65 -75 -2 18 82 0
-65 -75 2 -18 82 0
-65 -75 2 18 -82 0
-65 -75 -3 -19 -83 0
-65 -75 -3 19 83 0
-65 -75 3 -19 83 0
-65 -75 3 19 -83 0
-65 -75 -4 -20 -84 0
-65 -75 -4 20 84 0
-65 -75 4 -20 84 0
-65 -75 4 20 -84 0
-65 -75 -5 -21 -85 0
-65 -75 -5 21 85 0
-65 -75 5 -21 85 0
-65 -75 5 21 -85 0
-65 -75 -6 -22 -86 0
-65 -75 -6 22 86 0
-65 -75 6 -22 86 0
-65 -75 6 22 -86 0
-65 -75 -7 -23 -87 0
-65 -75 -7 23 87 0
-65 -75 7 -23 87 0
-65 -75 7 23 -87 0
-65 -75 -8 -24 -88 0
-65 -75 -8 24 88 0
-65 -75 8 -24 88 0
-65 -75 8 24 -88 0
-65 -76 -1 -25 -81 0
-65 -76 -1 25 81 0
-65 -76 1 -25 81 0
-65 -76 1 25 -81 0
-65 -76 -2 -26 -82 0
-65 -76 -2 26 82 0
-65 -76 2 -26 82 0
-65 -76 2 26 -82 0
-65 -76 -3 -27 -83 0
-65 -76 -3 27 83 0
-65 -76 3 -27 83 0
-65 -76 3 27 -83 0
-65 -76 -4 -28 -84 0
-65 -76 -4 28 84 0
-65 -76 4 -28 84 0
-65 -76 4 28 -84 0
-65 -76 -5 -29 -85 0
-65 -76 -5 29 85 0
-65 -76 5 -29 85 0
-65 -76 5 29 -85 0
-65 -76 -6 -30 -86 0
-65 -76 -6 30 86 0
-65 -76 6 -30 86 0
-65 -76 6 30 -86 0
-65 -76 -7 -31 -87 0
-65 -76 -7 31 87 0
-65 -76 7 -31 87 0
-65 -76 7 31 -87 0
-65 -76 -8 -32 -88 0
-65 -76 -8 32 88 0
-65 -76 8 -32 88 0
-65 -76 8 32 -88 0
-65 -77 -1 -33 -81 0
-65 -77 -1 33 81 0
-65 -77 1 -33 81 0
-65 -77 1 33 -81 0
-65 -77 -2 -34 -82 0
-65 -77 -2 34 82 0
-65 -77 2 -34 82 0
-65 -77 2 34 -82 0
-65 -77 -3 -35 -83 0
-65 -77 -3 35 83 0
-65 -77 3 -35 83 0
-65 -77 3 35 -83 0
-65 -77 -4 -36 -84 0
-65 -77 -4 36 84 0
-65 -77 4 -36 84 0
-65 -77 4 36 -84 0
-65 -77 -5 -37 -85 0
-65 -77 -5 37 85 0
-65 -77 5 -37 85 0
-65 -77 5 37 -85 0
-65 -77 -6 -38 -86 0
-65 -77 -6 38 86 0
-65 -77 6 -38 86 0
-65 -77 6 38 -86 0
-65 -77 -7 -39 -87 0
-65 -77 -7 39 87 0
-65 -77 7 -39 87 0
-65 -77 7 39 -87 0
-65 -77 -8 -40 -88 0
-65 -77 -8 40 88 0
-65 -77 8 -40 88 0
-65 -77 8 40 -88 0
-65 -78 -1 -41 -81 0
-65 -78 -1 41 81 0
-65 -78 1 -41 81 0
-65 -78 1 41 -81 0
-65 -78 -2 -42 -82 0
-65 -78 -2 42 82 0
-65 -78 2 -42 82 0
-65 -78 2 42 -82 0
-65 -78 -3 -43 -83 0
-65 -78 -3 43 83 0
-65 -78 3 -43 83 0
-65 -78 3 43 -83 0
-65 -78 -4 -44 -84 0
-65 -78 -4 44 84 0
-65 -78 4 -44 84 0
-65 -78 4 44 -84 0
-65 -78 -5 -45 -85 0
-65 -78 -5 45 85 0
-65 -78 5 -45 85 0
-65 -78 5 45 -85 0
-65 -78 -6 -46 -86 0
-65 -78 -6 46 86 0
-65 -78 6 -46 86 0
-65 -78 6 46 -86 0
-65 -78 -7 -47 -87 0
-65 -78 -7 47 87 0
-65 -78 7 -47 87 0
-65 -78 7 47 -87 0
-65 -78 -8 -48 -88 0
-65 -78 -8 48 88 0
-65 -78 8 -48 88 0
-65 -78 8 48 -88 0
-65 -79 -1 -49 -81 0
-65 -79 -1 49 81 0
-65 -79 1 -49 81 0
-65 -79 1 49 -81 0
-65 -79 -2 -50 -82 0
-65 -79 -2 50 82 0
-65 -79 2 -50 82 0
-65 -79 2 50 -82 0
-65 -79 -3 -51 -83 0
-65 -79 -3 51 83 0
-65 -79 3 -51 83 0
-65 -79 3 51 -83 0
-65 -79 -4 -52 -84 0
-65 -79 -4 52 84 0
-65 -79 4 -52 84 0
-65 -79 4 52 -84 0
-65 -79 -5 -53 -85 0
-65 -79 -5 53 85 0
-65 -79 5 -53 85 0
-65 -79 5 53 -85 0
-65 -79 -6 -54 -86 0
-65 -79 -6 54 86 0
-65 -79 6 -54 86 0
-65 -79 6 54 -86 0
-65 -79 -7 -55 -87 0
-65 -79 -7 55 87 0
-65 -79 7 -55 87 0
-65 -79 7 55 -87 0
-65 -79 -8 -56 -88 0
-65 -79 -8 56 88 0
-65 -79 8 -56 88 0
-65 -79 8 56 -88 0
-65 -80 -1 -57 -81 0
-65 -80 -1 57 81 0
-65 -80 1 -57 81 0
-65 -80 1 57 -81 0
-65 -80 -2 -58 -82 0
-65 -80 -2 58 82 0
-65 -80 2 -58 82 0
-65 -80 2 58 -82 0
-65 -80 -3 -59 -83 0
-65 -80 -3 59 83 0
-65 -80 3 -59 83 0
-65 -80 3 59 -83 0
-65 -80 -4 -60 -84 0
-65 -80 -4 60 84 0
-65 -80 4 -60 84 0
-65 -80 4 60 -84 0
-65 -80 -5 -61 -85 0
-65 -80 -5 61 85 0
-65 -80 5 -61 85 0
-65 -80 5 61 -85 0
-65 -80 -6 -62 -86 0
-65 -80 -6 62 86 0
-65 -80 6 -62 86 0
-65 -80 6 62 -86 0
-65 -80 -7 -63 -87 0
-65 -80 -7 63 87 0
-65 -80 7 -63 87 0
-65 -80 7 63 -87 0
-65 -80 -8 -64 -88 0
-65 -80 -8 64 88 0
-65 -80 8 -64 88 0
-65 -80 8 64 -88 0
-66 -75 -9 -17 -81 0
-66 -75 -9 17 81 0
-66 -75 9 -17 81 0
-66 -75 9 17 -81 0
-66 -75 -10 -18 -82 0
-66 -75 -10 18 82 0
-66 -75 10 -18 82 0
-66 -75 10 18 -82 0
-66 -75 -11 -19 -83 0
-66 -75 -11 19 83 0
-66 -75 11 -19 83 0
-66 -75 11 19 -83 0
-66 -75 -12 -20 -84 0
-66 -75 -12 20 84 0
-66 -75 12 -20 84 0
-66 -75 12 20 -84 0
-66 -75 -13 -21 -85 0
-66 -75 -13 21 85 0
-66 -75 13 -21 85 0
-66 -75 13 21 -85 0
-66 -75 -14 -22 -86 0
-66 -75 -14 22 86 0
-66 -75 14 -22 86 0
-66 -75 14 22 -86 0
-66 -75 -15 -23 -87 0
-66 -75 -15 23 87 0
-66 -75 15 -23 87 0
-66 -75 15 23 -87 0
-66 -75 -16 -24 -88 0
-66 -75 -16 24 88 0
-66 -75 16 -24 88 0
-66 -75 16 24 -88 0
-66 -76 -9 -25 -81 0
-66 -76 -9 25 81 0
-66 -76 9 -25 81 0
-66 -76 9 25 -81 0
-66 -76 -10 -26 -82 0
-66 -76 -10 26 82 0
-66 -76 10 -26 82 0
-66 -76 10 26 -82 0
-66 -76 -11 -27 -83 0
-66 -76 -11 27 83 0
-66 -76 11 -27 83 0
-66 -76 11 27 -83 0
-66 -76 -12 -28 -84 0
-66 -76 -12 28 84 0
-66 -76 12 -28 84 0
-66 -76 12 28 -84 0
-66 -76 -13 -29 -85 0
-66 -76 -13 29 85 0
-66 -76 13 -29 85 0
-66 -76 13 29 -85 0
-66 -76 -14 -30 -86 0
-66 -76 -14 30 86 0
-66 -76 14 -30 86 0
-66 -76 14 30 -86 0
-66 -76 -15 -31 -87 0
-66 -76 -15 31 87 0
-66 -76 15 -31 87 0
-66 -76 15 31 -87 0
-66 -76 -16 -32 -88 0
-66 -76 -16 32 88 0
-66 -76 16 -32 88 0
-66 -76 16 32 -88 0
-66 -77 -9 -33 -81 0
-66 -77 -9 33 81 0
-66 -77 9 -33 81 0
-66 -77 9 33 -81 0
-66 -77 -10 -34 -82 0
-66 -77 -10 34 82 0
-66 -77 10 -34 82 0
-66 -77 10 34 -82 0
-66 -77 -11 -35 -83 0
-66 -77 -11 35 83 0
-66 -77 11 -35 83 0
-66 -77 11 35 -83 0
-66 -77 -12 -36 -84 0
-66 -77 -12 36 84 0
-66 -77 12 -36 84 0
-66 -77 12 36 -84 0
-66 -77 -13 -37 -85 0
-66 -77 -13 37 85 0
-66 -77 13 -37 85 0
-66 -77 13 37 -85 0
-66 -77 -14 -38 -86 0
-66 -77 -14 38 86 0
-66 -77 14 -38 86 0
-66 -77 14 38 -86 0
-66 -77 -15 -39 -87 0
-66 -77 -15 39 87 0
-66 -77 15 -39 87 0
-66 -77 15 39 -87 0
-66 -77 -16 -40 -88 0
-66 -77 -16 40 88 0
-66 -77 16 -40 88 0
-66 -77 16 40 -88 0
-66 -78 -9 -41 -81 0
-66 -78 -9 41 81 0
-66 -78 9 -41 81 0
-66 -78 9 41 -81 0
-66 -78 -10 -42 -82 0
-66 -78 -10 42 82 0
-66 -78 10 -42 82 0
-66 -78 10 42 -82 0
-66 -78 -11 -43 -83 0
-66 -78 -11 43 83 0
-66 -78 11 -43 83 0
-66 -78 11 43 -83 0
-66 -78 -12 -44 -84 0
-66 -78 -12 44 84 0
-66 -78 12 -44 84 0
-66 -78 12 44 -84 0
-66 -78 -13 -45 -85 0
-66 -78 -13 45 85 0
-66 -78 13 -45 85 0
-66 -78 13 45 -85 0
-66 -78 -14 -46 -86 0
-66 -78 -14 46 86 0
-66 -78 14 -46 86 0
-66 -78 14 46 -86 0
-66 -78 -15 -47 -87 0
-66 -78 -15 47 87 0
-66 -78 15 -47 87 0
-66 -78 15 47 -87 0
-66 -78 -16 -48 -88 0
-66 -78 -16 48 88 0
-66 -78 16 -48 88 0
-66 -78 16 48 -88 0
-66 -79 -9 -49 -81 0
-66 -79 -9 49 81 0
-66 -79 9 -49 81 0
-66 -79 9 49 -81 0
-66 -79 -10 -50 -82 0
-66 -79 -10 50 82 0
-66 -79 10 -50 82 0
-66 -79 10 50 -82 0
-66 -79 -11 -51 -83 0
-66 -79 -11 51 83 0
-66 -79 11 -51 83 0
-66 -79 11 51 -83 0
-66 -79 -12 -52 -84 0
-66 -79 -12 52 84 0
-66 -79 12 -52 84 0
-66 -79 12 52 -84 0
-66 -79 -13 -53 -85 0
-66 -79 -13 53 85 0
-66 -79 13 -53 85 0
-66 -79 13 53 -85 0
-66 -79 -14 -54 -86 0
-66 -79 -14 54 86 0
-66 -79 14 -54 86 0
-66 -79 14 54 -86 0
-66 -79 -15 -55 -87 0
-66 -79 -15 55 87 0
-66 -79 15 -55 87 0
-66 -79 15 55 -87 0
-66 -79 -16 -56 -88 0
-66 -79 -16 56 88 0
-66 -79 16 -56 88 0
-66 -79 16 56 -88 0
-66 -80 -9 -57 -81 0
-66 -80 -9 57 81 0
-66 -80 9 -57 81 0
-66 -80 9 57 -81 0
-66 -80 -10 -58 -82 0
-66 -80 -10 58 82 0
-66 -80 10 -58 82 0
-66 -80 10 58 -82 0
-66 -80 -11 -59 -83 0
-66 -80 -11 59 83 0
-66 -80 11 -59 83 0
-66 -80 11 59 -83 0
-66 -80 -12 -60 -84 0
-66 -80 -12 60 84 0
-66 -80 12 -60 84 0
-66 -80 12 60 -84 0
-66 -80 -13 -61 -85 0
-66 -80 -13 61 85 0
-66 -80 13 -61 85 0
-66 -80 13 61 -85 0
-66 -80 -14 -62 -86 0
-66 -80 -14 62 86 0
-66 -80 14 -62 86 0
-66 -80 14 62 -86 0
-66 -80 -15 -63 -87 0
-66 -80 -15 63 87 0
-66 -80 15 -63 87 0
-66 -80 15 63 -87 0
-66 -80 -16 -64 -88 0
-66 -80 -16 64 88 0
-66 -80 16 -64 88 0
-66 -80 16 64 -88 0
-67 -76 -17 -25 -81 0
-67 -76 -17 25 81 0
-67 -76 17 -25 81 0
-67 -76 17 25 -81 0
-67 -76 -18 -26 -82 0
-67 -76 -18 26 82 0
-67 -76 18 -26 82 0
-67 -76 18 26 -82 0
-67 -76 -19 -27 -83 0
-67 -76 -19 27 83 0
-67 -76 19 -27 83 0
-67 -76 19 27 -83 0
-67 -76 -20 -28 -84 0
-67 -76 -20 28 84 0
-67 -76 20 -28 84 0
-67 -76 20 28 -84 0
-67 -76 -21 -29 -85 0
-67 -76 -21 29 85 0
-67 -76 21 -29 85 0
-67 -76 21 29 -85 0
-67 -76 -22 -30 -86 0
-67 -76 -22 30 86 0
-67 -76 22 -30 86 0
-67 -76 22 30 -86 0
-67 -76 -23 -31 -87 0
-67 -76 -23 31 87 0
-67 -76 23 -31 87 0
-67 -76 23 31 -87 0
-67 -76 -24 -32 -88 0
-67 -76 -24 32 88 0
-67 -76 24 -32 88 0
-67 -76 24 32 -88 0
-67 -77 -17 -33 -81 0
-67 -77 -17 33 81 0
-67 -77 17 -33 81 0
-67 -77 17 33 -81 0
-67 -77 -18 -34 -82 0
-67 -77 -18 34 82 0
-67 -77 18 -34 82 0
-67 -77 18 34 -82 0
-67 -77 -19 -35 -83 0
-67 -77 -19 35 83 0
-67 -77 19 -35 83 0
-67 -77 19 35 -83 0
-67 -77 -20 -36 -84 0
-67 -77 -20 36 84 0
-67 -77 20 -36 84 0
-67 -77 20 36 -84 0
-67 -77 -21 -37 -85 0
-67 -77 -21 37 85 0
-67 -77 21 -37 85 0
-67 -77 21 37 -85 0
-67 -77 -22 -38 -86 0
-67 -77 -22 38 86 0
-67 -77 22 -38 86 0
-67 -77 22 38 -86 0
-67 -77 -23 -39 -87 0
-67 -77 -23 39 87 0
-67 -77 23 -39 87 0
-67 -77 23 39 -87 0
-67 -77 -24 -40 -88 0
-67 -77 -24 40 88 0
-67 -77 24 -40 88 0
-67 -77 24 40 -88 0
-67 -78 -17 -41 -81 0
-67 -78 -17 41 81 0
-67 -78 17 -41 81 0
-67 -78 17 41 -81 0
-67 -78 -18 -42 -82 0
-67 -78 -18 42 82 0
-67 -78 18 -42 82 0
-67 -78 18 42 -82 0
-67 -78 -19 -43 -83 0
-67 -78 -19 43 83 0
-67 -78 19 -43 83 0
-67 -78 19 43 -83 0
-67 -78 -20 -44 -84 0
-67 -78 -20 44 84 0
-67 -78 20 -44 84 0
-67 -78 20 44 -84 0
-67 -78 -21 -45 -85 0
-67 -78 -21 45 85 0
-67 -78 21 -45 85 0
-67 -78 21 45 -85 0
-67 -78 -22 -46 -86 0
-67 -78 -22 46 86 0
-67 -78 22 -46 86 0
-67 -78 22 46 -86 0
-67 -78 -23 -47 -87 0
-67 -78 -23 47 87 0
-67 -78 23 -47 87 0
-67 -78 23 47 -87 0
-67 -78 -24 -48 -88 0
-67 -78 -24 48 88 0
-67 -78 24 -48 88 0
-67 -78 24 48 -88 0
-67 -79 -17 -49 -81 0
-67 -79 -17 49 81 0
-67 -79 17 -49 81 0
-67 -79 17 49 -81 0
-67 -79 -18 -50 -82 0
-67 -79 -18 50 82 0
-67 -79 18 -50 82 0
-67 -79 18 50 -82 0
-67 -79 -19 -51 -83 0
-67 -79 -19 51 83 0
-67 -79 19 -51 83 0
-67 -79 19 51 -83 0
-67 -79 -20 -52 -84 0
-67 -79 -20 52 84 0
-67 -79 20 -52 84 0
-67 -79 20 52 -84 0
-67 -79 -21 -53 -85 0
-67 -79 -21 53 85 0
-67 -79 21 -53 85 0
-67 -79 21 53 -85 0
-67 -79 -22 -54 -86 0
-67 -79 -22 54 86 0
-67 -79 22 -54 86 0
-67 -79 22 54 -86 0
-67 -79 -23 -55 -87 0
-67 -79 -23 55 87 0
-67 -79 23 -55 87 0
-67 -79 23 55 -87 0
-67 -79 -24 -56 -88 0
-67 -79 -24 56 88 0
-67 -79 24 -56 88 0
-67 -79 24 56 -88 0
-67 -80 -17 -57 -81 0
-67 -80 -17 57 81 0
-67 -80 17 -57 81 0
-67 -80 17 57 -81 0
-67 -80 -18 -58 -82 0
-67 -80 -18 58 82 0
-67 -80 18 -58 82 0
-67 -80 18 58 -82 0
-67 -80 -19 -59 -83 0
-67 -80 -19 59 83 0
-67 -80 19 -59 83 0
-67 -80 19 59 -83 0
-67 -80 -20 -60 -84 0
-67 -80 -20 60 84 0
-67 -80 20 -60 84 0
-67 -80 20 60 -84 0
-67 -80 -21 -61 -85 0
-67 -80 -21 61 85 0
-67 -80 21 -61 85 0
-67 -80 21 61 -85 0
-67 -80 -22 -62 -86 0
-67 -80 -22 62 86 0
-67 -80 22 -62 86 0
-67 -80 22 62 -86 0
-67 -80 -23 -63 -87 0
-67 -80 -23 63 87 0
-67 -80 23 -63 87 0
-67 -80 23 63 -87 0
-67 -80 -24 -64 -88 0
-67 -80 -24 64 88 0
-67 -80 24 -64 88 0
-67 -80 24 64 -88 0
-68 -77 -25 -33 -81 0
-68 -77 -25 33 81 0
-68 -77 25 -33 81 0
-68 -77 25 33 -81 0
-68 -77 -26 -34 -82 0
-68 -77 -26 34 82 0
-68 -77 26 -34 82 0
-68 -77 26 34 -82 0
-68 -77 -27 -35 -83 0
-68 -77 -27 35 83 0
-68 -77 27 -35 83 0
-68 -77 27 35 -83 0
-68 -77 -28 -36 -84 0
-68 -77 -28 36 84 0
-68 -77 28 -36 84 0
-68 -77 28 36 -84 0
-68 -77 -29 -37 -85 0
-68 -77 -29 37 85 0
-68 -77 29 -37 85 0
-68 -77 29 37 -85 0
-68 -77 -30 -38 -86 0
-68 -77 -30 38 86 0
-68 -77 30 -38 86 0
-68 -77 30 38 -86 0
-68 -77 -31 -39 -87 0
-68 -77 -31 39 87 0
-68 -77 31 -39 87 0
-68 -77 31 39 -87 0
-68 -77 -32 -40 -88 0
-68 -77 -32 40 88 0
-68 -77 32 -40 88 0
-68 -77 32 40 -88 0
-68 -78 -25 -41 -81 0
-68 -78 -25 41 81 0
-68 -78 25 -41 81 0
-68 -78 25 41 -81 0
-68 -78 -26 -42 -82 0
-68 -78 -26 42 82 0
-68 -78 26 -42 82 0
-68 -78 26 42 -82 0
-68 -78 -27 -43 -83 0
-68 -78 -27 43 83 0
-68 -78 27 -43 83 0
-68 -78 27 43 -83 0
-68 -78 -28 -44 -84 0
-68 -78 -28 44 84 0
-68 -78 28 -44 84 0
-68 -78 28 44 -84 0
-68 -78 -29 -45 -85 0
-68 -78 -29 45 85 0
-68 -78 29 -45 85 0
-68 -78 29 45 -85 0
-68 -78 -30 -46 -86 0
-68 -78 -30 46 86 0
-68 -78 30 -46 86 0
-68 -78 30 46 -86 0
-68 -78 -31 -47 -87 0
-68 -78 -31 47 87 0
-68 -78 31 -47 87 0
-68 -78 31 47 -87 0
-68 -78 -32 -48 -88 0
-68 -78 -32 48 88 0
-68 -78 32 -48 88 0
-68 -78 32 48 -88 0
-68 -79 -25 -49 -81 0
-68 -79 -25 49 81 0
-68 -79 25 -49 81 0
-68 -79 25 49 -81 0
-68 -79 -26 -50 -82 0
-68 -79 -26 50 82 0
-68 -79 26 -50 82 0
-68 -79 26 50 -82 0
-68 -79 -27 -51 -83 0
-68 -79 -27 51 83 0
-68 -79 27 -51 83 0
-68 -79 27 51 -83 0
-68 -79 -28 -52 -84 0
-68 -79 -28 52 84 0
-68 -79 28 -52 84 0
-68 -79 28 52 -84 0
-68 -79 -29 -53 -85 0
-68 -79 -29 53 85 0
-68 -79 29 -53 85 0
-68 -79 29 53 -85 0
-68 -79 -30 -54 -86 0
-68 -79 -30 54 86 0
-68 -79 30 -54 86 0
-68 -79 30 54 -86 0
-68 -79 -31 -55 -87 0
-68 -79 -31 55 87 0
-68 -79 31 -55 87 0
-68 -79 31 55 -87 0
-68 -79 -32 -56 -88 0
-68 -79 -32 56 88 0
-68 -79 32 -56 88 0
-68 -79 32 56 -88 0
-68 -80 -25 -57 -81 0
-68 -80 -25 57 81 0
-68 -80 25 -57 81 0
-68 -80 25 57 -81 0
-68 -80 -26 -58 -82 0
-68 -80 -26 58 82 0
-68 -80 26 -58 82 0
-68 -80 26 58 -82 0
-68 -80 -27 -59 -83 0
-68 -80 -27 59 83 0
-68 -80 27 -59 83 0
-68 -80 27 59 -83 0
-68 -80 -28 -60 -84 0
-68 -80 -28 60 84 0
-68 -80 28 -60 84 0
-68 -80 28 60 -84 0
-68 -80 -29 -61 -85 0
-68 -80 -29 61 85 0
-68 -80 29 -61 85 0
-68 -80 29 61 -85 0
-68 -80 -30 -62 -86 0
-68 -80 -30 62 86 0
-68 -80 30 -62 86 0
-68 -80 30 62 -86 0
-68 -80 -31 -63 -87 0
-68 -80 -31 63 87 0
-68 -80 31 -63 87 0
-68 -80 31 63 -87 0
-68 -80 -32 -64 -88 0
-68 -80 -32 64 88 0
-68 -80 32 -64 88 0
-68 -80 32 64 -88 0
-69 -78 -33 -41 -81 0
-69 -78 -33 41 81 0
-69 -78 33 -41 81 0
-69 -78 33 41 -81 0
-69 -78 -34 -42 -82 0
-69 -78 -34 42 82 0
-69 -78 34 -42 82 0
-69 -78 34 42 -82 0
-69 -78 -35 -43 -83 0
-69 -78 -35 43 83 0
-69 -78 35 -43 83 0
-69 -78 35 43 -83 0
-69 -78 -36 -44 -84 0
-69 -78 -36 44 84 0
-69 -78 36 -44 84 0
-69 -78 36 44 -84 0
-69 -78 -37 -45 -85 0
-69 -78 -37 45 85 0
-69 -78 37 -45 85 0
-69 -78 37 45 -85 0
-69 -78 -38 -46 -86 0
-69 -78 -38 46 86 0
-69 -78 38 -46 86 0
-69 -78 38 46 -86 0
-69 -78 -39 -47 -87 0
-69 -78 -39 47 87 0
-69 -78 39 -47 87 0
-69 -78 39 47 -87 0
-69 -78 -40 -48 -88 0
-69 -78 -40 48 88 0
-69 -78 40 -48 88 0
-69 -78 40 48 -88 0
-69 -79 -33 -49 -81 0
-69 -79 -33 49 81 0
-69 -79 33 -49 81 0
-69 -79 33 49 -81 0
-69 -79 -34 -50 -82 0
-69 -79 -34 50 82 0
-69 -79 34 -50 82 0
-69 -79 34 50 -82 0
-69 -79 -35 -51 -83 0
-69 -79 -35 51 83 0
-69 -79 35 -51 83 0
-69 -79 35 51 -83 0
-69 -79 -36 -52 -84 0
-69 -79 -36 52 84 0
-69 -79 36 -52 84 0
-69 -79 36 52 -84 0
-69 -79 -37 -53 -85 0
-69 -79 -37 53 85 0
-69 -79 37 -53 85 0
-69 -79 37 53 -85 0
-69 -79 -38 -54 -86 0
-69 -79 -38 54 86 0
-69 -79 38 -54 86 0
-69 -79 38 54 -86 0
-69 -79 -39 -55 -87 0
-69 -79 -39 55 87 0
-69 -79 39 -55 87 0
-69 -79 39 55 -87 0
-69 -79 -40 -56 -88 0
-69 -79 -40 56 88 0
-69 -79 40 -56 88 0
-69 -79 40 56 -88 0
-69 -80 -33 -57 -81 0
-69 -80 -33 57 81 0
-69 -80 33 -57 81 0
-69 -80 33 57 -81 0
-69 -80 -34 -58 -82 0
-69 -80 -34 58 82 0
-69 -80 34 -58 82 0
-69 -80 34 58 -82 0
-69 -80 -35 -59 -83 0
-69 -80 -35 59 83 0
-69 -80 35 -59 83 0
-69 -80 35 59 -83 0
-69 -80 -36 -60 -84 0
-69 -80 -36 60 84 0
-69 -80 36 -60 84 0
-69 -80 36 60 -84 0
-69 -80 -37 -61 -85 0
-69 -80 -37 61 85 0
-69 -80 37 -61 85 0
-69 -80 37 61 -85 0
-69 -80 -38 -62 -86 0
-69 -80 -38 62 86 0
-69 -80 38 -62 86 0
-69 -80 38 62 -86 0
-69 -80 -39 -63 -87 0
-69 -80 -39 63 87 0
-69 -80 39 -63 87 0
-69 -80 39 63 -87 0
-69 -80 -40 -64 -88 0
-69 -80 -40 64 88 0
-69 -80 40 -64 88 0
-69 -80 40 64 -88 0
-70 -79 -41 -49 -81 0
-70 -79 -41 49 81 0
-70 -79 41 -49 81 0
-70 -79 41 49 -81 0
-70 -79 -42 -50 -82 0
-70 -79 -42 50 82 0
-70 -79 42 -50 82 0
-70 -79 42 50 -82 0
-70 -79 -43 -51 -83 0
-70 -79 -43 51 83 0
-70 -79 43 -51 83 0
-70 -79 43 51 -83 0
-70 -79 -44 -52 -84 0
-70 -79 -44 52 84 0
-70 -79 44 -52 84 0
-70 -79 44 52 -84 0
-70 -79 -45 -53 -85 0
-70 -79 -45 53 85 0
-70 -79 45 -53 85 0
-70 -79 45 53 -85 0
-70 -79 -46 -54 -86 0
-70 -79 -46 54 86 0
-70 -79 46 -54 86 0
-70 -79 46 54 -86 0
-70 -79 -47 -55 -87 0
-70 -79 -47 55 87 0
-70 -79 47 -55 87 0
-70 -79 47 55 -87 0
-70 -79 -48 -56 -88 0
-70 -79 -48 56 88 0
-70 -79 48 -56 88 0
-70 -79 48 56 -88 0
-70 -80 -41 -57 -81 0
-70 -80 -41 57 81 0
-70 -80 41 -57 81 0
-70 -80 41 57 -81 0
-70 -80 -42 -58 -82 0
-70 -80 -42 58 82 0
-70 -80 42 -58 82 0
-70 -80 42 58 -82 0
-70 -80 -43 -59 -83 0
-70 -80 -43 59 83 0
-70 -80 43 -59 83 0
-70 -80 43 59 -83 0
-70 -80 -44 -60 -84 0
-70 -80 -44 60 84 0
-70 -80 44 -60 84 0
-70 -80 44 60 -84 0
-70 -80 -45 -61 -85 0
-70 -80 -45 61 85 0
-70 -80 45 -61 85 0
-70 -80 45 61 -85 0
-70 -80 -46 -62 -86 0
-70 -80 -46 62 86 0
-70 -80 46 -62 86 0
-70 -80 46 62 -86 0
-70 -80 -47 -63 -87 0
-70 -80 -47 63 87 0
-70 -80 47 -63 87 0
-70 -80 47 63 -87 0
-70 -80 -48 -64 -88 0
-70 -80 -48 64 88 0
-70 -80 48 -64 88 0
-70 -80 48 64 -88 0
-71 -80 -49 -57 -81 0
-71 -80 -49 57 81 0
-71 -80 49 -57 81 0
-71 -80 49 57 -81 0
-71 -80 -50 -58 -82 0
-71 -80 -50 58 82 0
-71 -80 50 -58 82 0
-71 -80 50 58 -82 0
-71 -80 -51 -59 -83 0
-71 -80 -51 59 83 0
-71 -80 51 -59 83 0
-71 -80 51 59 -83 0
-71 -80 -52 -60 -84 0
-71 -80 -52 60 84 0
-71 -80 52 -60 84 0
-71 -80 52 60 -84 0
-71 -80 -53 -61 -85 0
-71 -80 -53 61 85 0
-71 -80 53 -61 85 0
-71 -80 53 61 -85 0
-71 -80 -54 -62 -86 0
-71 -80 -54 62 86 0
-71 -80 54 -62 86 0
-71 -80 54 62 -86 0
-71 -80 -55 -63 -87 0
-71 -80 -55 63 87 0
-71 -80 55 -63 87 0
-71 -80 55 63 -87 0
-71 -80 -56 -64 -88 0
-71 -80 -56 64 88 0
-71 -80 56 -64 88 0
-71 -80 56 64 -88 0
81 82 83 84 85 86 87 88 0
89 90 91 92 93 94 95 96 97 0
-89 -90 0
-89 -91 0
-89 -92 0
-89 -93 0
-89 -94 0
-89 -95 0
-89 -96 0
-89 -97 0
-90 -91 0
-90 -92 0
-90 -93 0
-90 -94 0
-90 -95 0
-90 -96 0
-90 -97 0
-91 -92 0
-91 -93 0
-91 -94 0
-91 -95 0
-91 -96 0
-91 -97 0
-92 -93 0
-92 -94 0
-92 -95 0
-92 -96 0
-92 -97 0
-93 -94 0
-93 -95 0
-93 -96 0
-93 -97 0
-94 -95 0
-94 -96 0
-94 -97 0
-95 -96 0
-95 -97 0
-96 -97 0
98 99 100 101 102 103 104 105 106 0
-98 -99 0
-98 -100 0
-98 -101 0
-98 -102 0
-98 -103 0
-98 -104 0
-98 -105 0
-98 -106 0
-99 -100 0
-99 -101 0
-99 -102 0
-99 -103 0
-99 -104 0
-99 -105 0
-99 -106 0
-100 -101 0
-100 -102 0
-100 -103 0
-100 -104 0
-100 -105 0
-100 -106 0
-101 -102 0
-101 -103 0
-101 -104 0
-101 -105 0
-101 -106 0
-102 -103 0
-102 -104 0
-102 -105 0
-102 -106 0
-103 -104 0
-103 -105 0
-103 -106 0
-104 -105 0
-104 -106 0
-105 -106 0
-89 -98 0
-90 -98 0
-90 -99 0
-91 -98 0
-91 -99 0
-91 -100 0
-92 -98 0
-92 -99 0
-92 -100 0
-92 -101 0
-93 -98 0
-93 -99 0
-93 -100 0
-93 -101 0
-93 -102 0
-94 -98 0
-94 -99 0
-94 -100 0
-94 -101 0
-94 -102 0
-94 -103 0
-95 -98 0
-95 -99 0
-95 -100 0
-95 -101 0
-95 -102 0
-95 -103 0
-95 -104 0
-96 -98 0
-96 -99 0
-96 -100 0
-96 -101 0
-96 -102 0
-96 -103 0
-96 -104 0
-96 -105 0
-97 -98 0
-97 -99 0
-97 -100 0
-97 -101 0
-97 -102 0
-97 -103 0
-97 -104 0
-97 -105 0
-97 -106 0
-89 -99 -1 -9 -107 0
-89 -99 -1 9 107 0
-89 -99 1 -9 107 0
-89 -99 1 9 -107 0
-89 -99 -2 -10 -108 0
-89 -99 -2 10 108 0
-89 -99 2 -10 108 0
-89 -99 2 10 -108 0
-89 -99 -3 -11 -109 0
-89 -99 -3 11 109 0
-89 -99 3 -11 109 0
-89 -99 3 11 -109 0
-89 -99 -4 -12 -110 0
-89 -99 -4 12 110 0
-89 -99 4 -12 110 0
-89 -99 4 12 -110 0
-89 -99 -5 -13 -111 0
-89 -99 -5 13 111 0
-89 -99 5 -13 111 0
-89 -99 5 13 -111 0
-89 -99 -6 -14 -112 0
-89 -99 -6 14 112 0
-89 -99 6 -14 112 0
-89 -99 6 14 -112 0
-89 -99 -7 -15 -113 0
-89 -99 -7 15 113 0
-89 -99 7 -15 113 0
-89 -99 7 15 -113 0
-89 -99 -8 -16 -114 0
-89 -99 -8 16 114 0
-89 -99 8 -16 114 0
-89 -99 8 16 -114 0
-89 -100 -1 -17 -107 0
-89 -100 -1 17 107 0
-89 -100 1 -17 107 0
-89 -100 1 17 -107 0
-89 -100 -2 -18 -108 0
-89 -100 -2 18 108 0
-89 -100 2 -18 108 0
-89 -100 2 18 -108 0
-89 -100 -3 -19 -109 0
-89 -100 -3 19 109 0
-89 -100 3 -19 109 0
-89 -100 3 19 -109 0
-89 -100 -4 -20 -110 0
-89 -100 -4 20 110 0
-89 -100 4 -20 110 0
-89 -100 4 20 -110 0
-89 -100 -5 -21 -111 0
-89 -100 -5 21 111 0
-89 -100 5 -21 111 0
-89 -100 5 21 -111 0
-89 -100 -6 -22 -112 0
-89 -100 -6 22 112 0
-89 -100 6 -22 112 0
-89 -100 6 22 -112 0
-89 -100 -7 -23 -113 0
-89 -100 -7 23 113 0
-89 -100 7 -23 113 0
-89 -100 7 23 -113 0
-89 -100 -8 -24 -114 0
-89 -100 -8 24 114 0
-89 -100 8 -24 114 0
-89 -100 8 24 -114 0
-89 -101 -1 -25 -107 0
-89 -101 -1 25 107 0
-89 -101 1 -25 107 0
-89 -101 1 25 -107 0
-89 -101 -2 -26 -108 0
-89 -101 -2 26 108 0
-89 -101 2 -26 108 0
-89 -101 2 26 -108 0
-89 -101 -3 -27 -109 0
-89 -101 -3 27 109 0
-89 -101 3 -27 109 0
-89 -101 3 27 -109 0
-89 -101 -4 -28 -110 0
-89 -101 -4 28 110 0
-89 -101 4 -28 110 0
-89 -101 4 28 -110 0
-89 -101 -5 -29 -111 0
-89 -101 -5 29 111 0
-89 -101 5 -29 111 0
-89 -101 5 29 -111 0
-89 -101 -6 -30 -112 0
-89 -101 -6 30 112 0
-89 -101 6 -30 112 0
-89 -101 6 30 -112 0
-89 -101 -7 -31 -113 0
-89 -101 -7 31 113 0
-89 -101 7 -31 113 0
-89 -101 7 31 -113 0
-89 -101 -8 -32 -114 0
-89 -101 -8 32 114 0
-89 -101 8 -32 114 0
-89 -101 8 32 -114 0
-89 -102 -1 -33 -107 0
-89 -102 -1 33 107 0
-89 -102 1 -33 107 0
-89 -102 1 33 -107 0
-89 -102 -2 -34 -108 0
-89 -102 -2 34 108 0
-89 -102 2 -34 108 0
-89 -102 2 34 -108 0
-89 -102 -3 -35 -109 0
-89 -102 -3 35 109 0
-89 -102 3 -35 109 0
-89 -102 3 35 -109 0
-89 -102 -4 -36 -110 0
-89 -102 -4 36 110 0
-89 -102 4 -36 110 0
-89 -102 4 36 -110 0
-89 -102 -5 -37 -111 0
-89 -102 -5 37 111 0
-89 -102 5 -37 111 0
-89 -102 5 37 -111 0
-89 -102 -6 -38 -112 0
-89 -102 -6 38 112 0
-89 -102 6 -38 112 0
-89 -102 6 38 -112 0
-89 -102 -7 -39 -113 0
-89 -102 -7 39 113 0
-89 -102 7 -39 113 0
-89 -102 7 39 -113 0
-89 -102 -8 -40 -114 0
-89 -102 -8 40 114 0
-89 -102 8 -40 114 0
-89 -102 8 40 -114 0
-89 -103 -1 -41 -107 0
-89 -103 -1 41 107 0
-89 -103 1 -41 107 0
-89 -103 1 41 -107 0
-89 -103 -2 -42 -108 0
-89 -103 -2 42 108 0
-89 -103 2 -42 108 0
-89 -103 2 42 -108 0
-89 -103 -3 -43 -109 0
-89 -103 -3 43 109 0
-89 -103 3 -43 109 0
-89 -103 3 43 -109 0
-89 -103 -4 -44 -110 0
-89 -103 -4 44 110 0
-89 -103 4 -44 110 0
-89 -103 4 44 -110 0
-89 -103 -5 -45 -111 0
-89 -103 -5 45 111 0
-89 -103 5 -45 111 0
-89 -103 5 45 -111 0
-89 -103 -6 -46 -112 0
-89 -103 -6 46 112 0
-89 -103 6 -46 112 0
-89 -103 6 46 -112 0
-89 -103 -7 -47 -113 0
-89 -103 -7 47 113 0
-89 -103 7 -47 113 0
-89 -103 7 47 -113 0
-89 -103 -8 -48 -114 0
-89 -103 -8 48 114 0
-89 -103 8 -48 114 0
-89 -103 8 48 -114 0
-89 -104 -1 -49 -107 0
-89 -104 -1 49 107 0
-89 -104 1 -49 107 0
-89 -104 1 49 -107 0
-89 -104 -2 -50 -108 0
-89 -104 -2 50 108 0
-89 -104 2 -50 108 0
-89 -104 2 50 -108 0
-89 -104 -3 -51 -109 0
-89 -104 -3 51 109 0
-89 -104 3 -51 109 0
-89 -104 3 51 -109 0
-89 -104 -4 -52 -110 0
-89 -104 -4 52 110 0
-89 -104 4 -52 110 0
-89 -104 4 52 -110 0
-89 -104 -5 -53 -111 0
-89 -104 -5 53 111 0
-89 -104 5 -53 111 0
-89 -104 5 53 -111 0
-89 -104 -6 -54 -112 0
-89 -104 -6 54 112 0
-89 -104 6 -54 112 0
-89 -104 6 54 -112 0
-89 -104 -7 -55 -113 0
-89 -104 -7 55 113 0
-89 -104 7 -55 113 0
-89 -104 7 55 -113 0
-89 -104 -8 -56 -114 0
-89 -104 -8 56 114 0
-89 -104 8 -56 114 0
-89 -104 8 56 -114 0
-89 -105 -1 -57 -107 0
-89 -105 -1 57 107 0
-89 -105 1 -57 107 0
-89 -105 1 57 -107 0
-89 -105 -2 -58 -108 0
-89 -105 -2 58 108 0
-89 -105 2 -58 108 0
-89 -105 2 58 -108 0
-89 -105 -3 -59 -109 0
-89 -105 -3 59 109 0
-89 -105 3 -59 109 0
-89 -105 3 59 -109 0
-89 -105 -4 -60 -110 0
-89 -105 -4 60 110 0
-89 -105 4 -60 110 0
-89 -105 4 60 -110 0
-89 -105 -5 -61 -111 0
-89 -105 -5 61 111 0
-89 -105 5 -61 111 0
-89 -105 5 61 -111 0
-89 -105 -6 -62 -112 0
-89 -105 -6 62 112 0
-89 -105 6 -62 112 0
-89 -105 6 62 -112 0
-89 -105 -7 -63 -113 0
-89 -105 -7 63 113 0
-89 -105 7 -63 113 0
-89 -105 7 63 -113 0
-89 -105 -8 -64 -114 0
-89 -105 -8 64 114 0
-89 -105 8 -64 114 0
-89 -105 8 64 -114 0
-89 -106 -1 -81 -107 0
-89 -106 -1 81 107 0
-89 -106 1 -81 107 0
-89 -106 1 81 -107 0
-89 -106 -2 -82 -108 0
-89 -106 -2 82 108 0
-89 -106 2 -82 108 0
-89 -106 2 82 -108 0
-89 -106 -3 -83 -109 0
-89 -106 -3 83 109 0
-89 -106 3 -83 109 0
-89 -106 3 83 -109 0
-89 -106 -4 -84 -110 0
-89 -106 -4 84 110 0
-89 -106 4 -84 110 0
-89 -106 4 84 -110 0
-89 -106 -5 -85 -111 0
-89 -106 -5 85 111 0
-89 -106 5 -85 111 0
-89 -106 5 85 -111 0
-89 -106 -6 -86 -112 0
-89 -106 -6 86 112 0
-89 -106 6 -86 112 0
-89 -106 6 86 -112 0
-89 -106 -7 -87 -113 0
-89 -106 -7 87 113 0
-89 -106 7 -87 113 0
-89 -106 7 87 -113 0
-89 -106 -8 -88 -114 0
-89 -106 -8 88 114 0
-89 -106 8 -88 114 0
-89 -106 8 88 -114 0
-90 -100 -9 -17 -107 0
-90 -100 -9 17 107 0
-90 -100 9 -17 107 0
-90 -100 9 17 -107 0
-90 -100 -10 -18 -108 0
-90 -100 -10 18 108 0
-90 -100 10 -18 108 0
-90 -100 10 18 -108 0
-90 -100 -11 -19 -109 0
-90 -100 -11 19 109 0
-90 -100 11 -19 109 0
-90 -100 11 19 -109 0
-90 -100 -12 -20 -110 0
-90 -100 -12 20 110 0
-90 -100 12 -20 110 0
-90 -100 12 20 -110 0
-90 -100 -13 -21 -111 0
-90 -100 -13 21 111 0
-90 -100 13 -21 111 0
-90 -100 13 21 -111 0
-90 -100 -14 -22 -112 0
-90 -100 -14 22 112 0
-90 -100 14 -22 112 0
-90 -100 14 22 -112 0
-90 -100 -15 -23 -113 0
-90 -100 -15 23 113 0
-90 -100 15 -23 113 0
-90 -100 15 23 -113 0
-90 -100 -16 -24 -114 0
-90 -100 -16 24 114 0
-90 -100 16 -24 114 0
-90 -100 16 24 -114 0
-90 -101 -9 -25 -107 0
-90 -101 -9 25 107 0
-90 -101 9 -25 107 0
-90 -101 9 25 -107 0
-90 -101 -10 -26 -108 0
-90 -101 -10 26 108 0
-90 -101 10 -26 108 0
-90 -101 10 26 -108 0
-90 -101 -11 -27 -109 0
-90 -101 -11 27 109 0
-90 -101 11 -27 109 0
-90 -101 11 27 -109 0
-90 -101 -12 -28 -110 0
-90 -101 -12 28 110 0
-90 -101 12 -28 110 0
-90 -101 12 28 -110 0
-90 -101 -13 -29 -111 0
-90 -101 -13 29 111 0
-90 -101 13 -29 111 0
-90 -101 13 29 -111 0
-90 -101 -14 -30 -112 0
-90 -101 -14 30 112 0
-90 -101 14 -30 112 0
-90 -101 14 30 -112 0
-90 -101 -15 -31 -113 0
-90 -101 -15 31 113 0
-90 -101 15 -31 113 0
-90 -101 15 31 -113 0
-90 -101 -16 -32 -114 0
-90 -101 -16 32 114 0
-90 -101 16 -32 114 0
-90 -101 16 32 -114 0
-90 -102 -9 -33 -107 0
-90 -102 -9 33 107 0
-90 -102 9 -33 107 0
-90 -102 9 33 -107 0
-90 -102 -10 -34 -108 0
-90 -102 -10 34 108 0
-90 -102 10 -34 108 0
-90 -102 10 34 -108 0
-90 -102 -11 -35 -109 0
-90 -102 -11 35 109 0
-90 -102 11 -35 109 0
-90 -102 11 35 -109 0
-90 -102 -12 -36 -110 0
-90 -102 -12 36 110 0
-90 -102 12 -36 110 0
-90 -102 12 36 -110 0
-90 -102 -13 -37 -111 0
-90 -102 -13 37 111 0
-90 -102 13 -37 111 0
-90 -102 13 37 -111 0
-90 -102 -14 -38 -112 0
-90 -102 -14 38 112 0
-90 -102 14 -38 112 0
-90 -102 14 38 -112 0
-90 -102 -15 -39 -113 0
-90 -102 -15 39 113 0
-90 -102 15 -39 113 0
-90 -102 15 39 -113 0
-90 -102 -16 -40 -114 0
-90 -102 -16 40 114 0
-90 -102 16 -40 114 0
-90 -102 16 40 -114 0
-90 -103 -9 -41 -107 0
-90 -103 -9 41 107 0
-90 -103 9 -41 107 0
-90 -103 9 41 -107 0
-90 -103 -10 -42 -108 0
-90 -103 -10 42 108 0
-90 -103 10 -42 108 0
-90 -103 10 42 -108 0
-90 -103 -11 -43 -109 0
-90 -103 -11 43 109 0
-90 -103 11 -43 109 0
-90 -103 11 43 -109 0
-90 -103 -12 -44 -110 0
-90 -103 -12 44 110 0
-90 -103 12 -44 110 0
-90 -103 12 44 -110 0
-90 -103 -13 -45 -111 0
-90 -103 -13 45 111 0
-90 -103 13 -45 111 0
-90 -103 13 45 -111 0
-90 -103 -14 -46 -112 0
-90 -103 -14 46 112 0
-90 -103 14 -46 112 0
-90 -103 14 46 -112 0
-90 -103 -15 -47 -113 0
-90 -103 -15 47 113 0
-90 -103 15 -47 113 0
-90 -103 15 47 -113 0
-90 -103 -16 -48 -114 0
-90 -103 -16 48 114 0
-90 -103 16 -48 114 0
-90 -103 16 48 -114 0
-90 -104 -9 -49 -107 0
-90 -104 -9 49 107 0
-90 -104 9 -49 107 0
-90 -104 9 49 -107 0
-90 -104 -10 -50 -108 0
-90 -104 -10 50 108 0
-90 -104 10 -50 108 0
-90 -104 10 50 -108 0
-90 -104 -11 -51 -109 0
-90 -104 -11 51 109 0
-90 -104 11 -51 109 0
-90 -104 11 51 -109 0
-90 -104 -12 -52 -110 0
-90 -104 -12 52 110 0
-90 -104 12 -52 110 0
-90 -104 12 52 -110 0
-90 -104 -13 -53 -111 0
-90 -104 -13 53 111 0
-90 -104 13 -53 111 0
-90 -104 13 53 -111 0
-90 -104 -14 -54 -112 0
-90 -104 -14 54 112 0
-90 -104 14 -54 112 0
-90 -104 14 54 -112 0
-90 -104 -15 -55 -113 0
-90 -104 -15 55 113 0
-90 -104 15 -55 113 0
-90 -104 15 55 -113 0
-90 -104 -16 -56 -114 0
-90 -104 -16 56 114 0
-90 -104 16 -56 114 0
-90 -104 16 56 -114 0
-90 -105 -9 -57 -107 0
-90 -105 -9 57 107 0
-90 -105 9 -57 107 0
-90 -105 9 57 -107 0
-90 -105 -10 -58 -108 0
-90 -105 -10 58 108 0
-90 -105 10 -58 108 0
-90 -105 10 58 -108 0
-90 -105 -11 -59 -109 0
-90 -105 -11 59 109 0
-90 -105 11 -59 109 0
-90 -105 11 59 -109 0
-90 -105 -12 -60 -110 0
-90 -105 -12 60 110 0
-90 -105 12 -60 110 0
-90 -105 12 60 -110 0
-90 -105 -13 -61 -111 0
-90 -105 -13 61 111 0
-90 -105 13 -61 111 0
-90 -105 13 61 -111 0
-90 -105 -14 -62 -112 0
-90 -105 -14 62 112 0
-90 -105 14 -62 112 0
-90 -105 14 62 -112 0
-90 -105 -15 -63 -113 0
-90 -105 -15 63 113 0
-90 -105 15 -63 113 0
-90 -105 15 63 -113 0
-90 -105 -16 -64 -114 0
-90 -105 -16 64 114 0
-90 -105 16 -64 114 0
-90 -105 16 64 -114 0
-90 -106 -9 -81 -107 0
-90 -106 -9 81 107 0
-90 -106 9 -81 107 0
-90 -106 9 81 -107 0
-90 -106 -10 -82 -108 0
-90 -106 -10 82 108 0
-90 -106 10 -82 108 0
-90 -106 10 82 -108 0
-90 -106 -11 -83 -109 0
-90 -106 -11 83 109 0
-90 -106 11 -83 109 0
-90 -106 11 83 -109 0
-90 -106 -12 -84 -110 0
-90 -106 -12 84 110 0
-90 -106 12 -84 110 0
-90 -106 12 84 -110 0
-90 -106 -13 -85 -111 0
-90 -106 -13 85 111 0
-90 -106 13 -85 111 0
-90 -106 13 85 -111 0
-90 -106 -14 -86 -112 0
-90 -106 -14 86 112 0
-90 -106 14 -86 112 0
-90 -106 14 86 -112 0
-90 -106 -15 -87 -113 0
-90 -106 -15 87 113 0
-90 -106 15 -87 113 0
-90 -106 15 87 -113 0
-90 -106 -16 -88 -114 0
-90 -106 -16 88 114 0
-90 -106 16 -88 114 0
-90 -106 16 88 -114 0
-91 -101 -17 -25 -107 0
-91 -101 -17 25 107 0
-91 -101 17 -25 107 0
-91 -101 17 25 -107 0
-91 -101 -18 -26 -108 0
-91 -101 -18 26 108 0
-91 -101 18 -26 108 0
-91 -101 18 26 -108 0
-91 -101 -19 -27 -109 0
-91 -101 -19 27 109 0
-91 -101 19 -27 109 0
-91 -101 19 27 -109 0
-91 -101 -20 -28 -110 0
-91 -101 -20 28 110 0
-91 -101 20 -28 110 0
-91 -101 20 28 -110 0
-91 -101 -21 -29 -111 0
-91 -101 -21 29 111 0
-91 -101 21 -29 111 0
-91 -101 21 29 -111 0
-91 -101 -22 -30 -112 0
-91 -101 -22 30 112 0
-91 -101 22 -30 112 0
-91 -101 22 30 -112 0
-91 -101 -23 -31 -113 0
-91 -101 -23 31 113 0
-91 -101 23 -31 113 0
-91 -101 23 31 -113 0
-91 -101 -24 -32 -114 0
-91 -101 -24 32 114 0
-91 -101 24 -32 114 0
-91 -101 24 32 -114 0
-91 -102 -17 -33 -107 0
-91 -102 -17 33 107 0
-91 -102 17 -33 107 0
-91 -102 17 33 -107 0
-91 -102 -18 -34 -108 0
-91 -102 -18 34 108 0
-91 -102 18 -34 108 0
-91 -102 18 34 -108 0
-91 -102 -19 -35 -109 0
-91 -102 -19 35 109 0
-91 -102 19 -35 109 0
-91 -102 19 35 -109 0
-91 -102 -20 -36 -110 0
-91 -102 -20 36 110 0
-91 -102 20 -36 110 0
-91 -102 20 36 -110 0
-91 -102 -21 -37 -111 0
-91 -102 -21 37 111 0
-91 -102 21 -37 111 0
-91 -102 21 37 -111 0
-91 -102 -22 -38 -112 0
-91 -102 -22 38 112 0
-91 -102 22 -38 112 0
-91 -102 22 38 -112 0
-91 -102 -23 -39 -113 0
-91 -102 -23 39 113 0
-91 -102 23 -39 113 0
-91 -102 23 39 -113 0
-91 -102 -24 -40 -114 0
-91 -102 -24 40 114 0
-91 -102 24 -40 114 0
-91 -102 24 40 -114 0
-91 -103 -17 -41 -107 0
-91 -103 -17 41 107 0
-91 -103 17 -41 107 0
-91 -103 17 41 -107 0
-91 -103 -18 -42 -108 0
-91 -103 -18 42 108 0
-91 -103 18 -42 108 0
-91 -103 18 42 -108 0
-91 -103 -19 -43 -109 0
-91 -103 -19 43 109 0
-91 -103 19 -43 109 0
-91 -103 19 43 -109 0
-91 -103 -20 -44 -110 0
-91 -103 -20 44 110 0
-91 -103 20 -44 110 0
-91 -103 20 44 -110 0
-91 -103 -21 -45 -111 0
-91 -103 -21 45 111 0
-91 -103 21 -45 111 0
-91 -103 21 45 -111 0
-91 -103 -22 -46 -112 0
-91 -103 -22 46 112 0
-91 -103 22 -46 112 0
-91 -103 22 46 -112 0
-91 -103 -23 -47 -113 0
-91 -103 -23 47 113 0
-91 -103 23 -47 113 0
-91 -103 23 47 -113 0
-91 -103 -24 -48 -114 0
-91 -103 -24 48 114 0
-91 -103 24 -48 114 0
-91 -103 24 48 -114 0
-91 -104 -17 -49 -107 0
-91 -104 -17 49 107 0
-91 -104 17 -49 107 0
-91 -104 17 49 -107 0
-91 -104 -18 -50 -108 0
-91 -104 -18 50 108 0
-91 -104 18 -50 108 0
-91 -104 18 50 -108 0
-91 -104 -19 -51 -109 0
-91 -104 -19 51 109 0
-91 -104 19 -51 109 0
-91 -104 19 51 -109 0
-91 -104 -20 -52 -110 0
-91 -104 -20 52 110 0
-91 -104 20 -52 110 0
-91 -104 20 52 -110 0
-91 -104 -21 -53 -111 0
-91 -104 -21 53 111 0
-91 -104 21 -53 111 0
-91 -104 21 53 -111 0
-91 -104 -22 -54 -112 0
-91 -104 -22 54 112 0
-91 -104 22 -54 112 0
-91 -104 22 54 -112 0
-91 -104 -23 -55 -113 0
-91 -104 -23 55 113 0
-91 -104 23 -55 113 0
-91 -104 23 55 -113 0
-91 -104 -24 -56 -114 0
-91 -104 -24 56 114 0
-91 -104 24 -56 114 0
-91 -104 24 56 -114 0
-91 -105 -17 -57 -107 0
-91 -105 -17 57 107 0
-91 -105 17 -57 107 0
-91 -105 17 57 -107 0
-91 -105 -18 -58 -108 0
-91 -105 -18 58 108 0
-91 -105 18 -58 108 0
-91 -105 18 58 -108 0
-91 -105 -19 -59 -109 0
-91 -105 -19 59 109 0
-91 -105 19 -59 109 0
-91 -105 19 59 -109 0
-91 -105 -20 -60 -110 0
-91 -105 -20 60 110 0
-91 -105 20 -60 110 0
-91 -105 20 60 -110 0
-91 -105 -21 -61 -111 0
-91 -105 -21 61 111 0
-91 -105 21 -61 111 0
-91 -105 21 61 -111 0
-91 -105 -22 -62 -112 0
-91 -105 -22 62 112 0
-91 -105 22 -62 112 0
-91 -105 22 62 -112 0
-91 -105 -23 -63 -113 0
-91 -105 -23 63 113 0
-91 -105 23 -63 113 0
-91 -105 23 63 -113 0
-91 -105 -24 -64 -114 0
-91 -105 -24 64 114 0
-91 -105 24 -64 114 0
-91 -105 24 64 -114 0
-91 -106 -17 -81 -107 0
-91 -106 -17 81 107 0
-91 -106 17 -81 107 0
-91 -106 17 81 -107 0
-91 -106 -18 -82 -108 0
-91 -106 -18 82 108 0
-91 -106 18 -82 108 0
-91 -106 18 82 -108 0
-91 -106 -19 -83 -109 0
-91 -106 -19 83 109 0
-91 -106 19 -83 109 0
-91 -106 19 83 -109 0
-91 -106 -20 -84 -110 0
-91 -106 -20 84 110 0
-91 -106 20 -84 110 0
-91 -106 20 84 -110 0
-91 -106 -21 -85 -111 0
-91 -106 -21 85 111 0
-91 -106 21 -85 111 0
-91 -106 21 85 -111 0
-91 -106 -22 -86 -112 0
-91 -106 -22 86 112 0
-91 -106 22 -86 112 0
-91 -106 22 86 -112 0
-91 -106 -23 -87 -113 0
-91 -106 -23 87 113 0
-91 -106 23 -87 113 0
-91 -106 23 87 -113 0
-91 -106 -24 -88 -114 0
-91 -106 -24 88 114 0
-91 -106 24 -88 114 0
-91 -106 24 88 -114 0
-92 -102 -25 -33 -107 0
-92 -102 -25 33 107 0
-92 -102 25 -33 107 0
-92 -102 25 33 -107 0
-92 -102 -26 -34 -108 0
-92 -102 -26 34 108 0
-92 -102 26 -34 108 0
-92 -102 26 34 -108 0
-92 -102 -27 -35 -109 0
-92 -102 -27 35 109 0
-92 -102 27 -35 109 0
-92 -102 27 35 -109 0
-92 -102 -28 -36 -110 0
-92 -102 -28 36 110 0
-92 -102 28 -36 110 0
-92 -102 28 36 -110 0
-92 -102 -29 -37 -111 0
-92 -102 -29 37 111 0
-92 -102 29 -37 111 0
-92 -102 29 37 -111 0
-92 -102 -30 -38 -112 0
-92 -102 -30 38 112 0
-92 -102 30 -38 112 0
-92 -102 30 38 -112 0
-92 -102 -31 -39 -113 0
-92 -102 -31 39 113 0
-92 -102 31 -39 113 0
-92 -102 31 39 -113 0
-92 -102 -32 -40 -114 0
-92 -102 -32 40 114 0
-92 -102 32 -40 114 0
-92 -102 32 40 -114 0
-92 -103 -25 -41 -107 0
-92 -103 -25 41 107 0
-92 -103 25 -41 107 0
-92 -103 25 41 -107 0
-92 -103 -26 -42 -108 0
-92 -103 -26 42 108 0
-92 -103 26 -42 108 0
-92 -103 26 42 -108 0
-92 -103 -27 -43 -109 0
-92 -103 -27 43 109 0
-92 -103 27 -43 109 0
-92 -103 27 43 -109 0
-92 -103 -28 -44 -110 0
-92 -103 -28 44 110 0
-92 -103 28 -44 110 0
-92 -103 28 44 -110 0
-92 -103 -29 -45 -111 0
-92 -103 -29 45 111 0
-92 -103 29 -45 111 0
-92 -103 29 45 -111 0
-92 -103 -30 -46 -112 0
-92 -103 -30 46 112 0
-92 -103 30 -46 112 0
-92 -103 30 46 -112 0
-92 -103 -31 -47 -113 0
-92 -103 -31 47 113 0
-92 -103 31 -47 113 0
-92 -103 31 47 -113 0
-92 -103 -32 -48 -114 0
-92 -103 -32 48 114 0
-92 -103 32 -48 114 0
-92 -103 32 48 -114 0
-92 -104 -25 -49 -107 0
-92 -104 -25 49 107 0
-92 -104 25 -49 107 0
-92 -104 25 49 -107 0
-92 -104 -26 -50 -108 0
-92 -104 -26 50 108 0
-92 -104 26 -50 108 0
-92 -104 26 50 -108 0
-92 -104 -27 -51 -109 0
-92 -104 -27 51 109 0
-92 -104 27 -51 109 0
-92 -104 27 51 -109 0
-92 -104 -28 -52 -110 0
-92 -104 -28 52 110 0
-92 -104 28 -52 110 0
-92 -104 28 52 -110 0
-92 -104 -29 -53 -111 0
-92 -104 -29 53 111 0
-92 -104 29 -53 111 0
-92 -104 29 53 -111 0
-92 -104 -30 -54 -112 0
-92 -104 -30 54 112 0
-92 -104 30 -54 112 0
-92 -104 30 54 -112 0
-92 -104 -31 -55 -113 0
-92 -104 -31 55 113 0
-92 -104 31 -55 113 0
-92 -104 31 55 -113 0
-92 -104 -32 -56 -114 0
-92 -104 -32 56 114 0
-92 -104 32 -56 114 0
-92 -104 32 56 -114 0
-92 -105 -25 -57 -107 0
-92 -105 -25 57 107 0
-92 -105 25 -57 107 0
-92 -105 25 57 -107 0
-92 -105 -26 -58 -108 0
-92 -105 -26 58 108 0
-92 -105 26 -58 108 0
-92 -105 26 58 -108 0
-92 -105 -27 -59 -109 0
-92 -105 -27 59 109 0
-92 -105 27 -59 109 0
-92 -105 27 59 -109 0
-92 -105 -28 -60 -110 0
-92 -105 -28 60 110 0
-92 -105 28 -60 110 0
-92 -105 28 60 -110 0
-92 -105 -29 -61 -111 0
-92 -105 -29 61 111 0
-92 -105 29 -61 111 0
-92 -105 29 61 -111 0
-92 -105 -30 -62 -112 0
-92 -105 -30 62 112 0
-92 -105 30 -62 112 0
-92 -105 30 62 -112 0
-92 -105 -31 -63 -113 0
-92 -105 -31 63 113 0
-92 -105 31 -63 113 0
-92 -105 31 63 -113 0
-92 -105 -32 -64 -114 0
-92 -105 -32 64 114 0
-92 -105 32 -64 114 0
-92 -105 32 64 -114 0
-92 -106 -25 -81 -107 0
-92 -106 -25 81 107 0
-92 -106 25 -81 107 0
-92 -106 25 81 -107 0
-92 -106 -26 -82 -108 0
-92 -106 -26 82 108 0
-92 -106 26 -82 108 0
-92 -106 26 82 -108 0
-92 -106 -27 -83 -109 0
-92 -106 -27 83 109 0
-92 -106 27 -83 109 0
-92 -106 27 83 -109 0
-92 -106 -28 -84 -110 0
-92 -106 -28 84 110 0
-92 -106 28 -84 110 0
-92 -106 28 84 -110 0
-92 -106 -29 -85 -111 0
-92 -106 -29 85 111 0
-92 -106 29 -85 111 0
-92 -106 29 85 -111 0
-92 -106 -30 -86 -112 0
-92 -106 -30 86 112 0
-92 -106 30 -86 112 0
-92 -106 30 86 -112 0
-92 -106 -31 -87 -113 0
-92 -106 -31 87 113 0
-92 -106 31 -87 113 0
-92 -106 31 87 -113 0
-92 -106 -32 -88 -114 0
-92 -106 -32 88 114 0
-92 -106 32 -88 114 0
-92 -106 32 88 -114 0
-93 -103 -33 -41 -107 0
-93 -103 -33 41 107 0
-93 -103 33 -41 107 0
-93 -103 33 41 -107 0
-93 -103 -34 -42 -108 0
-93 -103 -34 42 108 0
-93 -103 34 -42 108 0
-93 -103 34 42 -108 0
-93 -103 -35 -43 -109 0
-93 -103 -35 43 109 0
-93 -103 35 -43 109 0
-93 -103 35 43 -109 0
-93 -103 -36 -44 -110 0
-93 -103 -36 44 110 0
-93 -103 36 -44 110 0
-93 -103 36 44 -110 0
-93 -103 -37 -45 -111 0
-93 -103 -37 45 111 0
-93 -103 37 -45 111 0
-93 -103 37 45 -111 0
-93 -103 -38 -46 -112 0
-93 -103 -38 46 112 0
-93 -103 38 -46 112 0
-93 -103 38 46 -112 0
-93 -103 -39 -47 -113 0
-93 -103 -39 47 113 0
-93 -103 39 -47 113 0
-93 -103 39 47 -113 0
-93 -103 -40 -48 -114 0
-93 -103 -40 48 114 0
-93 -103 40 -48 114 0
-93 -103 40 48 -114 0
-93 -104 -33 -49 -107 0
-93 -104 -33 49 107 0
-93 -104 33 -49 107 0
-93 -104 33 49 -107 0
-93 -104 -34 -50 -108 0
-93 -104 -34 50 108 0
-93 -104 34 -50 108 0
-93 -104 34 50 -108 0
-93 -104 -35 -51 -109 0
-93 -104 -35 51 109 0
-93 -104 35 -51 109 0
-93 -104 35 51 -109 0
-93 -104 -36 -52 -110 0
-93 -104 -36 52 110 0
-93 -104 36 -52 110 0
-93 -104 36 52 -110 0
-93 -104 -37 -53 -111 0
-93 -104 -37 53 111 0
-93 -104 37 -53 111 0
-93 -104 37 53 -111 0
-93 -104 -38 -54 -112 0
-93 -104 -38 54 112 0
-93 -104 38 -54 112 0
-93 -104 38 54 -112 0
-93 -104 -39 -55 -113 0
-93 -104 -39 55 113 0
-93 -104 39 -55 113 0
-93 -104 39 55 -113 0
-93 -104 -40 -56 -114 0
-93 -104 -40 56 114 0
-93 -104 40 -56 114 0
-93 -104 40 56 -114 0
-93 -105 -33 -57 -107 0
-93 -105 -33 57 107 0
-93 -105 33 -57 107 0
-93 -105 33 57 -107 0
-93 -105 -34 -58 -108 0
-93 -105 -34 58 108 0
-93 -105 34 -58 108 0
-93 -105 34 58 -108 0
-93 -105 -35 -59 -109 0
-93 -105 -35 59 109 0
-93 -105 35 -59 109 0
-93 -105 35 59 -109 0
-93 -105 -36 -60 -110 0
-93 -105 -36 60 110 0
-93 -105 36 -60 110 0
-93 -105 36 60 -110 0
-93 -105 -37 -61 -111 0
-93 -105 -37 61 111 0
-93 -105 37 -61 111 0
-93 -105 37 61 -111 0
-93 -105 -38 -62 -112 0
-93 -105 -38 62 112 0
-93 -105 38 -62 112 0
-93 -105 38 62 -112 0
-93 -105 -39 -63 -113 0
-93 -105 -39 63 113 0
-93 -105 39 -63 113 0
-93 -105 39 63 -113 0
-93 -105 -40 -64 -114 0
-93 -105 -40 64 114 0
-93 -105 40 -64 114 0
-93 -105 40 64 -114 0
-93 -106 -33 -81 -107 0
-93 -106 -33 81 107 0
-93 -106 33 -81 107 0
-93 -106 33 81 -107 0
-93 -106 -34 -82 -108 0
-93 -106 -34 82 108 0
-93 -106 34 -82 108 0
-93 -106 34 82 -108 0
-93 -106 -35 -83 -109 0
-93 -106 -35 83 109 0
-93 -106 35 -83 109 0
-93 -106 35 83 -109 0
-93 -106 -36 -84 -110 0
-93 -106 -36 84 110 0
-93 -106 36 -84 110 0
-93 -106 36 84 -110 0
-93 -106 -37 -85 -111 0
-93 -106 -37 85 111 0
-93 -106 37 -85 111 0
-93 -106 37 85 -111 0
-93 -106 -38 -86 -112 0
-93 -106 -38 86 112 0
-93 -106 38 -86 112 0
-93 -106 38 86 -112 0
-93 -106 -39 -87 -113 0
-93 -106 -39 87 113 0
-93 -106 39 -87 113 0
-93 -106 39 87 -113 0
-93 -106 -40 -88 -114 0
-93 -106 -40 88 114 0
-93 -106 40 -88 114 0
-93 -106 40 88 -114 0
-94 -104 -41 -49 -107 0
-94 -104 -41 49 107 0
-94 -104 41 -49 107 0
-94 -104 41 49 -107 0
-94 -104 -42 -50 -108 0
-94 -104 -42 50 108 0
-94 -104 42 -50 108 0
-94 -104 42 50 -108 0
-94 -104 -43 -51 -109 0
-94 -104 -43 51 109 0
-94 -104 43 -51 109 0
-94 -104 43 51 -109 0
-94 -104 -44 -52 -110 0
-94 -104 -44 52 110 0
-94 -104 44 -52 110 0
-94 -104 44 52 -110 0
-94 -104 -45 -53 -111 0
-94 -104 -45 53 111 0
-94 -104 45 -53 111 0
-94 -104 45 53 -111 0
-94 -104 -46 -54 -112 0
-94 -104 -46 54 112 0
-94 -104 46 -54 112 0
-94 -104 46 54 -112 0
-94 -104 -47 -55 -113 0
-94 -104 -47 55 113 0
-94 -104 47 -55 113 0
-94 -104 47 55 -113 0
-94 -104 -48 -56 -114 0
-94 -104 -48 56 114 0
-94 -104 48 -56 114 0
-94 -104 48 56 -114 0
-94 -105 -41 -57 -107 0
-94 -105 -41 57 107 0
-94 -105 41 -57 107 0
-94 -105 41 57 -107 0
-94 -105 -42 -58 -108 0
-94 -105 -42 58 108 0
-94 -105 42 -58 108 0
-94 -105 42 58 -108 0
-94 -105 -43 -59 -109 0
-94 -105 -43 59 109 0
-94 -105 43 -59 109 0
-94 -105 43 59 -109 0
-94 -105 -44 -60 -110 0
-94 -105 -44 60 110 0
-94 -105 44 -60 110 0
-94 -105 44 60 -110 0
-94 -105 -45 -61 -111 0
-94 -105 -45 61 111 0
-94 -105 45 -61 111 0
-94 -105 45 61 -111 0
-94 -105 -46 -62 -112 0
-94 -105 -46 62 112 0
-94 -105 46 -62 112 0
-94 -105 46 62 -112 0
-94 -105 -47 -63 -113 0
-94 -105 -47 63 113 0
-94 -105 47 -63 113 0
-94 -105 47 63 -113 0
-94 -105 -48 -64 -114 0
-94 -105 -48 64 114 0
-94 -105 48 -64 114 0
-94 -105 48 64 -114 0
-94 -106 -41 -81 -107 0
-94 -106 -41 81 107 0
-94 -106 41 -81 107 0
-94 -106 41 81 -107 0
-94 -106 -42 -82 -108 0
-94 -106 -42 82 108 0
-94 -106 42 -82 108 0
-94 -106 42 82 -108 0
-94 -106 -43 -83 -109 0
-94 -106 -43 83 109 0
-94 -106 43 -83 109 0
-94 -106 43 83 -109 0
-94 -106 -44 -84 -110 0
-94 -106 -44 84 110 0
-94 -106 44 -84 110 0
-94 -106 44 84 -110 0
-94 -106 -45 -85 -111 0
-94 -106 -45 85 111 0
-94 -106 45 -85 111 0
-94 -106 45 85 -111 0
-94 -106 -46 -86 -112 0
-94 -106 -46 86 112 0
-94 -106 46 -86 112 0
-94 -106 46 86 -112 0
-94 -106 -47 -87 -113 0
-94 -106 -47 87 113 0
-94 -106 47 -87 113 0
-94 -106 47 87 -113 0
-94 -106 -48 -88 -114 0
-94 -106 -48 88 114 0
-94 -106 48 -88 114 0
-94 -106 48 88 -114 0
-95 -105 -49 -57 -107 0
-95 -105 -49 57 107 0
-95 -105 49 -57 107 0
-95 -105 49 57 -107 0
-95 -105 -50 -58 -108 0
-95 -105 -50 58 108 0
-95 -105 50 -58 108 0
-95 -105 50 58 -108 0
-95 -105 -51 -59 -109 0
-95 -105 -51 59 109 0
-95 -105 51 -59 109 0
-95 -105 51 59 -109 0
-95 -105 -52 -60 -110 0
-95 -105 -52 60 110 0
-95 -105 52 -60 110 0
-95 -105 52 60 -110 0
-95 -105 -53 -61 -111 0
-95 -105 -53 61 111 0
-95 -105 53 -61 111 0
-95 -105 53 61 -111 0
-95 -105 -54 -62 -112 0
-95 -105 -54 62 112 0
-95 -105 54 -62 112 0
-95 -105 54 62 -112 0
-95 -105 -55 -63 -113 0
-95 -105 -55 63 113 0
-95 -105 55 -63 113 0
-95 -105 55 63 -113 0
-95 -105 -56 -64 -114 0
-95 -105 -56 64 114 0
-95 -105 56 -64 114 0
-95 -105 56 64 -114 0
-95 -106 -49 -81 -107 0
-95 -106 -49 81 107 0
-95 -106 49 -81 107 0
-95 -106 49 81 -107 0
-95 -106 -50 -82 -108 0
-95 -106 -50 82 108 0
-95 -106 50 -82 108 0
-95 -106 50 82 -108 0
-95 -106 -51 -83 -109 0
-95 -106 -51 83 109 0
-95 -106 51 -83 109 0
-95 -106 51 83 -109 0
-95 -106 -52 -84 -110 0
-95 -106 -52 84 110 0
-95 -106 52 -84 110 0
-95 -106 52 84 -110 0
-95 -106 -53 -85 -111 0
-95 -106 -53 85 111 0
-95 -106 53 -85 111 0
-95 -106 53 85 -111 0
-95 -106 -54 -86 -112 0
-95 -106 -54 86 112 0
-95 -106 54 -86 112 0
-95 -106 54 86 -112 0
-95 -106 -55 -87 -113 0
-95 -106 -55 87 113 0
-95 -106 55 -87 113 0
-95 -106 55 87 -113 0
-95 -106 -56 -88 -114 0
-95 -106 -56 88 114 0
-95 -106 56 -88 114 0
-95 -106 56 88 -114 0
-96 -106 -57 -81 -107 0
-96 -106 -57 81 107 0
-96 -106 57 -81 107 0
-96 -106 57 81 -107 0
-96 -106 -58 -82 -108 0
-96 -106 -58 82 108 0
-96 -106 58 -82 108 0
-96 -106 58 82 -108 0
-96 -106 -59 -83 -109 0
-96 -106 -59 83 109 0
-96 -106 59 -83 109 0
-96 -106 59 83 -109 0
-96 -106 -60 -84 -110 0
-96 -106 -60 84 110 0
-96 -106 60 -84 110 0
-96 -106 60 84 -110 0
-96 -106 -61 -85 -111 0
-96 -106 -61 85 111 0
-96 -106 61 -85 111 0
-96 -106 61 85 -111 0
-96 -106 -62 -86 -112 0
-96 -106 -62 86 112 0
-96 -106 62 -86 112 0
-96 -106 62 86 -112 0
-96 -106 -63 -87 -113 0
-96 -106 -63 87 113 0
-96 -106 63 -87 113 0
-96 -106 63 87 -113 0
-96 -106 -64 -88 -114 0
-96 -106 -64 88 114 0
-96 -106 64 -88 114 0
-96 -106 64 88 -114 0
107 108 109 110 111 112 113 114 0
115 116 117 118 119 120 121 122 123 124 0
-115 -116 0
-115 -117 0
-115 -118 0
-115 -119 0
-115 -120 0
-115 -121 0
-115 -122 0
-115 -123 0
-115 -124 0
-116 -117 0
-116 -118 0
-116 -119 0
-116 -120 0
-116 -121 0
-116 -122 0
-116 -123 0
-116 -124 0
-117 -118 0
-117 -119 0
-117 -120 0
-117 -121 0
-117 -122 0
-117 -123 0
-117 -124 0
-118 -119 0
-118 -120 0
-118 -121 0
-118 -122 0
-118 -123 0
-118 -124 0
-119 -120 0
-119 -121 0
-119 -122 0
-119 -123 0
-119 -124 0
-120 -121 0
-120 -122 0
-120 -123 0
-120 -124 0
-121 -122 0
-121 -123 0
-121 -124 0
-122 -123 0
-122 -124 0
-123 -124 0
125 126 127 128 129 130 131 132 133 134 0
-125 -126 0
-125 -127 0
-125 -128 0
-125 -129 0
-125 -130 0
-125 -131 0
-125 -132 0
-125 -133 0
-125 -134 0
-126 -127 0
-126 -128 0
-126 -129 0
-126 -130 0
-126 -131 0
-126 -132 0
-126 -133 0
-126 -134 0
-127 -128 0
-127 -129 0
-127 -130 0
-127 -131 0
-127 -132 0
-127 -133 0
-127 -134 0
-128 -129 0
-128 -130 0
-128 -131 0
-128 -132 0
-128 -133 0
-128 -134 0
-129 -130 0
-129 -131 0
-129 -132 0
-129 -133 0
-129 -134 0
-130 -131 0
-130 -132 0
-130 -133 0
-130 -134 0
-131 -132 0
-131 -133 0
-131 -134 0
-132 -133 0
-132 -134 0
-133 -134 0
-115 -125 0
-116 -125 0
-116 -126 0
-117 -125 0
-117 -126 0
-117 -127 0
-118 -125 0
-118 -126 0
-118 -127 0
-118 -128 0
-119 -125 0
-119 -126 0
-119 -127 0
-119 -128 0
-119 -129 0
-120 -125 0
-120 -126 0
-120 -127 0
-120 -128 0
-120 -129 0
-120 -130 0
-121 -125 0
-121 -126 0
-121 -127 0
-121 -128 0
-121 -129 0
-121 -130 0
-121 -131 0
-122 -125 0
-122 -126 0
-122 -127 0
-122 -128 0
-122 -129 0
-122 -130 0
-122 -131 0
-122 -132 0
-123 -125 0
-123 -126 0
-123 -127 0
-123 -128 0
-123 -129 0
-123 -130 0
-123 -131 0
-123 -132 0
-123 -133 0
-124 -125 0
-124 -126 0
-124 -127 0
-124 -128 0
-124 -129 0
-124 -130 0
-124 -131 0
-124 -132 0
-124 -133 0
-124 -134 0
-115 -126 -1 -9 -135 0
-115 -126 -1 9 135 0
-115 -126 1 -9 135 0
-115 -126 1 9 -135 0
-115 -126 -2 -10 -136 0
-115 -126 -2 10 136 0
-115 -126 2 -10 136 0
-115 -126 2 10 -136 0
-115 -126 -3 -11 -137 0
-115 -126 -3 11 137 0
-115 -126 3 -11 137 0
-115 -126 3 11 -137 0
-115 -126 -4 -12 -138 0
-115 -126 -4 12 138 0
-115 -126 4 -12 138 0
-115 -126 4 12 -138 0
-115 -126 -5 -13 -139 0
-115 -126 -5 13 139 0
-115 -126 5 -13 139 0
-115 -126 5 13 -139 0
-115 -126 -6 -14 -140 0
-115 -126 -6 14 140 0
-115 -126 6 -14 140 0
-115 -126 6 14 -140 0
-115 -126 -7 -15 -141 0
-115 -126 -7 15 141 0
-115 -126 7 -15 141 0
-115 -126 7 15 -141 0
-115 -126 -8 -16 -142 0
-115 -126 -8 16 142 0
-115 -126 8 -16 142 0
-115 -126 8 16 -142 0
-115 -127 -1 -17 -135 0
-115 -127 -1 17 135 0
-115 -127 1 -17 135 0
-115 -127 1 17 -135 0
-115 -127 -2 -18 -136 0
-115 -127 -2 18 136 0
-115 -127 2 -18 136 0
-115 -127 2 18 -136 0
-115 -127 -3 -19 -137 0
-115 -127 -3 19 137 0
-115 -127 3 -19 137 0
-115 -127 3 19 -137 0
-115 -127 -4 -20 -138 0
-115 -127 -4 20 138 0
-115 -127 4 -20 138 0
-115 -127 4 20 -138 0
-115 -127 -5 -21 -139 0
-115 -127 -5 21 139 0
-115 -127 5 -21 139 0
-115 -127 5 21 -139 0
-115 -127 -6 -22 -140 0
-115 -127 -6 22 140 0
-115 -127 6 -22 140 0
-115 -127 6 22 -140 0
-115 -127 -7 -23 -141 0
-115 -127 -7 23 141 0
-115 -127 7 -23 141 0
-115 -127 7 23 -141 0
-115 -127 -8 -24 -142 0
-115 -127 -8 24 142 0
-115 -127 8 -24 142 0
-115 -127 8 24 -142 0
-115 -128 -1 -25 -135 0
-115 -128 -1 25 135 0
-115 -128 1 -25 135 0
-115 -128 1 25 -135 0
-115 -128 -2 -26 -136 0
-115 -128 -2 26 136 0
-115 -128 2 -26 136 0
-115 -128 2 26 -136 0
-115 -128 -3 -27 -137 0
-115 -128 -3 27 137 0
-115 -128 3 -27 137 0
-115 -128 3 27 -137 0
-115 -128 -4 -28 -138 0
-115 -128 -4 28 138 0
-115 -128 4 -28 138 0
-115 -128 4 28 -138 0
-115 -128 -5 -29 -139 0
-115 -128 -5 29 139 0
-115 -128 5 -29 139 0
-115 -128 5 29 -139 0
-115 -128 -6 -30 -140 0
-115 -128 -6 30 140 0
-115 -128 6 -30 140 0
-115 -128 6 30 -140 0
-115 -128 -7 -31 -141 0
-115 -128 -7 31 141 0
-115 -128 7 -31 141 0
-115 -128 7 31 -141 0
-115 -128 -8 -32 -142 0
-115 -128 -8 32 142 0
-115 -128 8 -32 142 0
-115 -128 8 32 -142 0
-115 -129 -1 -33 -135 0
-115 -129 -1 33 135 0
-115 -129 1 -33 135 0
-115 -129 1 33 -135 0
-115 -129 -2 -34 -136 0
-115 -129 -2 34 136 0
-115 -129 2 -34 136 0
-115 -129 2 34 -136 0
-115 -129 -3 -35 -137 0
-115 -129 -3 35 137 0
-115 -129 3 -35 137 0
-115 -129 3 35 -137 0
-115 -129 -4 -36 -138 0
-115 -129 -4 36 138 0
-115 -129 4 -36 138 0
-115 -129 4 36 -138 0
-115 -129 -5 -37 -139 0
-115 -129 -5 37 139 0
-115 -129 5 -37 139 0
-115 -129 5 37 -139 0
-115 -129 -6 -38 -140 0
-115 -129 -6 38 140 0
-115 -129 6 -38 140 0
-115 -129 6 38 -140 0
-115 -129 -7 -39 -141 0
-115 -129 -7 39 141 0
-115 -129 7 -39 141 0
-115 -129 7 39 -141 0
-115 -129 -8 -40 -142 0
-115 -129 -8 40 142 0
-115 -129 8 -40 142 0
-115 -129 8 40 -142 0
-115 -130 -1 -41 -135 0
-115 -130 -1 41 135 0
-115 -130 1 -41 135 0
-115 -130 1 41 -135 0
-115 -130 -2 -42 -136 0
-115 -130 -2 42 136 0
-115 -130 2 -42 136 0
-115 -130 2 42 -136 0
-115 -130 -3 -43 -137 0
-115 -130 -3 43 137 0
-115 -130 3 -43 137 0
-115 -130 3 43 -137 0
-115 -130 -4 -44 -138 0
-115 -130 -4 44 138 0
-115 -130 4 -44 138 0
-115 -130 4 44 -138 0
-115 -130 -5 -45 -139 0
-115 -130 -5 45 139 0
-115 -130 5 -45 139 0
-115 -130 5 45 -139 0
-115 -130 -6 -46 -140 0
-115 -130 -6 46 140 0
-115 -130 6 -46 140 0
-115 -130 6 46 -140 0
-115 -130 -7 -47 -141 0
-115 -130 -7 47 141 0
-115 -130 7 -47 141 0
-115 -130 7 47 -141 0
-115 -130 -8 -48 -142 0
-115 -130 -8 48 142 0
-115 -130 8 -48 142 0
-115 -130 8 48 -142 0
-115 -131 -1 -49 -135 0
-115 -131 -1 49 135 0
-115 -131 1 -49 135 0
-115 -131 1 49 -135 0
-115 -131 -2 -50 -136 0
-115 -131 -2 50 136 0
-115 -131 2 -50 136 0
-115 -131 2 50 -136 0
-115 -131 -3 -51 -137 0
-115 -131 -3 51 137 0
-115 -131 3 -51 137 0
-115 -131 3 51 -137 0
-115 -131 -4 -52 -138 0
-115 -131 -4 52 138 0
-115 -131 4 -52 138 0
-115 -131 4 52 -138 0
-115 -131 -5 -53 -139 0
-115 -131 -5 53 139 0
-115 -131 5 -53 139 0
-115 -131 5 53 -139 0
-115 -131 -6 -54 -140 0
-115 -131 -6 54 140 0
-115 -131 6 -54 140 0
-115 -131 6 54 -140 0
-115 -131 -7 -55 -141 0
-115 -131 -7 55 141 0
-115 -131 7 -55 141 0
-115 -131 7 55 -141 0
-115 -131 -8 -56 -142 0
-115 -131 -8 56 142 0
-115 -131 8 -56 142 0
-115 -131 8 56 -142 0
-115 -132 -1 -57 -135 0
-115 -132 -1 57 135 0
-115 -132 1 -57 135 0
-115 -132 1 57 -135 0
-115 -132 -2 -58 -136 0
-115 -132 -2 58 136 0
-115 -132 2 -58 136 0
-115 -132 2 58 -136 0
-115 -132 -3 -59 -137 0
-115 -132 -3 59 137 0
-115 -132 3 -59 137 0
-115 -132 3 59 -137 0
-115 -132 -4 -60 -138 0
-115 -132 -4 60 138 0
-115 -132 4 -60 138 0
-115 -132 4 60 -138 0
-115 -132 -5 -61 -139 0
-115 -132 -5 61 139 0
-115 -132 5 -61 139 0
-115 -132 5 61 -139 0
-115 -132 -6 -62 -140 0
-115 -132 -6 62 140 0
-115 -132 6 -62 140 0
-115 -132 6 62 -140 0
-115 -132 -7 -63 -141 0
-115 -132 -7 63 141 0
-115 -132 7 -63 141 0
-115 -132 7 63 -141 0
-115 -132 -8 -64 -142 0
-115 -132 -8 64 142 0
-115 -132 8 -64 142 0
-115 -132 8 64 -142 0
-115 -133 -1 -81 -135 0
-115 -133 -1 81 135 0
-115 -133 1 -81 135 0
-115 -133 1 81 -135 0
-115 -133 -2 -82 -136 0
-115 -133 -2 82 136 0
-115 -133 2 -82 136 0
-115 -133 2 82 -136 0
-115 -133 -3 -83 -137 0
-115 -133 -3 83 137 0
-115 -133 3 -83 137 0
-115 -133 3 83 -137 0
-115 -133 -4 -84 -138 0
-115 -133 -4 84 138 0
-115 -133 4 -84 138 0
-115 -133 4 84 -138 0
-115 -133 -5 -85 -139 0
-115 -133 -5 85 139 0
-115 -133 5 -85 139 0
-115 -133 5 85 -139 0
-115 -133 -6 -86 -140 0
-115 -133 -6 86 140 0
-115 -133 6 -86 140 0
-115 -133 6 86 -140 0
-115 -133 -7 -87 -141 0
-115 -133 -7 87 141 0
-115 -133 7 -87 141 0
-115 -133 7 87 -141 0
-115 -133 -8 -88 -142 0
-115 -133 -8 88 142 0
-115 -133 8 -88 142 0
-115 -133 8 88 -142 0
-115 -134 -1 -107 -135 0
-115 -134 -1 107 135 0
-115 -134 1 -107 135 0
-115 -134 1 107 -135 0
-115 -134 -2 -108 -136 0
-115 -134 -2 108 136 0
-115 -134 2 -108 136 0
-115 -134 2 108 -136 0
-115 -134 -3 -109 -137 0
-115 -134 -3 109 137 0
-115 -134 3 -109 137 0
-115 -134 3 109 -137 0
-115 -134 -4 -110 -138 0
-115 -134 -4 110 138 0
-115 -134 4 -110 138 0
-115 -134 4 110 -138 0
-115 -134 -5 -111 -139 0
-115 -134 -5 111 139 0
-115 -134 5 -111 139 0
-115 -134 5 111 -139 0
-115 -134 -6 -112 -140 0
-115 -134 -6 112 140 0
-115 -134 6 -112 140 0
-115 -134 6 112 -140 0
-115 -134 -7 -113 -141 0
-115 -134 -7 113 141 0
-115 -134 7 -113 141 0
-115 -134 7 113 -141 0
-115 -134 -8 -114 -142 0
-115 -134 -8 114 142 0
-115 -134 8 -114 142 0
-115 -134 8 114 -142 0
-116 -127 -9 -17 -135 0
-116 -127 -9 17 135 0
-116 -127 9 -17 135 0
-116 -127 9 17 -135 0
-116 -127 -10 -18 -136 0
-116 -127 -10 18 136 0
-116 -127 10 -18 136 0
-116 -127 10 18 -136 0
-116 -127 -11 -19 -137 0
-116 -127 -11 19 137 0
-116 -127 11 -19 137 0
-116 -127 11 19 -137 0
-116 -127 -12 -20 -138 0
-116 -127 -12 20 138 0
-116 -127 12 -20 138 0
-116 -127 12 20 -138 0
-116 -127 -13 -21 -139 0
-116 -127 -13 21 139 0
-116 -127 13 -21 139 0
-116 -127 13 21 -139 0
-116 -127 -14 -22 -140 0
-116 -127 -14 22 140 0
-116 -127 14 -22 140 0
-116 -127 14 22 -140 0
-116 -127 -15 -23 -141 0
-116 -127 -15 23 141 0
-116 -127 15 -23 141 0
-116 -127 15 23 -141 0
-116 -127 -16 -24 -142 0
-116 -127 -16 24 142 0
-116 -127 16 -24 142 0
-116 -127 16 24 -142 0
-116 -128 -9 -25 -135 0
-116 -128 -9 25 135 0
-116 -128 9 -25 135 0
-116 -128 9 25 -135 0
-116 -128 -10 -26 -136 0
-116 -128 -10 26 136 0
-116 -128 10 -26 136 0
-116 -128 10 26 -136 0
-116 -128 -11 -27 -137 0
-116 -128 -11 27 137 0
-116 -128 11 -27 137 0
-116 -128 11 27 -137 0
-116 -128 -12 -28 -138 0
-116 -128 -12 28 138 0
-116 -128 12 -28 138 0
-116 -128 12 28 -138 0
-116 -128 -13 -29 -139 0
-116 -128 -13 29 139 0
-116 -128 13 -29 139 0
-116 -128 13 29 -139 0
-116 -128 -14 -30 -140 0
-116 -128 -14 30 140 0
-116 -128 14 -30 140 0
-116 -128 14 30 -140 0
-116 -128 -15 -31 -141 0
-116 -128 -15 31 141 0
-116 -128 15 -31 141 0
-116 -128 15 31 -141 0
-116 -128 -16 -32 -142 0
-116 -128 -16 32 142 0
-116 -128 16 -32 142 0
-116 -128 16 32 -142 0
-116 -129 -9 -33 -135 0
-116 -129 -9 33 135 0
-116 -129 9 -33 135 0
-116 -129 9 33 -135 0
-116 -129 -10 -34 -136 0
-116 -129 -10 34 136 0
-116 -129 10 -34 136 0
-116 -129 10 34 -136 0
-116 -129 -11 -35 -137 0
-116 -129 -11 35 137 0
-116 -129 11 -35 137 0
-116 -129 11 35 -137 0
-116 -129 -12 -36 -138 0
-116 -129 -12 36 138 0
-116 -129 12 -36 138 0
-116 -129 12 36 -138 0
-116 -129 -13 -37 -139 0
-116 -129 -13 37 139 0
-116 -129 13 -37 139 0
-116 -129 13 37 -139 0
-116 -129 -14 -38 -140 0
-116 -129 -14 38 140 0
-116 -129 14 -38 140 0
-116 -129 14 38 -140 0
-116 -129 -15 -39 -141 0
-116 -129 -15 39 141 0
-116 -129 15 -39 141 0
-116 -129 15 39 -141 0
-116 -129 -16 -40 -142 0
-116 -129 -16 40 142 0
-116 -129 16 -40 142 0
-116 -129 16 40 -142 0
-116 -130 -9 -41 -135 0
-116 -130 -9 41 135 0
-116 -130 9 -41 135 0
-116 -130 9 41 -135 0
-116 -130 -10 -42 -136 0
-116 -130 -10 42 136 0
-116 -130 10 -42 136 0
-116 -130 10 42 -136 0
-116 -130 -11 -43 -137 0
-116 -130 -11 43 137 0
-116 -130 11 -43 137 0
-116 -130 11 43 -137 0
-116 -130 -12 -44 -138 0
-116 -130 -12 44 138 0
-116 -130 12 -44 138 0
-116 -130 12 44 -138 0
-116 -130 -13 -45 -139 0
-116 -130 -13 45 139 0
-116 -130 13 -45 139 0
-116 -130 13 45 -139 0
-116 -130 -14 -46 -140 0
-116 -130 -14 46 140 0
-116 -130 14 -46 140 0
-116 -130 14 46 -140 0
-116 -130 -15 -47 -141 0
-116 -130 -15 47 141 0
-116 -130 15 -47 141 0
-116 -130 15 47 -141 0
-116 -130 -16 -48 -142 0
-116 -130 -16 48 142 0
-116 -130 16 -48 142 0
-116 -130 16 48 -142 0
-116 -131 -9 -49 -135 0
-116 -131 -9 49 135 0
-116 -131 9 -49 135 0
-116 -131 9 49 -135 0
-116 -131 -10 -50 -136 0
-116 -131 -10 50 136 0
-116 -131 10 -50 136 0
-116 -131 10 50 -136 0
-116 -131 -11 -51 -137 0
-116 -131 -11 51 137 0
-116 -131 11 -51 137 0
-116 -131 11 51 -137 0
-116 -131 -12 -52 -138 0
-116 -131 -12 52 138 0
-116 -131 12 -52 138 0
-116 -131 12 52 -138 0
-116 -131 -13 -53 -139 0
-116 -131 -13 53 139 0
-116 -131 13 -53 139 0
-116 -131 13 53 -139 0
-116 -131 -14 -54 -140 0
-116 -131 -14 54 140 0
-116 -131 14 -54 140 0
-116 -131 14 54 -140 0
-116 -131 -15 -55 -141 0
-116 -131 -15 55 141 0
-116 -131 15 -55 141 0
-116 -131 15 55 -141 0
-116 -131 -16 -56 -142 0
-116 -131 -16 56 142 0
-116 -131 16 -56 142 0
-116 -131 16 56 -142 0
-116 -132 -9 -57 -135 0
-116 -132 -9 57 135 0
-116 -132 9 -57 135 0
-116 -132 9 57 -135 0
-116 -132 -10 -58 -136 0
-116 -132 -10 58 136 0
-116 -132 10 -58 136 0
-116 -132 10 58 -136 0
-116 -132 -11 -59 -137 0
-116 -132 -11 59 137 0
-116 -132 11 -59 137 0
-116 -132 11 59 -137 0
-116 -132 -12 -60 -138 0
-116 -132 -12 60 138 0
-116 -132 12 -60 138 0
-116 -132 12 60 -138 0
-116 -132 -13 -61 -139 0
-116 -132 -13 61 139 0
-116 -132 13 -61 139 0
-116 -132 13 61 -139 0
-116 -132 -14 -62 -140 0
-116 -132 -14 62 140 0
-116 -132 14 -62 140 0
-116 -132 14 62 -140 0
-116 -132 -15 -63 -141 0
-116 -132 -15 63 141 0
-116 -132 15 -63 141 0
-116 -132 15 63 -141 0
-116 -132 -16 -64 -142 0
-116 -132 -16 64 142 0
-116 -132 16 -64 142 0
-116 -132 16 64 -142 0
-116 -133 -9 -81 -135 0
-116 -133 -9 81 135 0
-116 -133 9 -81 135 0
-116 -133 9 81 -135 0
-116 -133 -10 -82 -136 0
-116 -133 -10 82 136 0
-116 -133 10 -82 136 0
-116 -133 10 82 -136 0
-116 -133 -11 -83 -137 0
-116 -133 -11 83 137 0
-116 -133 11 -83 137 0
-116 -133 11 83 -137 0
-116 -133 -12 -84 -138 0
-116 -133 -12 84 138 0
-116 -133 12 -84 138 0
-116 -133 12 84 -138 0
-116 -133 -13 -85 -139 0
-116 -133 -13 85 139 0
-116 -133 13 -85 139 0
-116 -133 13 85 -139 0
-116 -133 -14 -86 -140 0
-116 -133 -14 86 140 0
-116 -133 14 -86 140 0
-116 -133 14 86 -140 0
-116 -133 -15 -87 -141 0
-116 -133 -15 87 141 0
-116 -133 15 -87 141 0
-116 -133 15 87 -141 0
-116 -133 -16 -88 -142 0
-116 -133 -16 88 142 0
-116 -133 16 -88 142 0
-116 -133 16 88 -142 0
-116 -134 -9 -107 -135 0
-116 -134 -9 107 135 0
-116 -134 9 -107 135 0
-116 -134 9 107 -135 0
-116 -134 -10 -108 -136 0
-116 -134 -10 108 136 0
-116 -134 10 -108 136 0
-116 -134 10 108 -136 0
-116 -134 -11 -109 -137 0
-116 -134 -11 109 137 0
-116 -134 11 -109 137 0
-116 -134 11 109 -137 0
-116 -134 -12 -110 -138 0
-116 -134 -12 110 138 0
-116 -134 12 -110 138 0
-116 -134 12 110 -138 0
-116 -134 -13 -111 -139 0
-116 -134 -13 111 139 0
-116 -134 13 -111 139 0
-116 -134 13 111 -139 0
-116 -134 -14 -112 -140 0
-116 -134 -14 112 140 0
-116 -134 14 -112 140 0
-116 -134 14 112 -140 0
-116 -134 -15 -113 -141 0
-116 -134 -15 113 141 0
-116 -134 15 -113 141 0
-116 -134 15 113 -141 0
-116 -134 -16 -114 -142 0
-116 -134 -16 114 142 0
-116 -134 16 -114 142 0
-116 -134 16 114 -142 0
-117 -128 -17 -25 -135 0
-117 -128 -17 25 135 0
-117 -128 17 -25 135 0
-117 -128 17 25 -135 0
-117 -128 -18 -26 -136 0
-117 -128 -18 26 136 0
-117 -128 18 -26 136 0
-117 -128 18 26 -136 0
-117 -128 -19 -27 -137 0
-117 -128 -19 27 137 0
-117 -128 19 -27 137 0
-117 -128 19 27 -137 0
-117 -128 -20 -28 -138 0
-117 -128 -20 28 138 0
-117 -128 20 -28 138 0
-117 -128 20 28 -138 0
-117 -128 -21 -29 -139 0
-117 -128 -21 29 139 0
-117 -128 21 -29 139 0
-117 -128 21 29 -139 0
-117 -128 -22 -30 -140 0
-117 -128 -22 30 140 0
-117 -128 22 -30 140 0
-117 -128 22 30 -140 0
-117 -128 -23 -31 -141 0
-117 -128 -23 31 141 0
-117 -128 23 -31 141 0
-117 -128 23 31 -141 0
-117 -128 -24 -32 -142 0
-117 -128 -24 32 142 0
-117 -128 24 -32 142 0
-117 -128 24 32 -142 0
-117 -129 -17 -33 -135 0
-117 -129 -17 33 135 0
-117 -129 17 -33 135 0
-117 -129 17 33 -135 0
-117 -129 -18 -34 -136 0
-117 -129 -18 34 136 0
-117 -129 18 -34 136 0
-117 -129 18 34 -136 0
-117 -129 -19 -35 -137 0
-117 -129 -19 35 137 0
-117 -129 19 -35 137 0
-117 -129 19 35 -137 0
-117 -129 -20 -36 -138 0
-117 -129 -20 36 138 0
-117 -129 20 -36 138 0
-117 -129 20 36 -138 0
-117 -129 -21 -37 -139 0
-117 -129 -21 37 139 0
-117 -129 21 -37 139 0
-117 -129 21 37 -139 0
-117 -129 -22 -38 -140 0
-117 -129 -22 38 140 0
-117 -129 22 -38 140 0
-117 -129 22 38 -140 0
-117 -129 -23 -39 -141 0
-117 -129 -23 39 141 0
-117 -129 23 -39 141 0
-117 -129 23 39 -141 0
-117 -129 -24 -40 -142 0
-117 -129 -24 40 142 0
-117 -129 24 -40 142 0
-117 -129 24 40 -142 0
-117 -130 -17 -41 -135 0
-117 -130 -17 41 135 0
-117 -130 17 -41 135 0
-117 -130 17 41 -135 0
-117 -130 -18 -42 -136 0
-117 -130 -18 42 136 0
-117 -130 18 -42 136 0
-117 -130 18 42 -136 0
-117 -130 -19 -43 -137 0
-117 -130 -19 43 137 0
-117 -130 19 -43 137 0
-117 -130 19 43 -137 0
-117 -130 -20 -44 -138 0
-117 -130 -20 44 138 0
-117 -130 20 -44 138 0
-117 -130 20 44 -138 0
-117 -130 -21 -45 -139 0
-117 -130 -21 45 139 0
-117 -130 21 -45 139 0
-117 -130 21 45 -139 0
-117 -130 -22 -46 -140 0
-117 -130 -22 46 140 0
-117 -130 22 -46 140 0
-117 -130 22 46 -140 0
-117 -130 -23 -47 -141 0
-117 -130 -23 47 141 0
-117 -130 23 -47 141 0
-117 -130 23 47 -141 0
-117 -130 -24 -48 -142 0
-117 -130 -24 48 142 0
-117 -130 24 -48 142 0
-117 -130 24 48 -142 0
-117 -131 -17 -49 -135 0
-117 -131 -17 49 135 0
-117 -131 17 -49 135 0
-117 -131 17 49 -135 0
-117 -131 -18 -50 -136 0
-117 -131 -18 50 136 0
-117 -131 18 -50 136 0
-117 -131 18 50 -136 0
-117 -131 -19 -51 -137 0
-117 -131 -19 51 137 0
-117 -131 19 -51 137 0
-117 -131 19 51 -137 0
-117 -131 -20 -52 -138 0
-117 -131 -20 52 138 0
-117 -131 20 -52 138 0
-117 -131 20 52 -138 0
-117 -131 -21 -53 -139 0
-117 -131 -21 53 139 0
-117 -131 21 -53 139 0
-117 -131 21 53 -139 0
-117 -131 -22 -54 -140 0
-117 -131 -22 54 140 0
-117 -131 22 -54 140 0
-117 -131 22 54 -140 0
-117 -131 -23 -55 -141 0
-117 -131 -23 55 141 0
-117 -131 23 -55 141 0
-117 -131 23 55 -141 0
-117 -131 -24 -56 -142 0
-117 -131 -24 56 142 0
-117 -131 24 -56 142 0
-117 -131 24 56 -142 0
-117 -132 -17 -57 -135 0
-117 -132 -17 57 135 0
-117 -132 17 -57 135 0
-117 -132 17 57 -135 0
-117 -132 -18 -58 -136 0
-117 -132 -18 58 136 0
-117 -132 18 -58 136 0
-117 -132 18 58 -136 0
-117 -132 -19 -59 -137 0
-117 -132 -19 59 137 0
-117 -132 19 -59 137 0
-117 -132 19 59 -137 0
-117 -132 -20 -60 -138 0
-117 -132 -20 60 138 0
-117 -132 20 -60 138 0
-117 -132 20 60 -138 0
-117 -132 -21 -61 -139 0
-117 -132 -21 61 139 0
-117 -132 21 -61 139 0
-117 -132 21 61 -139 0
-117 -132 -22 -62 -140 0
-117 -132 -22 62 140 0
-117 -132 22 -62 140 0
-117 -132 22 62 -140 0
-117 -132 -23 -63 -141 0
-117 -132 -23 63 141 0
-117 -132 23 -63 141 0
-117 -132 23 63 -141 0
-117 -132 -24 -64 -142 0
-117 -132 -24 64 142 0
-117 -132 24 -64 142 0
-117 -132 24 64 -142 0
-117 -133 -17 -81 -135 0
-117 -133 -17 81 135 0
-117 -133 17 -81 135 0
-117 -133 17 81 -135 0
-117 -133 -18 -82 -136 0
-117 -133 -18 82 136 0
-117 -133 18 -82 136 0
-117 -133 18 82 -136 0
-117 -133 -19 -83 -137 0
-117 -133 -19 83 137 0
-117 -133 19 -83 137 0
-117 -133 19 83 -137 0
-117 -133 -20 -84 -138 0
-117 -133 -20 84 138 0
-117 -133 20 -84 138 0
-117 -133 20 84 -138 0
-117 -133 -21 -85 -139 0
-117 -133 -21 85 139 0
-117 -133 21 -85 139 0
-117 -133 21 85 -139 0
-117 -133 -22 -86 -140 0
-117 -133 -22 86 140 0
-117 -133 22 -86 140 0
-117 -133 22 86 -140 0
-117 -133 -23 -87 -141 0
-117 -133 -23 87 141 0
-117 -133 23 -87 141 0
-117 -133 23 87 -141 0
-117 -133 -24 -88 -142 0
-117 -133 -24 88 142 0
-117 -133 24 -88 142 0
-117 -133 24 88 -142 0
-117 -134 -17 -107 -135 0
-117 -134 -17 107 135 0
-117 -134 17 -107 135 0
-117 -134 17 107 -135 0
-117 -134 -18 -108 -136 0
-117 -134 -18 108 136 0
-117 -134 18 -108 136 0
-117 -134 18 108 -136 0
-117 -134 -19 -109 -137 0
-117 -134 -19 109 137 0
-117 -134 19 -109 137 0
-117 -134 19 109 -137 0
-117 -134 -20 -110 -138 0
-117 -134 -20 110 138 0
-117 -134 20 -110 138 0
-117 -134 20 110 -138 0
-117 -134 -21 -111 -139 0
-117 -134 -21 111 139 0
-117 -134 21 -111 139 0
-117 -134 21 111 -139 0
-117 -134 -22 -112 -140 0
-117 -134 -22 112 140 0
-117 -134 22 -112 140 0
-117 -134 22 112 -140 0
-117 -134 -23 -113 -141 0
-117 -134 -23 113 141 0
-117 -134 23 -113 141 0
-117 -134 23 113 -141 0
-117 -134 -24 -114 -142 0
-117 -134 -24 114 142 0
-117 -134 24 -114 142 0
-117 -134 24 114 -142 0
-118 -129 -25 -33 -135 0
-118 -129 -25 33 135 0
-118 -129 25 -33 135 0
-118 -129 25 33 -135 0
-118 -129 -26 -34 -136 0
-118 -129 -26 34 136 0
-118 -129 26 -34 136 0
-118 -129 26 34 -136 0
-118 -129 -27 -35 -137 0
-118 -129 -27 35 137 0
-118 -129 27 -35 137 0
-118 -129 27 35 -137 0
-118 -129 -28 -36 -138 0
-118 -129 -28 36 138 0
-118 -129 28 -36 138 0
-118 -129 28 36 -138 0
-118 -129 -29 -37 -139 0
-118 -129 -29 37 139 0
-118 -129 29 -37 139 0
-118 -129 29 37 -139 0
-118 -129 -30 -38 -140 0
-118 -129 -30 38 140 0
-118 -129 30 -38 140 0
-118 -129 30 38 -140 0
-118 -129 -31 -39 -141 0
-118 -129 -31 39 141 0
-118 -129 31 -39 141 0
-118 -129 31 39 -141 0
-118 -129 -32 -40 -142 0
-118 -129 -32 40 142 0
-118 -129 32 -40 142 0
-118 -129 32 40 -142 0
-118 -130 -25 -41 -135 0
-118 -130 -25 41 135 0
-118 -130 25 -41 135 0
-118 -130 25 41 -135 0
-118 -130 -26 -42 -136 0
-118 -130 -26 42 136 0
-118 -130 26 -42 136 0
-118 -130 26 42 -136 0
-118 -130 -27 -43 -137 0
-118 -130 -27 43 137 0
-118 -130 27 -43 137 0
-118 -130 27 43 -137 0
-118 -130 -28 -44 -138 0
-118 -130 -28 44 138 0
-118 -130 28 -44 138 0
-118 -130 28 44 -138 0
-118 -130 -29 -45 -139 0
-118 -130 -29 45 139 0
-118 -130 29 -45 139 0
-118 -130 29 45 -139 0
-118 -130 -30 -46 -140 0
-118 -130 -30 46 140 0
-118 -130 30 -46 140 0
-118 -130 30 46 -140 0
-118 -130 -31 -47 -141 0
-118 -130 -31 47 141 0
-118 -130 31 -47 141 0
-118 -130 31 47 -141 0
-118 -130 -32 -48 -142 0
-118 -130 -32 48 142 0
-118 -130 32 -48 142 0
-118 -130 32 48 -142 0
-118 -131 -25 -49 -135 0
-118 -131 -25 49 135 0
-118 -131 25 -49 135 0
-118 -131 25 49 -135 0
-118 -131 -26 -50 -136 0
-118 -131 -26 50 136 0
-118 -131 26 -50 136 0
-118 -131 26 50 -136 0
-118 -131 -27 -51 -137 0
-118 -131 -27 51 137 0
-118 -131 27 -51 137 0
-118 -131 27 51 -137 0
-118 -131 -28 -52 -138 0
-118 -131 -28 52 138 0
-118 -131 28 -52 138 0
-118 -131 28 52 -138 0
-118 -131 -29 -53 -139 0
-118 -131 -29 53 139 0
-118 -131 29 -53 139 0
-118 -131 29 53 -139 0
-118 -131 -30 -54 -140 0
-118 -131 -30 54 140 0
-118 -131 30 -54 140 0
-118 -131 30 54 -140 0
-118 -131 -31 -55 -141 0
-118 -131 -31 55 141 0
-118 -131 31 -55 141 0
-118 -131 31 55 -141 0
-118 -131 -32 -56 -142 0
-118 -131 -32 56 142 0
-118 -131 32 -56 142 0
-118 -131 32 56 -142 0
-118 -132 -25 -57 -135 0
-118 -132 -25 57 135 0
-118 -132 25 -57 135 0
-118 -132 25 57 -135 0
-118 -132 -26 -58 -136 0
-118 -132 -26 58 136 0
-118 -132 26 -58 136 0
-118 -132 26 58 -136 0
-118 -132 -27 -59 -137 0
-118 -132 -27 59 137 0
-118 -132 27 -59 137 0
-118 -132 27 59 -137 0
-118 -132 -28 -60 -138 0
-118 -132 -28 60 138 0
-118 -132 28 -60 138 0
-118 -132 28 60 -138 0
-118 -132 -29 -61 -139 0
-118 -132 -29 61 139 0
-118 -132 29 -61 139 0
-118 -132 29 61 -139 0
-118 -132 -30 -62 -140 0
-118 -132 -30 62 140 0
-118 -132 30 -62 140 0
-118 -132 30 62 -140 0
-118 -132 -31 -63 -141 0
-118 -132 -31 63 141 0
-118 -132 31 -63 141 0
-118 -132 31 63 -141 0
-118 -132 -32 -64 -142 0
-118 -132 -32 64 142 0
-118 -132 32 -64 142 0
-118 -132 32 64 -142 0
-118 -133 -25 -81 -135 0
-118 -133 -25 81 135 0
-118 -133 25 -81 135 0
-118 -133 25 81 -135 0
-118 -133 -26 -82 -136 0
-118 -133 -26 82 136 0
-118 -133 26 -82 136 0
-118 -133 26 82 -136 0
-118 -133 -27 -83 -137 0
-118 -133 -27 83 137 0
-118 -133 27 -83 137 0
-118 -133 27 83 -137 0
-118 -133 -28 -84 -138 0
-118 -133 -28 84 138 0
-118 -133 28 -84 138 0
-118 -133 28 84 -138 0
-118 -133 -29 -85 -139 0
-118 -133 -29 85 139 0
-118 -133 29 -85 139 0
-118 -133 29 85 -139 0
-118 -133 -30 -86 -140 0
-118 -133 -30 86 140 0
-118 -133 30 -86 140 0
-118 -133 30 86 -140 0
-118 -133 -31 -87 -141 0
-118 -133 -31 87 141 0
-118 -133 31 -87 141 0
-118 -133 31 87 -141 0
-118 -133 -32 -88 -142 0
-118 -133 -32 88 142 0
-118 -133 32 -88 142 0
-118 -133 32 88 -142 0
-118 -134 -25 -107 -135 0
-118 -134 -25 107 135 0
-118 -134 25 -107 135 0
-118 -134 25 107 -135 0
-118 -134 -26 -108 -136 0
-118 -134 -26 108 136 0
-118 -134 26 -108 136 0
-118 -134 26 108 -136 0
-118 -134 -27 -109 -137 0
-118 -134 -27 109 137 0
-118 -134 27 -109 137 0
-118 -134 27 109 -137 0
-118 -134 -28 -110 -138 0
-118 -134 -28 110 138 0
-118 -134 28 -110 138 0
-118 -134 28 110 -138 0
-118 -134 -29 -111 -139 0
-118 -134 -29 111 139 0
-118 -134 29 -111 139 0
-118 -134 29 111 -139 0
-118 -134 -30 -112 -140 0
-118 -134 -30 112 140 0
-118 -134 30 -112 140 0
-118 -134 30 112 -140 0
-118 -134 -31 -113 -141 0
-118 -134 -31 113 141 0
-118 -134 31 -113 141 0
-118 -134 31 113 -141 0
-118 -134 -32 -114 -142 0
-118 -134 -32 114 142 0
-118 -134 32 -114 142 0
-118 -134 32 114 -142 0
-119 -130 -33 -41 -135 0
-119 -130 -33 41 135 0
-119 -130 33 -41 135 0
-119 -130 33 41 -135 0
-119 -130 -34 -42 -136 0
-119 -130 -34 42 136 0
-119 -130 34 -42 136 0
-119 -130 34 42 -136 0
-119 -130 -35 -43 -137 0
-119 -130 -35 43 137 0
-119 -130 35 -43 137 0
-119 -130 35 43 -137 0
-119 -130 -36 -44 -138 0
-119 -130 -36 44 138 0
-119 -130 36 -44 138 0
-119 -130 36 44 -138 0
-119 -130 -37 -45 -139 0
-119 -130 -37 45 139 0
-119 -130 37 -45 139 0
-119 -130 37 45 -139 0
-119 -130 -38 -46 -140 0
-119 -130 -38 46 140 0
-119 -130 38 -46 140 0
-119 -130 38 46 -140 0
-119 -130 -39 -47 -141 0
-119 -130 -39 47 141 0
-119 -130 39 -47 141 0
-119 -130 39 47 -141 0
-119 -130 -40 -48 -142 0
-119 -130 -40 48 142 0
-119 -130 40 -48 142 0
-119 -130 40 48 -142 0
-119 -131 -33 -49 -135 0
-119 -131 -33 49 135 0
-119 -131 33 -49 135 0
-119 -131 33 49 -135 0
-119 -131 -34 -50 -136 0
-119 -131 -34 50 136 0
-119 -131 34 -50 136 0
-119 -131 34 50 -136 0
-119 -131 -35 -51 -137 0
-119 -131 -35 51 137 0
-119 -131 35 -51 137 0
-119 -131 35 51 -137 0
-119 -131 -36 -52 -138 0
-119 -131 -36 52 138 0
-119 -131 36 -52 138 0
-119 -131 36 52 -138 0
-119 -131 -37 -53 -139 0
-119 -131 -37 53 139 0
-119 -131 37 -53 139 0
-119 -131 37 53 -139 0
-119 -131 -38 -54 -140 0
-119 -131 -38 54 140 0
-119 -131 38 -54 140 0
-119 -131 38 54 -140 0
-119 -131 -39 -55 -141 0
-119 -131 -39 55 141 0
-119 -131 39 -55 141 0
-119 -131 39 55 -141 0
-119 -131 -40 -56 -142 0
-119 -131 -40 56 142 0
-119 -131 40 -56 142 0
-119 -131 40 56 -142 0
-119 -132 -33 -57 -135 0
-119 -132 -33 57 135 0
-119 -132 33 -57 135 0
-119 -132 33 57 -135 0
-119 -132 -34 -58 -136 0
-119 -132 -34 58 136 0
-119 -132 34 -58 136 0
-119 -132 34 58 -136 0
-119 -132 -35 -59 -137 0
-119 -132 -35 59 137 0
-119 -132 35 -59 137 0
-119 -132 35 59 -137 0
-119 -132 -36 -60 -138 0
-119 -132 -36 60 138 0
-119 -132 36 -60 138 0
-119 -132 36 60 -138 0
-119 -132 -37 -61 -139 0
-119 -132 -37 61 139 0
-119 -132 37 -61 139 0
-119 -132 37 61 -139 0
-119 -132 -38 -62 -140 0
-119 -132 -38 62 140 0
-119 -132 38 -62 140 0
-119 -132 38 62 -140 0
-119 -132 -39 -63 -141 0
-119 -132 -39 63 141 0
-119 -132 39 -63 141 0
-119 -132 39 63 -141 0
-119 -132 -40 -64 -142 0
-119 -132 -40 64 142 0
-119 -132 40 -64 142 0
-119 -132 40 64 -142 0
-119 -133 -33 -81 -135 0
-119 -133 -33 81 135 0
-119 -133 33 -81 135 0
-119 -133 33 81 -135 0
-119 -133 -34 -82 -136 0
-119 -133 -34 82 136 0
-119 -133 34 -82 136 0
-119 -133 34 82 -136 0
-119 -133 -35 -83 -137 0
-119 -133 -35 83 137 0
-119 -133 35 -83 137 0
-119 -133 35 83 -137 0
-119 -133 -36 -84 -138 0
-119 -133 -36 84 138 0
-119 -133 36 -84 138 0
-119 -133 36 84 -138 0
-119 -133 -37 -85 -139 0
-119 -133 -37 85 139 0
-119 -133 37 -85 139 0
-119 -133 37 85 -139 0
-119 -133 -38 -86 -140 0
-119 -133 -38 86 140 0
-119 -133 38 -86 140 0
-119 -133 38 86 -140 0
-119 -133 -39 -87 -141 0
-119 -133 -39 87 141 0
-119 -133 39 -87 141 0
-119 -133 39 87 -141 0
-119 -133 -40 -88 -142 0
-119 -133 -40 88 142 0
-119 -133 40 -88 142 0
-119 -133 40 88 -142 0
-119 -134 -33 -107 -135 0
-119 -134 -33 107 135 0
-119 -134 33 -107 135 0
-119 -134 33 107 -135 0
-119 -134 -34 -108 -136 0
-119 -134 -34 108 136 0
-119 -134 34 -108 136 0
-119 -134 34 108 -136 0
-119 -134 -35 -109 -137 0
-119 -134 -35 109 137 0
-119 -134 35 -109 137 0
-119 -134 35 109 -137 0
-119 -134 -36 -110 -138 0
-119 -134 -36 110 138 0
-119 -134 36 -110 138 0
-119 -134 36 110 -138 0
-119 -134 -37 -111 -139 0
-119 -134 -37 111 139 0
-119 -134 37 -111 139 0
-119 -134 37 111 -139 0
-119 -134 -38 -112 -140 0
-119 -134 -38 112 140 0
-119 -134 38 -112 140 0
-119 -134 38 112 -140 0
-119 -134 -39 -113 -141 0
-119 -134 -39 113 141 0
-119 -134 39 -113 141 0
-119 -134 39 113 -141 0
-119 -134 -40 -114 -142 0
-119 -134 -40 114 142 0
-119 -134 40 -114 142 0
-119 -134 40 114 -142 0
-120 -131 -41 -49 -135 0
-120 -131 -41 49 135 0
-120 -131 41 -49 135 0
-120 -131 41 49 -135 0
-120 -131 -42 -50 -136 0
-120 -131 -42 50 136 0
-120 -131 42 -50 136 0
-120 -131 42 50 -136 0
-120 -131 -43 -51 -137 0
-120 -131 -43 51 137 0
-120 -131 43 -51 137 0
-120 -131 43 51 -137 0
-120 -131 -44 -52 -138 0
-120 -131 -44 52 138 0
-120 -131 44 -52 138 0
-120 -131 44 52 -138 0
-120 -131 -45 -53 -139 0
-120 -131 -45 53 139 0
-120 -131 45 -53 139 0
-120 -131 45 53 -139 0
-120 -131 -46 -54 -140 0
-120 -131 -46 54 140 0
-120 -131 46 -54 140 0
-120 -131 46 54 -140 0
-120 -131 -47 -55 -141 0
-120 -131 -47 55 141 0
-120 -131 47 -55 141 0
-120 -131 47 55 -141 0
-120 -131 -48 -56 -142 0
-120 -131 -48 56 142 0
-120 -131 48 -56 142 0
-120 -131 48 56 -142 0
-120 -132 -41 -57 -135 0
-120 -132 -41 57 135 0
-120 -132 41 -57 135 0
-120 -132 41 57 -135 0
-120 -132 -42 -58 -136 0
-120 -132 -42 58 136 0
-120 -132 42 -58 136 0
-120 -132 42 58 -136 0
-120 -132 -43 -59 -137 0
-120 -132 -43 59 137 0
-120 -132 43 -59 137 0
-120 -132 43 59 -137 0
-120 -132 -44 -60 -138 0
-120 -132 -44 60 138 0
-120 -132 44 -60 138 0
-120 -132 44 60 -138 0
-120 -132 -45 -61 -139 0
-120 -132 -45 61 139 0
-120 -132 45 -61 139 0
-120 -132 45 61 -139 0
-120 -132 -46 -62 -140 0
-120 -132 -46 62 140 0
-120 -132 46 -62 140 0
-120 -132 46 62 -140 0
-120 -132 -47 -63 -141 0
-120 -132 -47 63 141 0
-120 -132 47 -63 141 0
-120 -132 47 63 -141 0
-120 -132 -48 -64 -142 0
-120 -132 -48 64 142 0
-120 -132 48 -64 142 0
-120 -132 48 64 -142 0
-120 -133 -41 -81 -135 0
-120 -133 -41 81 135 0
-120 -133 41 -81 135 0
-120 -133 41 81 -135 0
-120 -133 -42 -82 -136 0
-120 -133 -42 82 136 0
-120 -133 42 -82 136 0
-120 -133 42 82 -136 0
-120 -133 -43 -83 -137 0
-120 -133 -43 83 137 0
-120 -133 43 -83 137 0
-120 -133 43 83 -137 0
-120 -133 -44 -84 -138 0
-120 -133 -44 84 138 0
-120 -133 44 -84 138 0
-120 -133 44 84 -138 0
-120 -133 -45 -85 -139 0
-120 -133 -45 85 139 0
-120 -133 45 -85 139 0
-120 -133 45 85 -139 0
-120 -133 -46 -86 -140 0
-120 -133 -46 86 140 0
-120 -133 46 -86 140 0
-120 -133 46 86 -140 0
-120 -133 -47 -87 -141 0
-120 -133 -47 87 141 0
-120 -133 47 -87 141 0
-120 -133 47 87 -141 0
-120 -133 -48 -88 -142 0
-120 -133 -48 88 142 0
-120 -133 48 -88 142 0
-120 -133 48 88 -142 0
-120 -134 -41 -107 -135 0
-120 -134 -41 107 135 0
-120 -134 41 -107 135 0
-120 -134 41 107 -135 0
-120 -134 -42 -108 -136 0
-120 -134 -42 108 136 0
-120 -134 42 -108 136 0
-120 -134 42 108 -136 0
-120 -134 -43 -109 -137 0
-120 -134 -43 109 137 0
-120 -134 43 -109 137 0
-120 -134 43 109 -137 0
-120 -134 -44 -110 -138 0
-120 -134 -44 110 138 0
-120 -134 44 -110 138 0
-120 -134 44 110 -138 0
-120 -134 -45 -111 -139 0
-120 -134 -45 111 139 0
-120 -134 45 -111 139 0
-120 -134 45 111 -139 0
-120 -134 -46 -112 -140 0
-120 -134 -46 112 140 0
-120 -134 46 -112 140 0
-120 -134 46 112 -140 0
-120 -134 -47 -113 -141 0
-120 -134 -47 113 141 0
-120 -134 47 -113 141 0
-120 -134 47 113 -141 0
-120 -134 -48 -114 -142 0
-120 -134 -48 114 142 0
-120 -134 48 -114 142 0
-120 -134 48 114 -142 0
-121 -132 -49 -57 -135 0
-121 -132 -49 57 135 0
-121 -132 49 -57 135 0
-121 -132 49 57 -135 0
-121 -132 -50 -58 -136 0
-121 -132 -50 58 136 0
-121 -132 50 -58 136 0
-121 -132 50 58 -136 0
-121 -132 -51 -59 -137 0
-121 -132 -51 59 137 0
-121 -132 51 -59 137 0
-121 -132 51 59 -137 0
-121 -132 -52 -60 -138 0
-121 -132 -52 60 138 0
-121 -132 52 -60 138 0
-121 -132 52 60 -138 0
-121 -132 -53 -61 -139 0
-121 -132 -53 61 139 0
-121 -132 53 -61 139 0
-121 -132 53 61 -139 0
-121 -132 -54 -62 -140 0
-121 -132 -54 62 140 0
-121 -132 54 -62 140 0
-121 -132 54 62 -140 0
-121 -132 -55 -63 -141 0
-121 -132 -55 63 141 0
-121 -132 55 -63 141 0
-121 -132 55 63 -141 0
-121 -132 -56 -64 -142 0
-121 -132 -56 64 142 0
-121 -132 56 -64 142 0
-121 -132 56 64 -142 0
-121 -133 -49 -81 -135 0
-121 -133 -49 81 135 0
-121 -133 49 -81 135 0
-121 -133 49 81 -135 0
-121 -133 -50 -82 -136 0
-121 -133 -50 82 136 0
-121 -133 50 -82 136 0
-121 -133 50 82 -136 0
-121 -133 -51 -83 -137 0
-121 -133 -51 83 137 0
-121 -133 51 -83 137 0
-121 -133 51 83 -137 0
-121 -133 -52 -84 -138 0
-121 -133 -52 84 138 0
-121 -133 52 -84 138 0
-121 -133 52 84 -138 0
-121 -133 -53 -85 -139 0
-121 -133 -53 85 139 0
-121 -133 53 -85 139 0
-121 -133 53 85 -139 0
-121 -133 -54 -86 -140 0
-121 -133 -54 86 140 0
-121 -133 54 -86 140 0
-121 -133 54 86 -140 0
-121 -133 -55 -87 -141 0
-121 -133 -55 87 141 0
-121 -133 55 -87 141 0
-121 -133 55 87 -141 0
-121 -133 -56 -88 -142 0
-121 -133 -56 88 142 0
-121 -133 56 -88 142 0
-121 -133 56 88 -142 0
-121 -134 -49 -107 -135 0
-121 -134 -49 107 135 0
-121 -134 49 -107 135 0
-121 -134 49 107 -135 0
-121 -134 -50 -108 -136 0
-121 -134 -50 108 136 0
-121 -134 50 -108 136 0
-121 -134 50 108 -136 0
-121 -134 -51 -109 -137 0
-121 -134 -51 109 137 0
-121 -134 51 -109 137 0
-121 -134 51 109 -137 0
-121 -134 -52 -110 -138 0
-121 -134 -52 110 138 0
-121 -134 52 -110 138 0
-121 -134 52 110 -138 0
-121 -134 -53 -111 -139 0
-121 -134 -53 111 139 0
-121 -134 53 -111 139 0
-121 -134 53 111 -139 0
-121 -134 -54 -112 -140 0
-121 -134 -54 112 140 0
-121 -134 54 -112 140 0
-121 -134 54 112 -140 0
-121 -134 -55 -113 -141 0
-121 -134 -55 113 141 0
-121 -134 55 -113 141 0
-121 -134 55 113 -141 0
-121 -134 -56 -114 -142 0
-121 -134 -56 114 142 0
-121 -134 56 -114 142 0
-121 -134 56 114 -142 0
-122 -133 -57 -81 -135 0
-122 -133 -57 81 135 0
-122 -133 57 -81 135 0
-122 -133 57 81 -135 0
-122 -133 -58 -82 -136 0
-122 -133 -58 82 136 0
-122 -133 58 -82 136 0
-122 -133 58 82 -136 0
-122 -133 -59 -83 -137 0
-122 -133 -59 83 137 0
-122 -133 59 -83 137 0
-122 -133 59 83 -137 0
-122 -133 -60 -84 -138 0
-122 -133 -60 84 138 0
-122 -133 60 -84 138 0
-122 -133 60 84 -138 0
-122 -133 -61 -85 -139 0
-122 -133 -61 85 139 0
-122 -133 61 -85 139 0
-122 -133 61 85 -139 0
-122 -133 -62 -86 -140 0
-122 -133 -62 86 140 0
-122 -133 62 -86 140 0
-122 -133 62 86 -140 0
-122 -133 -63 -87 -141 0
-122 -133 -63 87 141 0
-122 -133 63 -87 141 0
-122 -133 63 87 -141 0
-122 -133 -64 -88 -142 0
-122 -133 -64 88 142 0
-122 -133 64 -88 142 0
-122 -133 64 88 -142 0
-122 -134 -57 -107 -135 0
-122 -134 -57 107 135 0
-122 -134 57 -107 135 0
-122 -134 57 107 -135 0
-122 -134 -58 -108 -136 0
-122 -134 -58 108 136 0
-122 -134 58 -108 136 0
-122 -134 58 108 -136 0
-122 -134 -59 -109 -137 0
-122 -134 -59 109 137 0
-122 -134 59 -109 137 0
-122 -134 59 109 -137 0
-122 -134 -60 -110 -138 0
-122 -134 -60 110 138 0
-122 -134 60 -110 138 0
-122 -134 60 110 -138 0
-122 -134 -61 -111 -139 0
-122 -134 -61 111 139 0
-122 -134 61 -111 139 0
-122 -134 61 111 -139 0
-122 -134 -62 -112 -140 0
-122 -134 -62 112 140 0
-122 -134 62 -112 140 0
-122 -134 62 112 -140 0
-122 -134 -63 -113 -141 0
-122 -134 -63 113 141 0
-122 -134 63 -113 141 0
-122 -134 63 113 -141 0
-122 -134 -64 -114 -142 0
-122 -134 -64 114 142 0
-122 -134 64 -114 142 0
-122 -134 64 114 -142 0
-123 -134 -81 -107 -135 0
-123 -134 -81 107 135 0
-123 -134 81 -107 135 0
-123 -134 81 107 -135 0
-123 -134 -82 -108 -136 0
-123 -134 -82 108 136 0
-123 -134 82 -108 136 0
-123 -134 82 108 -136 0
-123 -134 -83 -109 -137 0
-123 -134 -83 109 137 0
-123 -134 83 -109 137 0
-123 -134 83 109 -137 0
-123 -134 -84 -110 -138 0
-123 -134 -84 110 138 0
-123 -134 84 -110 138 0
-123 -134 84 110 -138 0
-123 -134 -85 -111 -139 0
-123 -134 -85 111 139 0
-123 -134 85 -111 139 0
-123 -134 85 111 -139 0
-123 -134 -86 -112 -140 0
-123 -134 -86 112 140 0
-123 -134 86 -112 140 0
-123 -134 86 112 -140 0
-123 -134 -87 -113 -141 0
-123 -134 -87 113 141 0
-123 -134 87 -113 141 0
-123 -134 87 113 -141 0
-123 -134 -88 -114 -142 0
-123 -134 -88 114 142 0
-123 -134 88 -114 142 0
-123 -134 88 114 -142 0
135 136 137 138 139 140 141 142 0
143 144 145 146 147 148 149 150 151 152 153 0
-143 -144 0
-143 -145 0
-143 -146 0
-143 -147 0
-143 -148 0
-143 -149 0
-143 -150 0
-143 -151 0
-143 -152 0
-143 -153 0
-144 -145 0
-144 -146 0
-144 -147 0
-144 -148 0
-144 -149 0
-144 -150 0
-144 -151 0
-144 -152 0
-144 -153 0
-145 -146 0
-145 -147 0
-145 -148 0
-145 -149 0
-145 -150 0
-145 -151 0
-145 -152 0
-145 -153 0
-146 -147 0
-146 -148 0
-146 -149 0
-146 -150 0
-146 -151 0
-146 -152 0
-146 -153 0
-147 -148 0
-147 -149 0
-147 -150 0
-147 -151 0
-147 -152 0
-147 -153 0
-148 -149 0
-148 -150 0
-148 -151 0
-148 -152 0
-148 -153 0
-149 -150 0
-149 -151 0
-149 -152 0
-149 -153 0
-150 -151 0
-150 -152 0
-150 -153 0
-151 -152 0
-151 -153 0
-152 -153 0
154 155 156 157 158 159 160 161 162 163 164 0
-154 -155 0
-154 -156 0
-154 -157 0
-154 -158 0
-154 -159 0
-154 -160 0
-154 -161 0
-154 -162 0
-154 -163 0
-154 -164 0
-155 -156 0
-155 -157 0
-155 -158 0
-155 -159 0
-155 -160 0
-155 -161 0
-155 -162 0
-155 -163 0
-155 -164 0
-156 -157 0
-156 -158 0
-156 -159 0
-156 -160 0
-156 -161 0
-156 -162 0
-156 -163 0
-156 -164 0
-157 -158 0
-157 -159 0
-157 -160 0
-157 -161 0
-157 -162 0
-157 -163 0
-157 -164 0
-158 -159 0
-158 -160 0
-158 -161 0
-158 -162 0
-158 -163 0
-158 -164 0
-159 -160 0
-159 -161 0
-159 -162 0
-159 -163 0
-159 -164 0
-160 -161 0
-160 -162 0
-160 -163 0
-160 -164 0
-161 -162 0
-161 -163 0
-161 -164 0
-162 -163 0
-162 -164 0
-163 -164 0
-143 -154 0
-144 -154 0
-144 -155 0
-145 -154 0
-145 -155 0
-145 -156 0
-146 -154 0
-146 -155 0
-146 -156 0
-146 -157 0
-147 -154 0
-147 -155 0
-147 -156 0
-147 -157 0
-147 -158 0
-148 -154 0
-148 -155 0
-148 -156 0
-148 -157 0
-148 -158 0
-148 -159 0
-149 -154 0
-149 -155 0
-149 -156 0
-149 -157 0
-149 -158 0
-149 -159 0
-149 -160 0
-150 -154 0
-150 -155 0
-150 -156 0
-150 -157 0
-150 -158 0
-150 -159 0
-150 -160 0
-150 -161 0
-151 -154 0
-151 -155 0
-151 -156 0
-151 -157 0
-151 -158 0
-151 -159 0
-151 -160 0
-151 -161 0
-151 -162 0
-152 -154 0
-152 -155 0
-152 -156 0
-152 -157 0
-152 -158 0
-152 -159 0
-152 -160 0
-152 -161 0
-152 -162 0
-152 -163 0
-153 -154 0
-153 -155 0
-153 -156 0
-153 -157 0
-153 -158 0
-153 -159 0
-153 -160 0
-153 -161 0
-153 -162 0
-153 -163 0
-153 -164 0
-143 -155 -1 -9 -165 0
-143 -155 -1 9 165 0
-143 -155 1 -9 165 0
-143 -155 1 9 -165 0
-143 -155 -2 -10 -166 0
-143 -155 -2 10 166 0
-143 -155 2 -10 166 0
-143 -155 2 10 -166 0
-143 -155 -3 -11 -167 0
-143 -155 -3 11 167 0
-143 -155 3 -11 167 0
-143 -155 3 11 -167 0
-143 -155 -4 -12 -168 0
-143 -155 -4 12 168 0
-143 -155 4 -12 168 0
-143 -155 4 12 -168 0
-143 -155 -5 -13 -169 0
-143 -155 -5 13 169 0
-143 -155 5 -13 169 0
-143 -155 5 13 -169 0
-143 -155 -6 -14 -170 0
-143 -155 -6 14 170 0
-143 -155 6 -14 170 0
-143 -155 6 14 -170 0
-143 -155 -7 -15 -171 0
-143 -155 -7 15 171 0
-143 -155 7 -15 171 0
-143 -155 7 15 -171 0
-143 -155 -8 -16 -172 0
-143 -155 -8 16 172 0
-143 -155 8 -16 172 0
-143 -155 8 16 -172 0
-143 -156 -1 -17 -165 0
-143 -156 -1 17 165 0
-143 -156 1 -17 165 0
-143 -156 1 17 -165 0
-143 -156 -2 -18 -166 0
-143 -156 -2 18 166 0
-143 -156 2 -18 166 0
-143 -156 2 18 -166 0
-143 -156 -3 -19 -167 0
-143 -156 -3 19 167 0
-143 -156 3 -19 167 0
-143 -156 3 19 -167 0
-143 -156 -4 -20 -168 0
-143 -156 -4 20 168 0
-143 -156 4 -20 168 0
-143 -156 4 20 -168 0
-143 -156 -5 -21 -169 0
-143 -156 -5 21 169 0
-143 -156 5 -21 169 0
-143 -156 5 21 -169 0
-143 -156 -6 -22 -170 0
-143 -156 -6 22 170 0
-143 -156 6 -22 170 0
-143 -156 6 22 -170 0
-143 -156 -7 -23 -171 0
-143 -156 -7 23 171 0
-143 -156 7 -23 171 0
-143 -156 7 23 -171 0
-143 -156 -8 -24 -172 0
-143 -156 -8 24 172 0
-143 -156 8 -24 172 0
-143 -156 8 24 -172 0
-143 -157 -1 -25 -165 0
-143 -157 -1 25 165 0
-143 -157 1 -25 165 0
-143 -157 1 25 -165 0
-143 -157 -2 -26 -166 0
-143 -157 -2 26 166 0
-143 -157 2 -26 166 0
-143 -157 2 26 -166 0
-143 -157 -3 -27 -167 0
-143 -157 -3 27 167 0
-143 -157 3 -27 167 0
-143 -157 3 27 -167 0
-143 -157 -4 -28 -168 0
-143 -157 -4 28 168 0
-143 -157 4 -28 168 0
-143 -157 4 28 -168 0
-143 -157 -5 -29 -169 0
-143 -157 -5 29 169 0
-143 -157 5 -29 169 0
-143 -157 5 29 -169 0
-143 -157 -6 -30 -170 0
-143 -157 -6 30 170 0
-143 -157 6 -30 170 0
-143 -157 6 30 -170 0
-143 -157 -7 -31 -171 0
-143 -157 -7 31 171 0
-143 -157 7 -31 171 0
-143 -157 7 31 -171 0
-143 -157 -8 -32 -172 0
-143 -157 -8 32 172 0
-143 -157 8 -32 172 0
-143 -157 8 32 -172 0
-143 -158 -1 -33 -165 0
-143 -158 -1 33 165 0
-143 -158 1 -33 165 0
-143 -158 1 33 -165 0
-143 -158 -2 -34 -166 0
-143 -158 -2 34 166 0
-143 -158 2 -34 166 0
-143 -158 2 34 -166 0
-143 -158 -3 -35 -167 0
-143 -158 -3 35 167 0
-143 -158 3 -35 167 0
-143 -158 3 35 -167 0
-143 -158 -4 -36 -168 0
-143 -158 -4 36 168 0
-143 -158 4 -36 168 0
-143 -158 4 36 -168 0
-143 -158 -5 -37 -169 0
-143 -158 -5 37 169 0
-143 -158 5 -37 169 0
-143 -158 5 37 -169 0
-143 -158 -6 -38 -170 0
-143 -158 -6 38 170 0
-143 -158 6 -38 170 0
-143 -158 6 38 -170 0
-143 -158 -7 -39 -171 0
-143 -158 -7 39 171 0
-143 -158 7 -39 171 0
-143 -158 7 39 -171 0
-143 -158 -8 -40 -172 0
-143 -158 -8 40 172 0
-143 -158 8 -40 172 0
-143 -158 8 40 -172 0
-143 -159 -1 -41 -165 0
-143 -159 -1 41 165 0
-143 -159 1 -41 165 0
-143 -159 1 41 -165 0
-143 -159 -2 -42 -166 0
-143 -159 -2 42 166 0
-143 -159 2 -42 166 0
-143 -159 2 42 -166 0
-143 -159 -3 -43 -167 0
-143 -159 -3 43 167 0
-143 -159 3 -43 167 0
-143 -159 3 43 -167 0
-143 -159 -4 -44 -168 0
-143 -159 -4 44 168 0
-143 -159 4 -44 168 0
-143 -159 4 44 -168 0
-143 -159 -5 -45 -169 0
-143 -159 -5 45 169 0
-143 -159 5 -45 169 0
-143 -159 5 45 -169 0
-143 -159 -6 -46 -170 0
-143 -159 -6 46 170 0
-143 -159 6 -46 170 0
-143 -159 6 46 -170 0
-143 -159 -7 -47 -171 0
-143 -159 -7 47 171 0
-143 -159 7 -47 171 0
-143 -159 7 47 -171 0
-143 -159 -8 -48 -172 0
-143 -159 -8 48 172 0
-143 -159 8 -48 172 0
-143 -159 8 48 -172 0
-143 -160 -1 -49 -165 0
-143 -160 -1 49 165 0
-143 -160 1 -49 165 0
-143 -160 1 49 -165 0
-143 -160 -2 -50 -166 0
-143 -160 -2 50 166 0
-143 -160 2 -50 166 0
-143 -160 2 50 -166 0
-143 -160 -3 -51 -167 0
-143 -160 -3 51 167 0
-143 -160 3 -51 167 0
-143 -160 3 51 -167 0
-143 -160 -4 -52 -168 0
-143 -160 -4 52 168 0
-143 -160 4 -52 168 0
-143 -160 4 52 -168 0
-143 -160 -5 -53 -169 0
-143 -160 -5 53 169 0
-143 -160 5 -53 169 0
-143 -160 5 53 -169 0
-143 -160 -6 -54 -170 0
-143 -160 -6 54 170 0
-143 -160 6 -54 170 0
-143 -160 6 54 -170 0
-143 -160 -7 -55 -171 0
-143 -160 -7 55 171 0
-143 -160 7 -55 171 0
-143 -160 7 55 -171 0
-143 -160 -8 -56 -172 0
-143 -160 -8 56 172 0
-143 -160 8 -56 172 0
-143 -160 8 56 -172 0
-143 -161 -1 -57 -165 0
-143 -161 -1 57 165 0
-143 -161 1 -57 165 0
-143 -161 1 57 -165 0
-143 -161 -2 -58 -166 0
-143 -161 -2 58 166 0
-143 -161 2 -58 166 0
-143 -161 2 58 -166 0
-143 -161 -3 -59 -167 0
-143 -161 -3 59 167 0
-143 -161 3 -59 167 0
-143 -161 3 59 -167 0
-143 -161 -4 -60 -168 0
-143 -161 -4 60 168 0
-143 -161 4 -60 168 0
-143 -161 4 60 -168 0
-143 -161 -5 -61 -169 0
-143 -161 -5 61 169 0
-143 -161 5 -61 169 0
-143 -161 5 61 -169 0
-143 -161 -6 -62 -170 0
-143 -161 -6 62 170 0
-143 -161 6 -62 170 0
-143 -161 6 62 -170 0
-143 -161 -7 -63 -171 0
-143 -161 -7 63 171 0
-143 -161 7 -63 171 0
-143 -161 7 63 -171 0
-143 -161 -8 -64 -172 0
-143 -161 -8 64 172 0
-143 -161 8 -64 172 0
-143 -161 8 64 -172 0
-143 -162 -1 -81 -165 0
-143 -162 -1 81 165 0
-143 -162 1 -81 165 0
-143 -162 1 81 -165 0
-143 -162 -2 -82 -166 0
-143 -162 -2 82 166 0
-143 -162 2 -82 166 0
-143 -162 2 82 -166 0
-143 -162 -3 -83 -167 0
-143 -162 -3 83 167 0
-143 -162 3 -83 167 0
-143 -162 3 83 -167 0
-143 -162 -4 -84 -168 0
-143 -162 -4 84 168 0
-143 -162 4 -84 168 0
-143 -162 4 84 -168 0
-143 -162 -5 -85 -169 0
-143 -162 -5 85 169 0
-143 -162 5 -85 169 0
-143 -162 5 85 -169 0
-143 -162 -6 -86 -170 0
-143 -162 -6 86 170 0
-143 -162 6 -86 170 0
-143 -162 6 86 -170 0
-143 -162 -7 -87 -171 0
-143 -162 -7 87 171 0
-143 -162 7 -87 171 0
-143 -162 7 87 -171 0
-143 -162 -8 -88 -172 0
-143 -162 -8 88 172 0
-143 -162 8 -88 172 0
-143 -162 8 88 -172 0
-143 -163 -1 -107 -165 0
-143 -163 -1 107 165 0
-143 -163 1 -107 165 0
-143 -163 1 107 -165 0
-143 -163 -2 -108 -166 0
-143 -163 -2 108 166 0
-143 -163 2 -108 166 0
-143 -163 2 108 -166 0
-143 -163 -3 -109 -167 0
-143 -163 -3 109 167 0
-143 -163 3 -109 167 0
-143 -163 3 109 -167 0
-143 -163 -4 -110 -168 0
-143 -163 -4 110 168 0
-143 -163 4 -110 168 0
-143 -163 4 110 -168 0
-143 -163 -5 -111 -169 0
-143 -163 -5 111 169 0
-143 -163 5 -111 169 0
-143 -163 5 111 -169 0
-143 -163 -6 -112 -170 0
-143 -163 -6 112 170 0
-143 -163 6 -112 170 0
-143 -163 6 112 -170 0
-143 -163 -7 -113 -171 0
-143 -163 -7 113 171 0
-143 -163 7 -113 171 0
-143 -163 7 113 -171 0
-143 -163 -8 -114 -172 0
-143 -163 -8 114 172 0
-143 -163 8 -114 172 0
-143 -163 8 114 -172 0
-143 -164 -1 -135 -165 0
-143 -164 -1 135 165 0
-143 -164 1 -135 165 0
-143 -164 1 135 -165 0
-143 -164 -2 -136 -166 0
-143 -164 -2 136 166 0
-143 -164 2 -136 166 0
-143 -164 2 136 -166 0
-143 -164 -3 -137 -167 0
-143 -164 -3 137 167 0
-143 -164 3 -137 167 0
-143 -164 3 137 -167 0
-143 -164 -4 -138 -168 0
-143 -164 -4 138 168 0
-143 -164 4 -138 168 0
-143 -164 4 138 -168 0
-143 -164 -5 -139 -169 0
-143 -164 -5 139 169 0
-143 -164 5 -139 169 0
-143 -164 5 139 -169 0
-143 -164 -6 -140 -170 0
-143 -164 -6 140 170 0
-143 -164 6 -140 170 0
-143 -164 6 140 -170 0
-143 -164 -7 -141 -171 0
-143 -164 -7 141 171 0
-143 -164 7 -141 171 0
-143 -164 7 141 -171 0
-143 -164 -8 -142 -172 0
-143 -164 -8 142 172 0
-143 -164 8 -142 172 0
-143 -164 8 142 -172 0
-144 -156 -9 -17 -165 0
-144 -156 -9 17 165 0
-144 -156 9 -17 165 0
-144 -156 9 17 -165 0
-144 -156 -10 -18 -166 0
-144 -156 -10 18 166 0
-144 -156 10 -18 166 0
-144 -156 10 18 -166 0
-144 -156 -11 -19 -167 0
-144 -156 -11 19 167 0
-144 -156 11 -19 167 0
-144 -156 11 19 -167 0
-144 -156 -12 -20 -168 0
-144 -156 -12 20 168 0
-144 -156 12 -20 168 0
-144 -156 12 20 -168 0
-144 -156 -13 -21 -169 0
-144 -156 -13 21 169 0
-144 -156 13 -21 169 0
-144 -156 13 21 -169 0
-144 -156 -14 -22 -170 0
-144 -156 -14 22 170 0
-144 -156 14 -22 170 0
-144 -156 14 22 -170 0
-144 -156 -15 -23 -171 0
-144 -156 -15 23 171 0
-144 -156 15 -23 171 0
-144 -156 15 23 -171 0
-144 -156 -16 -24 -172 0
-144 -156 -16 24 172 0
-144 -156 16 -24 172 0
-144 -156 16 24 -172 0
-144 -157 -9 -25 -165 0
-144 -157 -9 25 165 0
-144 -157 9 -25 165 0
-144 -157 9 25 -165 0
-144 -157 -10 -26 -166 0
-144 -157 -10 26 166 0
-144 -157 10 -26 166 0
-144 -157 10 26 -166 0
-144 -157 -11 -27 -167 0
-144 -157 -11 27 167 0
-144 -157 11 -27 167 0
-144 -157 11 27 -167 0
-144 -157 -12 -28 -168 0
-144 -157 -12 28 168 0
-144 -157 12 -28 168 0
-144 -157 12 28 -168 0
-144 -157 -13 -29 -169 0
-144 -157 -13 29 169 0
-144 -157 13 -29 169 0
-144 -157 13 29 -169 0
-144 -157 -14 -30 -170 0
-144 -157 -14 30 170 0
-144 -157 14 -30 170 0
-144 -157 14 30 -170 0
-144 -157 -15 -31 -171 0
-144 -157 -15 31 171 0
-144 -157 15 -31 171 0
-144 -157 15 31 -171 0
-144 -157 -16 -32 -172 0
-144 -157 -16 32 172 0
-144 -157 16 -32 172 0
-144 -157 16 32 -172 0
-144 -158 -9 -33 -165 0
-144 -158 -9 33 165 0
-144 -158 9 -33 165 0
-144 -158 9 33 -165 0
-144 -158 -10 -34 -166 0
-144 -158 -10 34 166 0
-144 -158 10 -34 166 0
-144 -158 10 34 -166 0
-144 -158 -11 -35 -167 0
-144 -158 -11 35 167 0
-144 -158 11 -35 167 0
-144 -158 11 35 -167 0
-144 -158 -12 -36 -168 0
-144 -158 -12 36 168 0
-144 -158 12 -36 168 0
-144 -158 12 36 -168 0
-144 -158 -13 -37 -169 0
-144 -158 -13 37 169 0
-144 -158 13 -37 169 0
-144 -158 13 37 -169 0
-144 -158 -14 -38 -170 0
-144 -158 -14 38 170 0
-144 -158 14 -38 170 0
-144 -158 14 38 -170 0
-144 -158 -15 -39 -171 0
-144 -158 -15 39 171 0
-144 -158 15 -39 171 0
-144 -158 15 39 -171 0
-144 -158 -16 -40 -172 0
-144 -158 -16 40 172 0
-144 -158 16 -40 172 0
-144 -158 16 40 -172 0
-144 -159 -9 -41 -165 0
-144 -159 -9 41 165 0
-144 -159 9 -41 165 0
-144 -159 9 41 -165 0
-144 -159 -10 -42 -166 0
-144 -159 -10 42 166 0
-144 -159 10 -42 166 0
-144 -159 10 42 -166 0
-144 -159 -11 -43 -167 0
-144 -159 -11 43 167 0
-144 -159 11 -43 167 0
-144 -159 11 43 -167 0
-144 -159 -12 -44 -168 0
-144 -159 -12 44 168 0
-144 -159 12 -44 168 0
-144 -159 12 44 -168 0
-144 -159 -13 -45 -169 0
-144 -159 -13 45 169 0
-144 -159 13 -45 169 0
-144 -159 13 45 -169 0
-144 -159 -14 -46 -170 0
-144 -159 -14 46 170 0
-144 -159 14 -46 170 0
-144 -159 14 46 -170 0
-144 -159 -15 -47 -171 0
-144 -159 -15 47 171 0
-144 -159 15 -47 171 0
-144 -159 15 47 -171 0
-144 -159 -16 -48 -172 0
-144 -159 -16 48 172 0
-144 -159 16 -48 172 0
-144 -159 16 48 -172 0
-144 -160 -9 -49 -165 0
-144 -160 -9 49 165 0
-144 -160 9 -49 165 0
-144 -160 9 49 -165 0
-144 -160 -10 -50 -166 0
-144 -160 -10 50 166 0
-144 -160 10 -50 166 0
-144 -160 10 50 -166 0
-144 -160 -11 -51 -167 0
-144 -160 -11 51 167 0
-144 -160 11 -51 167 0
-144 -160 11 51 -167 0
-144 -160 -12 -52 -168 0
-144 -160 -12 52 168 0
-144 -160 12 -52 168 0
-144 -160 12 52 -168 0
-144 -160 -13 -53 -169 0
-144 -160 -13 53 169 0
-144 -160 13 -53 169 0
-144 -160 13 53 -169 0
-144 -160 -14 -54 -170 0
-144 -160 -14 54 170 0
-144 -160 14 -54 170 0
-144 -160 14 54 -170 0
-144 -160 -15 -55 -171 0
-144 -160 -15 55 171 0
-144 -160 15 -55 171 0
-144 -160 15 55 -171 0
-144 -160 -16 -56 -172 0
-144 -160 -16 56 172 0
-144 -160 16 -56 172 0
-144 -160 16 56 -172 0
-144 -161 -9 -57 -165 0
-144 -161 -9 57 165 0
-144 -161 9 -57 165 0
-144 -161 9 57 -165 0
-144 -161 -10 -58 -166 0
-144 -161 -10 58 166 0
-144 -161 10 -58 166 0
-144 -161 10 58 -166 0
-144 -161 -11 -59 -167 0
-144 -161 -11 59 167 0
-144 -161 11 -59 167 0
-144 -161 11 59 -167 0
-144 -161 -12 -60 -168 0
-144 -161 -12 60 168 0
-144 -161 12 -60 168 0
-144 -161 12 60 -168 0
-144 -161 -13 -61 -169 0
-144 -161 -13 61 169 0
-144 -161 13 -61 169 0
-144 -161 13 61 -169 0
-144 -161 -14 -62 -170 0
-144 -161 -14 62 170 0
-144 -161 14 -62 170 0
-144 -161 14 62 -170 0
-144 -161 -15 -63 -171 0
-144 -161 -15 63 171 0
-144 -161 15 -63 171 0
-144 -161 15 63 -171 0
-144 -161 -16 -64 -172 0
-144 -161 -16 64 172 0
-144 -161 16 -64 172 0
-144 -161 16 64 -172 0
-144 -162 -9 -81 -165 0
-144 -162 -9 81 165 0
-144 -162 9 -81 165 0
-144 -162 9 81 -165 0
-144 -162 -10 -82 -166 0
-144 -162 -10 82 166 0
-144 -162 10 -82 166 0
-144 -162 10 82 -166 0
-144 -162 -11 -83 -167 0
-144 -162 -11 83 167 0
-144 -162 11 -83 167 0
-144 -162 11 83 -167 0
-144 -162 -12 -84 -168 0
-144 -162 -12 84 168 0
-144 -162 12 -84 168 0
-144 -162 12 84 -168 0
-144 -162 -13 -85 -169 0
-144 -162 -13 85 169 0
-144 -162 13 -85 169 0
-144 -162 13 85 -169 0
-144 -162 -14 -86 -170 0
-144 -162 -14 86 170 0
-144 -162 14 -86 170 0
-144 -162 14 86 -170 0
-144 -162 -15 -87 -171 0
-144 -162 -15 87 171 0
-144 -162 15 -87 171 0
-144 -162 15 87 -171 0
-144 -162 -16 -88 -172 0
-144 -162 -16 88 172 0
-144 -162 16 -88 172 0
-144 -162 16 88 -172 0
-144 -163 -9 -107 -165 0
-144 -163 -9 107 165 0
-144 -163 9 -107 165 0
-144 -163 9 107 -165 0
-144 -163 -10 -108 -166 0
-144 -163 -10 108 166 0
-144 -163 10 -108 166 0
-144 -163 10 108 -166 0
-144 -163 -11 -109 -167 0
-144 -163 -11 109 167 0
-144 -163 11 -109 167 0
-144 -163 11 109 -167 0
-144 -163 -12 -110 -168 0
-144 -163 -12 110 168 0
-144 -163 12 -110 168 0
-144 -163 12 110 -168 0
-144 -163 -13 -111 -169 0
-144 -163 -13 111 169 0
-144 -163 13 -111 169 0
-144 -163 13 111 -169 0
-144 -163 -14 -112 -170 0
-144 -163 -14 112 170 0
-144 -163 14 -112 170 0
-144 -163 14 112 -170 0
-144 -163 -15 -113 -171 0
-144 -163 -15 113 171 0
-144 -163 15 -113 171 0
-144 -163 15 113 -171 0
-144 -163 -16 -114 -172 0
-144 -163 -16 114 172 0
-144 -163 16 -114 172 0
-144 -163 16 114 -172 0
-144 -164 -9 -135 -165 0
-144 -164 -9 135 165 0
-144 -164 9 -135 165 0
-144 -164 9 135 -165 0
-144 -164 -10 -136 -166 0
-144 -164 -10 136 166 0
-144 -164 10 -136 166 0
-144 -164 10 136 -166 0
-144 -164 -11 -137 -167 0
-144 -164 -11 137 167 0
-144 -164 11 -137 167 0
-144 -164 11 137 -167 0
-144 -164 -12 -138 -168 0
-144 -164 -12 138 168 0
-144 -164 12 -138 168 0
-144 -164 12 138 -168 0
-144 -164 -13 -139 -169 0
-144 -164 -13 139 169 0
-144 -164 13 -139 169 0
-144 -164 13 139 -169 0
-144 -164 -14 -140 -170 0
-144 -164 -14 140 170 0
-144 -164 14 -140 170 0
-144 -164 14 140 -170 0
-144 -164 -15 -141 -171 0
-144 -164 -15 141 171 0
-144 -164 15 -141 171 0
-144 -164 15 141 -171 0
-144 -164 -16 -142 -172 0
-144 -164 -16 142 172 0
-144 -164 16 -142 172 0
-144 -164 16 142 -172 0
-145 -157 -17 -25 -165 0
-145 -157 -17 25 165 0
-145 -157 17 -25 165 0
-145 -157 17 25 -165 0
-145 -157 -18 -26 -166 0
-145 -157 -18 26 166 0
-145 -157 18 -26 166 0
-145 -157 18 26 -166 0
-145 -157 -19 -27 -167 0
-145 -157 -19 27 167 0
-145 -157 19 -27 167 0
-145 -157 19 27 -167 0
-145 -157 -20 -28 -168 0
-145 -157 -20 28 168 0
-145 -157 20 -28 168 0
-145 -157 20 28 -168 0
-145 -157 -21 -29 -169 0
-145 -157 -21 29 169 0
-145 -157 21 -29 169 0
-145 -157 21 29 -169 0
-145 -157 -22 -30 -170 0
-145 -157 -22 30 170 0
-145 -157 22 -30 170 0
-145 -157 22 30 -170 0
-145 -157 -23 -31 -171 0
-145 -157 -23 31 171 0
-145 -157 23 -31 171 0
-145 -157 23 31 -171 0
-145 -157 -24 -32 -172 0
-145 -157 -24 32 172 0
-145 -157 24 -32 172 0
-145 -157 24 32 -172 0
-145 -158 -17 -33 -165 0
-145 -158 -17 33 165 0
-145 -158 17 -33 165 0
-145 -158 17 33 -165 0
-145 -158 -18 -34 -166 0
-145 -158 -18 34 166 0
-145 -158 18 -34 166 0
-145 -158 18 34 -166 0
-145 -158 -19 -35 -167 0
-145 -158 -19 35 167 0
-145 -158 19 -35 167 0
-145 -158 19 35 -167 0
-145 -158 -20 -36 -168 0
-145 -158 -20 36 168 0
-145 -158 20 -36 168 0
-145 -158 20 36 -168 0
-145 -158 -21 -37 -169 0
-145 -158 -21 37 169 0
-145 -158 21 -37 169 0
-145 -158 21 37 -169 0
-145 -158 -22 -38 -170 0
-145 -158 -22 38 170 0
-145 -158 22 -38 170 0
-145 -158 22 38 -170 0
-145 -158 -23 -39 -171 0
-145 -158 -23 39 171 0
-145 -158 23 -39 171 0
-145 -158 23 39 -171 0
-145 -158 -24 -40 -172 0
-145 -158 -24 40 172 0
-145 -158 24 -40 172 0
-145 -158 24 40 -172 0
-145 -159 -17 -41 -165 0
-145 -159 -17 41 165 0
-145 -159 17 -41 165 0
-145 -159 17 41 -165 0
-145 -159 -18 -42 -166 0
-145 -159 -18 42 166 0
-145 -159 18 -42 166 0
-145 -159 18 42 -166 0
-145 -159 -19 -43 -167 0
-145 -159 -19 43 167 0
-145 -159 19 -43 167 0
-145 -159 19 43 -167 0
-145 -159 -20 -44 -168 0
-145 -159 -20 44 168 0
-145 -159 20 -44 168 0
-145 -159 20 44 -168 0
-145 -159 -21 -45 -169 0
-145 -159 -21 45 169 0
-145 -159 21 -45 169 0
-145 -159 21 45 -169 0
-145 -159 -22 -46 -170 0
-145 -159 -22 46 170 0
-145 -159 22 -46 170 0
-145 -159 22 46 -170 0
-145 -159 -23 -47 -171 0
-145 -159 -23 47 171 0
-145 -159 23 -47 171 0
-145 -159 23 47 -171 0
-145 -159 -24 -48 -172 0
-145 -159 -24 48 172 0
-145 -159 24 -48 172 0
-145 -159 24 48 -172 0
-145 -160 -17 -49 -165 0
-145 -160 -17 49 165 0
-145 -160 17 -49 165 0
-145 -160 17 49 -165 0
-145 -160 -18 -50 -166 0
-145 -160 -18 50 166 0
-145 -160 18 -50 166 0
-145 -160 18 50 -166 0
-145 -160 -19 -51 -167 0
-145 -160 -19 51 167 0
-145 -160 19 -51 167 0
-145 -160 19 51 -167 0
-145 -160 -20 -52 -168 0
-145 -160 -20 52 168 0
-145 -160 20 -52 168 0
-145 -160 20 52 -168 0
-145 -160 -21 -53 -169 0
-145 -160 -21 53 169 0
-145 -160 21 -53 169 0
-145 -160 21 53 -169 0
-145 -160 -22 -54 -170 0
-145 -160 -22 54 170 0
-145 -160 22 -54 170 0
-145 -160 22 54 -170 0
-145 -160 -23 -55 -171 0
-145 -160 -23 55 171 0
-145 -160 23 -55 171 0
-145 -160 23 55 -171 0
-145 -160 -24 -56 -172 0
-145 -160 -24 56 172 0
-145 -160 24 -56 172 0
-145 -160 24 56 -172 0
-145 -161 -17 -57 -165 0
-145 -161 -17 57 165 0
-145 -161 17 -57 165 0
-145 -161 17 57 -165 0
-145 -161 -18 -58 -166 0
-145 -161 -18 58 166 0
-145 -161 18 -58 166 0
-145 -161 18 58 -166 0
-145 -161 -19 -59 -167 0
-145 -161 -19 59 167 0
-145 -161 19 -59 167 0
-145 -161 19 59 -167 0
-145 -161 -20 -60 -168 0
-145 -161 -20 60 168 0
-145 -161 20 -60 168 0
-145 -161 20 60 -168 0
-145 -161 -21 -61 -169 0
-145 -161 -21 61 169 0
-145 -161 21 -61 169 0
-145 -161 21 61 -169 0
-145 -161 -22 -62 -170 0
-145 -161 -22 62 170 0
-145 -161 22 -62 170 0
-145 -161 22 62 -170 0
-145 -161 -23 -63 -171 0
-145 -161 -23 63 171 0
-145 -161 23 -63 171 0
-145 -161 23 63 -171 0
-145 -161 -24 -64 -172 0
-145 -161 -24 64 172 0
-145 -161 24 -64 172 0
-145 -161 24 64 -172 0
-145 -162 -17 -81 -165 0
-145 -162 -17 81 165 0
-145 -162 17 -81 165 0
-145 -162 17 81 -165 0
-145 -162 -18 -82 -166 0
-145 -162 -18 82 166 0
-145 -162 18 -82 166 0
-145 -162 18 82 -166 0
-145 -162 -19 -83 -167 0
-145 -162 -19 83 167 0
-145 -162 19 -83 167 0
-145 -162 19 83 -167 0
-145 -162 -20 -84 -168 0
-145 -162 -20 84 168 0
-145 -162 20 -84 168 0
-145 -162 20 84 -168 0
-145 -162 -21 -85 -169 0
-145 -162 -21 85 169 0
-145 -162 21 -85 169 0
-145 -162 21 85 -169 0
-145 -162 -22 -86 -170 0
-145 -162 -22 86 170 0
-145 -162 22 -86 170 0
-145 -162 22 86 -170 0
-145 -162 -23 -87 -171 0
-145 -162 -23 87 171 0
-145 -162 23 -87 171 0
-145 -162 23 87 -171 0
-145 -162 -24 -88 -172 0
-145 -162 -24 88 172 0
-145 -162 24 -88 172 0
-145 -162 24 88 -172 0
-145 -163 -17 -107 -165 0
-145 -163 -17 107 165 0
-145 -163 17 -107 165 0
-145 -163 17 107 -165 0
-145 -163 -18 -108 -166 0
-145 -163 -18 108 166 0
-145 -163 18 -108 166 0
-145 -163 18 108 -166 0
-145 -163 -19 -109 -167 0
-145 -163 -19 109 167 0
-145 -163 19 -109 167 0
-145 -163 19 109 -167 0
-145 -163 -20 -110 -168 0
-145 -163 -20 110 168 0
-145 -163 20 -110 168 0
-145 -163 20 110 -168 0
-145 -163 -21 -111 -169 0
-145 -163 -21 111 169 0
-145 -163 21 -111 169 0
-145 -163 21 111 -169 0
-145 -163 -22 -112 -170 0
-145 -163 -22 112 170 0
-145 -163 22 -112 170 0
-145 -163 22 112 -170 0
-145 -163 -23 -113 -171 0
-145 -163 -23 113 171 0
-145 -163 23 -113 171 0
-145 -163 23 113 -171 0
-145 -163 -24 -114 -172 0
-145 -163 -24 114 172 0
-145 -163 24 -114 172 0
-145 -163 24 114 -172 0
-145 -164 -17 -135 -165 0
-145 -164 -17 135 165 0
-145 -164 17 -135 165 0
-145 -164 17 135 -165 0
-145 -164 -18 -136 -166 0
-145 -164 -18 136 166 0
-145 -164 18 -136 166 0
-145 -164 18 136 -166 0
-145 -164 -19 -137 -167 0
-145 -164 -19 137 167 0
-145 -164 19 -137 167 0
-145 -164 19 137 -167 0
-145 -164 -20 -138 -168 0
-145 -164 -20 138 168 0
-145 -164 20 -138 168 0
-145 -164 20 138 -168 0
-145 -164 -21 -139 -169 0
-145 -164 -21 139 169 0
-145 -164 21 -139 169 0
-145 -164 21 139 -169 0
-145 -164 -22 -140 -170 0
-145 -164 -22 140 170 0
-145 -164 22 -140 170 0
-145 -164 22 140 -170 0
-145 -164 -23 -141 -171 0
-145 -164 -23 141 171 0
-145 -164 23 -141 171 0
-145 -164 23 141 -171 0
-145 -164 -24 -142 -172 0
-145 -164 -24 142 172 0
-145 -164 24 -142 172 0
-145 -164 24 142 -172 0
-146 -158 -25 -33 -165 0
-146 -158 -25 33 165 0
-146 -158 25 -33 165 0
-146 -158 25 33 -165 0
-146 -158 -26 -34 -166 0
-146 -158 -26 34 166 0
-146 -158 26 -34 166 0
-146 -158 26 34 -166 0
-146 -158 -27 -35 -167 0
-146 -158 -27 35 167 0
-146 -158 27 -35 167 0
-146 -158 27 35 -167 0
-146 -158 -28 -36 -168 0
-146 -158 -28 36 168 0
-146 -158 28 -36 168 0
-146 -158 28 36 -168 0
-146 -158 -29 -37 -169 0
-146 -158 -29 37 169 0
-146 -158 29 -37 169 0
-146 -158 29 37 -169 0
-146 -158 -30 -38 -170 0
-146 -158 -30 38 170 0
-146 -158 30 -38 170 0
-146 -158 30 38 -170 0
-146 -158 -31 -39 -171 0
-146 -158 -31 39 171 0
-146 -158 31 -39 171 0
-146 -158 31 39 -171 0
-146 -158 -32 -40 -172 0
-146 -158 -32 40 172 0
-146 -158 32 -40 172 0
-146 -158 32 40 -172 0
-146 -159 -25 -41 -165 0
-146 -159 -25 41 165 0
-146 -159 25 -41 165 0
-146 -159 25 41 -165 0
-146 -159 -26 -42 -166 0
-146 -159 -26 42 166 0
-146 -159 26 -42 166 0
-146 -159 26 42 -166 0
-146 -159 -27 -43 -167 0
-146 -159 -27 43 167 0
-146 -159 27 -43 167 0
-146 -159 27 43 -167 0
-146 -159 -28 -44 -168 0
-146 -159 -28 44 168 0
-146 -159 28 -44 168 0
-146 -159 28 44 -168 0
-146 -159 -29 -45 -169 0
-146 -159 -29 45 169 0
-146 -159 29 -45 169 0
-146 -159 29 45 -169 0
-146 -159 -30 -46 -170 0
-146 -159 -30 46 170 0
-146 -159 30 -46 170 0
-146 -159 30 46 -170 0
-146 -159 -31 -47 -171 0
-146 -159 -31 47 171 0
-146 -159 31 -47 171 0
-146 -159 31 47 -171 0
-146 -159 -32 -48 -172 0
-146 -159 -32 48 172 0
-146 -159 32 -48 172 0
-146 -159 32 48 -172 0
-146 -160 -25 -49 -165 0
-146 -160 -25 49 165 0
-146 -160 25 -49 165 0
-146 -160 25 49 -165 0
-146 -160 -26 -50 -166 0
-146 -160 -26 50 166 0
-146 -160 26 -50 166 0
-146 -160 26 50 -166 0
-146 -160 -27 -51 -167 0
-146 -160 -27 51 167 0
-146 -160 27 -51 167 0
-146 -160 27 51 -167 0
-146 -160 -28 -52 -168 0
-146 -160 -28 52 168 0
-146 -160 28 -52 168 0
-146 -160 28 52 -168 0
-146 -160 -29 -53 -169 0
-146 -160 -29 53 169 0
-146 -160 29 -53 169 0
-146 -160 29 53 -169 0
-146 -160 -30 -54 -170 0
-146 -160 -30 54 170 0
-146 -160 30 -54 170 0
-146 -160 30 54 -170 0
-146 -160 -31 -55 -171 0
-146 -160 -31 55 171 0
-146 -160 31 -55 171 0
-146 -160 31 55 -171 0
-146 -160 -32 -56 -172 0
-146 -160 -32 56 172 0
-146 -160 32 -56 172 0
-146 -160 32 56 -172 0
-146 -161 -25 -57 -165 0
-146 -161 -25 57 165 0
-146 -161 25 -57 165 0
-146 -161 25 57 -165 0
-146 -161 -26 -58 -166 0
-146 -161 -26 58 166 0
-146 -161 26 -58 166 0
-146 -161 26 58 -166 0
-146 -161 -27 -59 -167 0
-146 -161 -27 59 167 0
-146 -161 27 -59 167 0
-146 -161 27 59 -167 0
-146 -161 -28 -60 -168 0
-146 -161 -28 60 168 0
-146 -161 28 -60 168 0
-146 -161 28 60 -168 0
-146 -161 -29 -61 -169 0
-146 -161 -29 61 169 0
-146 -161 29 -61 169 0
-146 -161 29 61 -169 0
-146 -161 -30 -62 -170 0
-146 -161 -30 62 170 0
-146 -161 30 -62 170 0
-146 -161 30 62 -170 0
-146 -161 -31 -63 -171 0
-146 -161 -31 63 171 0
-146 -161 31 -63 171 0
-146 -161 31 63 -171 0
-146 -161 -32 -64 -172 0
-146 -161 -32 64 172 0
-146 -161 32 -64 172 0
-146 -161 32 64 -172 0
-146 -162 -25 -81 -165 0
-146 -162 -25 81 165 0
-146 -162 25 -81 165 0
-146 -162 25 81 -165 0
-146 -162 -26 -82 -166 0
-146 -162 -26 82 166 0
-146 -162 26 -82 166 0
-146 -162 26 82 -166 0
-146 -162 -27 -83 -167 0
-146 -162 -27 83 167 0
-146 -162 27 -83 167 0
-146 -162 27 83 -167 0
-146 -162 -28 -84 -168 0
-146 -162 -28 84 168 0
-146 -162 28 -84 168 0
-146 -162 28 84 -168 0
-146 -162 -29 -85 -169 0
-146 -162 -29 85 169 0
-146 -162 29 -85 169 0
-146 -162 29 85 -169 0
-146 -162 -30 -86 -170 0
-146 -162 -30 86 170 0
-146 -162 30 -86 170 0
-146 -162 30 86 -170 0
-146 -162 -31 -87 -171 0
-146 -162 -31 87 171 0
-146 -162 31 -87 171 0
-146 -162 31 87 -171 0
-146 -162 -32 -88 -172 0
-146 -162 -32 88 172 0
-146 -162 32 -88 172 0
-146 -162 32 88 -172 0
-146 -163 -25 -107 -165 0
-146 -163 -25 107 165 0
-146 -163 25 -107 165 0
-146 -163 25 107 -165 0
-146 -163 -26 -108 -166 0
-146 -163 -26 108 166 0
-146 -163 26 -108 166 0
-146 -163 26 108 -166 0
-146 -163 -27 -109 -167 0
-146 -163 -27 109 167 0
-146 -163 27 -109 167 0
-146 -163 27 109 -167 0
-146 -163 -28 -110 -168 0
-146 -163 -28 110 168 0
-146 -163 28 -110 168 0
-146 -163 28 110 -168 0
-146 -163 -29 -111 -169 0
-146 -163 -29 111 169 0
-146 -163 29 -111 169 0
-146 -163 29 111 -169 0
-146 -163 -30 -112 -170 0
-146 -163 -30 112 170 0
-146 -163 30 -112 170 0
-146 -163 30 112 -170 0
-146 -163 -31 -113 -171 0
-146 -163 -31 113 171 0
-146 -163 31 -113 171 0
-146 -163 31 113 -171 0
-146 -163 -32 -114 -172 0
-146 -163 -32 114 172 0
-146 -163 32 -114 172 0
-146 -163 32 114 -172 0
-146 -164 -25 -135 -165 0
-146 -164 -25 135 165 0
-146 -164 25 -135 165 0
-146 -164 25 135 -165 0
-146 -164 -26 -136 -166 0
-146 -164 -26 136 166 0
-146 -164 26 -136 166 0
-146 -164 26 136 -166 0
-146 -164 -27 -137 -167 0
-146 -164 -27 137 167 0
-146 -164 27 -137 167 0
-146 -164 27 137 -167 0
-146 -164 -28 -138 -168 0
-146 -164 -28 138 168 0
-146 -164 28 -138 168 0
-146 -164 28 138 -168 0
-146 -164 -29 -139 -169 0
-146 -164 -29 139 169 0
-146 -164 29 -139 169 0
-146 -164 29 139 -169 0
-146 -164 -30 -140 -170 0
-146 -164 -30 140 170 0
-146 -164 30 -140 170 0
-146 -164 30 140 -170 0
-146 -164 -31 -141 -171 0
-146 -164 -31 141 171 0
-146 -164 31 -141 171 0
-146 -164 31 141 -171 0
-146 -164 -32 -142 -172 0
-146 -164 -32 142 172 0
-146 -164 32 -142 172 0
-146 -164 32 142 -172 0
-147 -159 -33 -41 -165 0
-147 -159 -33 41 165 0
-147 -159 33 -41 165 0
-147 -159 33 41 -165 0
-147 -159 -34 -42 -166 0
-147 -159 -34 42 166 0
-147 -159 34 -42 166 0
-147 -159 34 42 -166 0
-147 -159 -35 -43 -167 0
-147 -159 -35 43 167 0
-147 -159 35 -43 167 0
-147 -159 35 43 -167 0
-147 -159 -36 -44 -168 0
-147 -159 -36 44 168 0
-147 -159 36 -44 168 0
-147 -159 36 44 -168 0
-147 -159 -37 -45 -169 0
-147 -159 -37 45 169 0
-147 -159 37 -45 169 0
-147 -159 37 45 -169 0
-147 -159 -38 -46 -170 0
-147 -159 -38 46 170 0
-147 -159 38 -46 170 0
-147 -159 38 46 -170 0
-147 -159 -39 -47 -171 0
-147 -159 -39 47 171 0
-147 -159 39 -47 171 0
-147 -159 39 47 -171 0
-147 -159 -40 -48 -172 0
-147 -159 -40 48 172 0
-147 -159 40 -48 172 0
-147 -159 40 48 -172 0
-147 -160 -33 -49 -165 0
-147 -160 -33 49 165 0
-147 -160 33 -49 165 0
-147 -160 33 49 -165 0
-147 -160 -34 -50 -166 0
-147 -160 -34 50 166 0
-147 -160 34 -50 166 0
-147 -160 34 50 -166 0
-147 -160 -35 -51 -167 0
-147 -160 -35 51 167 0
-147 -160 35 -51 167 0
-147 -160 35 51 -167 0
-147 -160 -36 -52 -168 0
-147 -160 -36 52 168 0
-147 -160 36 -52 168 0
-147 -160 36 52 -168 0
-147 -160 -37 -53 -169 0
-147 -160 -37 53 169 0
-147 -160 37 -53 169 0
-147 -160 37 53 -169 0
-147 -160 -38 -54 -170 0
-147 -160 -38 54 170 0
-147 -160 38 -54 170 0
-147 -160 38 54 -170 0
-147 -160 -39 -55 -171 0
-147 -160 -39 55 171 0
-147 -160 39 -55 171 0
-147 -160 39 55 -171 0
-147 -160 -40 -56 -172 0
-147 -160 -40 56 172 0
-147 -160 40 -56 172 0
-147 -160 40 56 -172 0
-147 -161 -33 -57 -165 0
-147 -161 -33 57 165 0
-147 -161 33 -57 165 0
-147 -161 33 57 -165 0
-147 -161 -34 -58 -166 0
-147 -161 -34 58 166 0
-147 -161 34 -58 166 0
-147 -161 34 58 -166 0
-147 -161 -35 -59 -167 0
-147 -161 -35 59 167 0
-147 -161 35 -59 167 0
-147 -161 35 59 -167 0
-147 -161 -36 -60 -168 0
-147 -161 -36 60 168 0
-147 -161 36 -60 168 0
-147 -161 36 60 -168 0
-147 -161 -37 -61 -169 0
-147 -161 -37 61 169 0
-147 -161 37 -61 169 0
-147 -161 37 61 -169 0
-147 -161 -38 -62 -170 0
-147 -161 -38 62 170 0
-147 -161 38 -62 170 0
-147 -161 38 62 -170 0
-147 -161 -39 -63 -171 0
-147 -161 -39 63 171 0
-147 -161 39 -63 171 0
-147 -161 39 63 -171 0
-147 -161 -40 -64 -172 0
-147 -161 -40 64 172 0
-147 -161 40 -64 172 0
-147 -161 40 64 -172 0
-147 -162 -33 -81 -165 0
-147 -162 -33 81 165 0
-147 -162 33 -81 165 0
-147 -162 33 81 -165 0
-147 -162 -34 -82 -166 0
-147 -162 -34 82 166 0
-147 -162 34 -82 166 0
-147 -162 34 82 -166 0
-147 -162 -35 -83 -167 0
-147 -162 -35 83 167 0
-147 -162 35 -83 167 0
-147 -162 35 83 -167 0
-147 -162 -36 -84 -168 0
-147 -162 -36 84 168 0
-147 -162 36 -84 168 0
-147 -162 36 84 -168 0
-147 -162 -37 -85 -169 0
-147 -162 -37 85 169 0
-147 -162 37 -85 169 0
-147 -162 37 85 -169 0
-147 -162 -38 -86 -170 0
-147 -162 -38 86 170 0
-147 -162 38 -86 170 0
-147 -162 38 86 -170 0
-147 -162 -39 -87 -171 0
-147 -162 -39 87 171 0
-147 -162 39 -87 171 0
-147 -162 39 87 -171 0
-147 -162 -40 -88 -172 0
-147 -162 -40 88 172 0
-147 -162 40 -88 172 0
-147 -162 40 88 -172 0
-147 -163 -33 -107 -165 0
-147 -163 -33 107 165 0
-147 -163 33 -107 165 0
-147 -163 33 107 -165 0
-147 -163 -34 -108 -166 0
-147 -163 -34 108 166 0
-147 -163 34 -108 166 0
-147 -163 34 108 -166 0
-147 -163 -35 -109 -167 0
-147 -163 -35 109 167 0
-147 -163 35 -109 167 0
-147 -163 35 109 -167 0
-147 -163 -36 -110 -168 0
-147 -163 -36 110 168 0
-147 -163 36 -110 168 0
-147 -163 36 110 -168 0
-147 -163 -37 -111 -169 0
-147 -163 -37 111 169 0
-147 -163 37 -111 169 0
-147 -163 37 111 -169 0
-147 -163 -38 -112 -170 0
-147 -163 -38 112 170 0
-147 -163 38 -112 170 0
-147 -163 38 112 -170 0
-147 -163 -39 -113 -171 0
-147 -163 -39 113 171 0
-147 -163 39 -113 171 0
-147 -163 39 113 -171 0
-147 -163 -40 -114 -172 0
-147 -163 -40 114 172 0
-147 -163 40 -114 172 0
-147 -163 40 114 -172 0
-147 -164 -33 -135 -165 0
-147 -164 -33 135 165 0
-147 -164 33 -135 165 0
-147 -164 33 135 -165 0
-147 -164 -34 -136 -166 0
-147 -164 -34 136 166 0
-147 -164 34 -136 166 0
-147 -164 34 136 -166 0
-147 -164 -35 -137 -167 0
-147 -164 -35 137 167 0
-147 -164 35 -137 167 0
-147 -164 35 137 -167 0
-147 -164 -36 -138 -168 0
-147 -164 -36 138 168 0
-147 -164 36 -138 168 0
-147 -164 36 138 -168 0
-147 -164 -37 -139 -169 0
-147 -164 -37 139 169 0
-147 -164 37 -139 169 0
-147 -164 37 139 -169 0
-147 -164 -38 -140 -170 0
-147 -164 -38 140 170 0
-147 -164 38 -140 170 0
-147 -164 38 140 -170 0
-147 -164 -39 -141 -171 0
-147 -164 -39 141 171 0
-147 -164 39 -141 171 0
-147 -164 39 141 -171 0
-147 -164 -40 -142 -172 0
-147 -164 -40 142 172 0
-147 -164 40 -142 172 0
-147 -164 40 142 -172 0
-148 -160 -41 -49 -165 0
-148 -160 -41 49 165 0
-148 -160 41 -49 165 0
-148 -160 41 49 -165 0
-148 -160 -42 -50 -166 0
-148 -160 -42 50 166 0
-148 -160 42 -50 166 0
-148 -160 42 50 -166 0
-148 -160 -43 -51 -167 0
-148 -160 -43 51 167 0
-148 -160 43 -51 167 0
-148 -160 43 51 -167 0
-148 -160 -44 -52 -168 0
-148 -160 -44 52 168 0
-148 -160 44 -52 168 0
-148 -160 44 52 -168 0
-148 -160 -45 -53 -169 0
-148 -160 -45 53 169 0
-148 -160 45 -53 169 0
-148 -160 45 53 -169 0
-148 -160 -46 -54 -170 0
-148 -160 -46 54 170 0
-148 -160 46 -54 170 0
-148 -160 46 54 -170 0
-148 -160 -47 -55 -171 0
-148 -160 -47 55 171 0
-148 -160 47 -55 171 0
-148 -160 47 55 -171 0
-148 -160 -48 -56 -172 0
-148 -160 -48 56 172 0
-148 -160 48 -56 172 0
-148 -160 48 56 -172 0
-148 -161 -41 -57 -165 0
-148 -161 -41 57 165 0
-148 -161 41 -57 165 0
-148 -161 41 57 -165 0
-148 -161 -42 -58 -166 0
-148 -161 -42 58 166 0
-148 -161 42 -58 166 0
-148 -161 42 58 -166 0
-148 -161 -43 -59 -167 0
-148 -161 -43 59 167 0
-148 -161 43 -59 167 0
-148 -161 43 59 -167 0
-148 -161 -44 -60 -168 0
-148 -161 -44 60 168 0
-148 -161 44 -60 168 0
-148 -161 44 60 -168 0
-148 -161 -45 -61 -169 0
-148 -161 -45 61 169 0
-148 -161 45 -61 169 0
-148 -161 45 61 -169 0
-148 -161 -46 -62 -170 0
-148 -161 -46 62 170 0
-148 -161 46 -62 170 0
-148 -161 46 62 -170 0
-148 -161 -47 -63 -171 0
-148 -161 -47 63 171 0
-148 -161 47 -63 171 0
-148 -161 47 63 -171 0
-148 -161 -48 -64 -172 0
-148 -161 -48 64 172 0
-148 -161 48 -64 172 0
-148 -161 48 64 -172 0
-148 -162 -41 -81 -165 0
-148 -162 -41 81 165 0
-148 -162 41 -81 165 0
-148 -162 41 81 -165 0
-148 -162 -42 -82 -166 0
-148 -162 -42 82 166 0
-148 -162 42 -82 166 0
-148 -162 42 82 -166 0
-148 -162 -43 -83 -167 0
-148 -162 -43 83 167 0
-148 -162 43 -83 167 0
-148 -162 43 83 -167 0
-148 -162 -44 -84 -168 0
-148 -162 -44 84 168 0
-148 -162 44 -84 168 0
-148 -162 44 84 -168 0
-148 -162 -45 -85 -169 0
-148 -162 -45 85 169 0
-148 -162 45 -85 169 0
-148 -162 45 85 -169 0
-148 -162 -46 -86 -170 0
-148 -162 -46 86 170 0
-148 -162 46 -86 170 0
-148 -162 46 86 -170 0
-148 -162 -47 -87 -171 0
-148 -162 -47 87 171 0
-148 -162 47 -87 171 0
-148 -162 47 87 -171 0
-148 -162 -48 -88 -172 0
-148 -162 -48 88 172 0
-148 -162 48 -88 172 0
-148 -162 48 88 -172 0
-148 -163 -41 -107 -165 0
-148 -163 -41 107 165 0
-148 -163 41 -107 165 0
-148 -163 41 107 -165 0
-148 -163 -42 -108 -166 0
-148 -163 -42 108 166 0
-148 -163 42 -108 166 0
-148 -163 42 108 -166 0
-148 -163 -43 -109 -167 0
-148 -163 -43 109 167 0
-148 -163 43 -109 167 0
-148 -163 43 109 -167 0
-148 -163 -44 -110 -168 0
-148 -163 -44 110 168 0
-148 -163 44 -110 168 0
-148 -163 44 110 -168 0
-148 -163 -45 -111 -169 0
-148 -163 -45 111 169 0
-148 -163 45 -111 169 0
-148 -163 45 111 -169 0
-148 -163 -46 -112 -170 0
-148 -163 -46 112 170 0
-148 -163 46 -112 170 0
-148 -163 46 112 -170 0
-148 -163 -47 -113 -171 0
-148 -163 -47 113 171 0
-148 -163 47 -113 171 0
-148 -163 47 113 -171 0
-148 -163 -48 -114 -172 0
-148 -163 -48 114 172 0
-148 -163 48 -114 172 0
-148 -163 48 114 -172 0
-148 -164 -41 -135 -165 0
-148 -164 -41 135 165 0
-148 -164 41 -135 165 0
-148 -164 41 135 -165 0
-148 -164 -42 -136 -166 0
-148 -164 -42 136 166 0
-148 -164 42 -136 166 0
-148 -164 42 136 -166 0
-148 -164 -43 -137 -167 0
-148 -164 -43 137 167 0
-148 -164 43 -137 167 0
-148 -164 43 137 -167 0
-148 -164 -44 -138 -168 0
-148 -164 -44 138 168 0
-148 -164 44 -138 168 0
-148 -164 44 138 -168 0
-148 -164 -45 -139 -169 0
-148 -164 -45 139 169 0
-148 -164 45 -139 169 0
-148 -164 45 139 -169 0
-148 -164 -46 -140 -170 0
-148 -164 -46 140 170 0
-148 -164 46 -140 170 0
-148 -164 46 140 -170 0
-148 -164 -47 -141 -171 0
-148 -164 -47 141 171 0
-148 -164 47 -141 171 0
-148 -164 47 141 -171 0
-148 -164 -48 -142 -172 0
-148 -164 -48 142 172 0
-148 -164 48 -142 172 0
-148 -164 48 142 -172 0
-149 -161 -49 -57 -165 0
-149 -161 -49 57 165 0
-149 -161 49 -57 165 0
-149 -161 49 57 -165 0
-149 -161 -50 -58 -166 0
-149 -161 -50 58 166 0
-149 -161 50 -58 166 0
-149 -161 50 58 -166 0
-149 -161 -51 -59 -167 0
-149 -161 -51 59 167 0
-149 -161 51 -59 167 0
-149 -161 51 59 -167 0
-149 -161 -52 -60 -168 0
-149 -161 -52 60 168 0
-149 -161 52 -60 168 0
-149 -161 52 60 -168 0
-149 -161 -53 -61 -169 0
-149 -161 -53 61 169 0
-149 -161 53 -61 169 0
-149 -161 53 61 -169 0
-149 -161 -54 -62 -170 0
-149 -161 -54 62 170 0
-149 -161 54 -62 170 0
-149 -161 54 62 -170 0
-149 -161 -55 -63 -171 0
-149 -161 -55 63 171 0
-149 -161 55 -63 171 0
-149 -161 55 63 -171 0
-149 -161 -56 -64 -172 0
-149 -161 -56 64 172 0
-149 -161 56 -64 172 0
-149 -161 56 64 -172 0
-149 -162 -49 -81 -165 0
-149 -162 -49 81 165 0
-149 -162 49 -81 165 0
-149 -162 49 81 -165 0
-149 -162 -50 -82 -166 0
-149 -162 -50 82 166 0
-149 -162 50 -82 166 0
-149 -162 50 82 -166 0
-149 -162 -51 -83 -167 0
-149 -162 -51 83 167 0
-149 -162 51 -83 167 0
-149 -162 51 83 -167 0
-149 -162 -52 -84 -168 0
-149 -162 -52 84 168 0
-149 -162 52 -84 168 0
-149 -162 52 84 -168 0
-149 -162 -53 -85 -169 0
-149 -162 -53 85 169 0
-149 -162 53 -85 169 0
-149 -162 53 85 -169 0
-149 -162 -54 -86 -170 0
-149 -162 -54 86 170 0
-149 -162 54 -86 170 0
-149 -162 54 86 -170 0
-149 -162 -55 -87 -171 0
-149 -162 -55 87 171 0
-149 -162 55 -87 171 0
-149 -162 55 87 -171 0
-149 -162 -56 -88 -172 0
-149 -162 -56 88 172 0
-149 -162 56 -88 172 0
-149 -162 56 88 -172 0
-149 -163 -49 -107 -165 0
-149 -163 -49 107 165 0
-149 -163 49 -107 165 0
-149 -163 49 107 -165 0
-149 -163 -50 -108 -166 0
-149 -163 -50 108 166 0
-149 -163 50 -108 166 0
-149 -163 50 108 -166 0
-149 -163 -51 -109 -167 0
-149 -163 -51 109 167 0
-149 -163 51 -109 167 0
-149 -163 51 109 -167 0
-149 -163 -52 -110 -168 0
-149 -163 -52 110 168 0
-149 -163 52 -110 168 0
-149 -163 52 110 -168 0
-149 -163 -53 -111 -169 0
-149 -163 -53 111 169 0
-149 -163 53 -111 169 0
-149 -163 53 111 -169 0
-149 -163 -54 -112 -170 0
-149 -163 -54 112 170 0
-149 -163 54 -112 170 0
-149 -163 54 112 -170 0
-149 -163 -55 -113 -171 0
-149 -163 -55 113 171 0
-149 -163 55 -113 171 0
-149 -163 55 113 -171 0
-149 -163 -56 -114 -172 0
-149 -163 -56 114 172 0
-149 -163 56 -114 172 0
-149 -163 56 114 -172 0
-149 -164 -49 -135 -165 0
-149 -164 -49 135 165 0
-149 -164 49 -135 165 0
-149 -164 49 135 -165 0
-149 -164 -50 -136 -166 0
-149 -164 -50 136 166 0
-149 -164 50 -136 166 0
-149 -164 50 136 -166 0
-149 -164 -51 -137 -167 0
-149 -164 -51 137 167 0
-149 -164 51 -137 167 0
-149 -164 51 137 -167 0
-149 -164 -52 -138 -168 0
-149 -164 -52 138 168 0
-149 -164 52 -138 168 0
-149 -164 52 138 -168 0
-149 -164 -53 -139 -169 0
-149 -164 -53 139 169 0
-149 -164 53 -139 169 0
-149 -164 53 139 -169 0
-149 -164 -54 -140 -170 0
-149 -164 -54 140 170 0
-149 -164 54 -140 170 0
-149 -164 54 140 -170 0
-149 -164 -55 -141 -171 0
-149 -164 -55 141 171 0
-149 -164 55 -141 171 0
-149 -164 55 141 -171 0
-149 -164 -56 -142 -172 0
-149 -164 -56 142 172 0
-149 -164 56 -142 172 0
-149 -164 56 142 -172 0
-150 -162 -57 -81 -165 0
-150 -162 -57 81 165 0
-150 -162 57 -81 165 0
-150 -162 57 81 -165 0
-150 -162 -58 -82 -166 0
-150 -162 -58 82 166 0
-150 -162 58 -82 166 0
-150 -162 58 82 -166 0
-150 -162 -59 -83 -167 0
-150 -162 -59 83 167 0
-150 -162 59 -83 167 0
-150 -162 59 83 -167 0
-150 -162 -60 -84 -168 0
-150 -162 -60 84 168 0
-150 -162 60 -84 168 0
-150 -162 60 84 -168 0
-150 -162 -61 -85 -169 0
-150 -162 -61 85 169 0
-150 -162 61 -85 169 0
-150 -162 61 85 -169 0
-150 -162 -62 -86 -170 0
-150 -162 -62 86 170 0
-150 -162 62 -86 170 0
-150 -162 62 86 -170 0
-150 -162 -63 -87 -171 0
-150 -162 -63 87 171 0
-150 -162 63 -87 171 0
-150 -162 63 87 -171 0
-150 -162 -64 -88 -172 0
-150 -162 -64 88 172 0
-150 -162 64 -88 172 0
-150 -162 64 88 -172 0
-150 -163 -57 -107 -165 0
-150 -163 -57 107 165 0
-150 -163 57 -107 165 0
-150 -163 57 107 -165 0
-150 -163 -58 -108 -166 0
-150 -163 -58 108 166 0
-150 -163 58 -108 166 0
-150 -163 58 108 -166 0
-150 -163 -59 -109 -167 0
-150 -163 -59 109 167 0
-150 -163 59 -109 167 0
-150 -163 59 109 -167 0
-150 -163 -60 -110 -168 0
-150 -163 -60 110 168 0
-150 -163 60 -110 168 0
-150 -163 60 110 -168 0
-150 -163 -61 -111 -169 0
-150 -163 -61 111 169 0
-150 -163 61 -111 169 0
-150 -163 61 111 -169 0
-150 -163 -62 -112 -170 0
-150 -163 -62 112 170 0
-150 -163 62 -112 170 0
-150 -163 62 112 -170 0
-150 -163 -63 -113 -171 0
-150 -163 -63 113 171 0
-150 -163 63 -113 171 0
-150 -163 63 113 -171 0
-150 -163 -64 -114 -172 0
-150 -163 -64 114 172 0
-150 -163 64 -114 172 0
-150 -163 64 114 -172 0
-150 -164 -57 -135 -165 0
-150 -164 -57 135 165 0
-150 -164 57 -135 165 0
-150 -164 57 135 -165 0
-150 -164 -58 -136 -166 0
-150 -164 -58 136 166 0
-150 -164 58 -136 166 0
-150 -164 58 136 -166 0
-150 -164 -59 -137 -167 0
-150 -164 -59 137 167 0
-150 -164 59 -137 167 0
-150 -164 59 137 -167 0
-150 -164 -60 -138 -168 0
-150 -164 -60 138 168 0
-150 -164 60 -138 168 0
-150 -164 60 138 -168 0
-150 -164 -61 -139 -169 0
-150 -164 -61 139 169 0
-150 -164 61 -139 169 0
-150 -164 61 139 -169 0
-150 -164 -62 -140 -170 0
-150 -164 -62 140 170 0
-150 -164 62 -140 170 0
-150 -164 62 140 -170 0
-150 -164 -63 -141 -171 0
-150 -164 -63 141 171 0
-150 -164 63 -141 171 0
-150 -164 63 141 -171 0
-150 -164 -64 -142 -172 0
-150 -164 -64 142 172 0
-150 -164 64 -142 172 0
-150 -164 64 142 -172 0
-151 -163 -81 -107 -165 0
-151 -163 -81 107 165 0
-151 -163 81 -107 165 0
-151 -163 81 107 -165 0
-151 -163 -82 -108 -166 0
-151 -163 -82 108 166 0
-151 -163 82 -108 166 0
-151 -163 82 108 -166 0
-151 -163 -83 -109 -167 0
-151 -163 -83 109 167 0
-151 -163 83 -109 167 0
-151 -163 83 109 -167 0
-151 -163 -84 -110 -168 0
-151 -163 -84 110 168 0
-151 -163 84 -110 168 0
-151 -163 84 110 -168 0
-151 -163 -85 -111 -169 0
-151 -163 -85 111 169 0
-151 -163 85 -111 169 0
-151 -163 85 111 -169 0
-151 -163 -86 -112 -170 0
-151 -163 -86 112 170 0
-151 -163 86 -112 170 0
-151 -163 86 112 -170 0
-151 -163 -87 -113 -171 0
-151 -163 -87 113 171 0
-151 -163 87 -113 171 0
-151 -163 87 113 -171 0
-151 -163 -88 -114 -172 0
-151 -163 -88 114 172 0
-151 -163 88 -114 172 0
-151 -163 88 114 -172 0
-151 -164 -81 -135 -165 0
-151 -164 -81 135 165 0
-151 -164 81 -135 165 0
-151 -164 81 135 -165 0
-151 -164 -82 -136 -166 0
-151 -164 -82 136 166 0
-151 -164 82 -136 166 0
-151 -164 82 136 -166 0
-151 -164 -83 -137 -167 0
-151 -164 -83 137 167 0
-151 -164 83 -137 167 0
-151 -164 83 137 -167 0
-151 -164 -84 -138 -168 0
-151 -164 -84 138 168 0
-151 -164 84 -138 168 0
-151 -164 84 138 -168 0
-151 -164 -85 -139 -169 0
-151 -164 -85 139 169 0
-151 -164 85 -139 169 0
-151 -164 85 139 -169 0
-151 -164 -86 -140 -170 0
-151 -164 -86 140 170 0
-151 -164 86 -140 170 0
-151 -164 86 140 -170 0
-151 -164 -87 -141 -171 0
-151 -164 -87 141 171 0
-151 -164 87 -141 171 0
-151 -164 87 141 -171 0
-151 -164 -88 -142 -172 0
-151 -164 -88 142 172 0
-151 -164 88 -142 172 0
-151 -164 88 142 -172 0
-152 -164 -107 -135 -165 0
-152 -164 -107 135 165 0
-152 -164 107 -135 165 0
-152 -164 107 135 -165 0
-152 -164 -108 -136 -166 0
-152 -164 -108 136 166 0
-152 -164 108 -136 166 0
-152 -164 108 136 -166 0
-152 -164 -109 -137 -167 0
-152 -164 -109 137 167 0
-152 -164 109 -137 167 0
-152 -164 109 137 -167 0
-152 -164 -110 -138 -168 0
-152 -164 -110 138 168 0
-152 -164 110 -138 168 0
-152 -164 110 138 -168 0
-152 -164 -111 -139 -169 0
-152 -164 -111 139 169 0
-152 -164 111 -139 169 0
-152 -164 111 139 -169 0
-152 -164 -112 -140 -170 0
-152 -164 -112 140 170 0
-152 -164 112 -140 170 0
-152 -164 112 140 -170 0
-152 -164 -113 -141 -171 0
-152 -164 -113 141 171 0
-152 -164 113 -141 171 0
-152 -164 113 141 -171 0
-152 -164 -114 -142 -172 0
-152 -164 -114 142 172 0
-152 -164 114 -142 172 0
-152 -164 114 142 -172 0
165 166 167 168 169 170 171 172 0
173 174 175 176 177 178 179 180 181 182 183 184 0
-173 -174 0
-173 -175 0
-173 -176 0
-173 -177 0
-173 -178 0
-173 -179 0
-173 -180 0
-173 -181 0
-173 -182 0
-173 -183 0
-173 -184 0
-174 -175 0
-174 -176 0
-174 -177 0
-174 -178 0
-174 -179 0
-174 -180 0
-174 -181 0
-174 -182 0
-174 -183 0
-174 -184 0
-175 -176 0
-175 -177 0
-175 -178 0
-175 -179 0
-175 -180 0
-175 -181 0
-175 -182 0
-175 -183 0
-175 -184 0
-176 -177 0
-176 -178 0
-176 -179 0
-176 -180 0
-176 -181 0
-176 -182 0
-176 -183 0
-176 -184 0
-177 -178 0
-177 -179 0
-177 -180 0
-177 -181 0
-177 -182 0
-177 -183 0
-177 -184 0
-178 -179 0
-178 -180 0
-178 -181 0
-178 -182 0
-178 -183 0
-178 -184 0
-179 -180 0
-179 -181 0
-179 -182 0
-179 -183 0
-179 -184 0
-180 -181 0
-180 -182 0
-180 -183 0
-180 -184 0
-181 -182 0
-181 -183 0
-181 -184 0
-182 -183 0
-182 -184 0
-183 -184 0
185 186 187 188 189 190 191 192 193 194 195 196 0
-185 -186 0
-185 -187 0
-185 -188 0
-185 -189 0
-185 -190 0
-185 -191 0
-185 -192 0
-185 -193 0
-185 -194 0
-185 -195 0
-185 -196 0
-186 -187 0
-186 -188 0
-186 -189 0
-186 -190 0
-186 -191 0
-186 -192 0
-186 -193 0
-186 -194 0
-186 -195 0
-186 -196 0
-187 -188 0
-187 -189 0
-187 -190 0
-187 -191 0
-187 -192 0
-187 -193 0
-187 -194 0
-187 -195 0
-187 -196 0
-188 -189 0
-188 -190 0
-188 -191 0
-188 -192 0
-188 -193 0
-188 -194 0
-188 -195 0
-188 -196 0
-189 -190 0
-189 -191 0
-189 -192 0
-189 -193 0
-189 -194 0
-189 -195 0
-189 -196 0
-190 -191 0
-190 -192 0
-190 -193 0
-190 -194 0
-190 -195 0
-190 -196 0
-191 -192 0
-191 -193 0
-191 -194 0
-191 -195 0
-191 -196 0
-192 -193 0
-192 -194 0
-192 -195 0
-192 -196 0
-193 -194 0
-193 -195 0
-193 -196 0
-194 -195 0
-194 -196 0
-195 -196 0
-173 -185 0
-174 -185 0
-174 -186 0
-175 -185 0
-175 -186 0
-175 -187 0
-176 -185 0
-176 -186 0
-176 -187 0
-176 -188 0
-177 -185 0
-177 -186 0
-177 -187 0
-177 -188 0
-177 -189 0
-178 -185 0
-178 -186 0
-178 -187 0
-178 -188 0
-178 -189 0
-178 -190 0
-179 -185 0
-179 -186 0
-179 -187 0
-179 -188 0
-179 -189 0
-179 -190 0
-179 -191 0
-180 -185 0
-180 -186 0
-180 -187 0
-180 -188 0
-180 -189 0
-180 -190 0
-180 -191 0
-180 -192 0
-181 -185 0
-181 -186 0
-181 -187 0
-181 -188 0
-181 -189 0
-181 -190 0
-181 -191 0
-181 -192 0
-181 -193 0
-182 -185 0
-182 -186 0
-182 -187 0
-182 -188 0
-182 -189 0
-182 -190 0
-182 -191 0
-182 -192 0
-182 -193 0
-182 -194 0
-183 -185 0
-183 -186 0
-183 -187 0
-183 -188 0
-183 -189 0
-183 -190 0
-183 -191 0
-183 -192 0
-183 -193 0
-183 -194 0
-183 -195 0
-184 -185 0
-184 -186 0
-184 -187 0
-184 -188 0
-184 -189 0
-184 -190 0
-184 -191 0
-184 -192 0
-184 -193 0
-184 -194 0
-184 -195 0
-184 -196 0
-173 -186 -1 -9 -197 0
-173 -186 -1 9 197 0
-173 -186 1 -9 197 0
-173 -186 1 9 -197 0
-173 -186 -2 -10 -198 0
-173 -186 -2 10 198 0
-173 -186 2 -10 198 0
-173 -186 2 10 -198 0
-173 -186 -3 -11 -199 0
-173 -186 -3 11 199 0
-173 -186 3 -11 199 0
-173 -186 3 11 -199 0
-173 -186 -4 -12 -200 0
-173 -186 -4 12 200 0
-173 -186 4 -12 200 0
-173 -186 4 12 -200 0
-173 -186 -5 -13 -201 0
-173 -186 -5 13 201 0
-173 -186 5 -13 201 0
-173 -186 5 13 -201 0
-173 -186 -6 -14 -202 0
-173 -186 -6 14 202 0
-173 -186 6 -14 202 0
-173 -186 6 14 -202 0
-173 -186 -7 -15 -203 0
-173 -186 -7 15 203 0
-173 -186 7 -15 203 0
-173 -186 7 15 -203 0
-173 -186 -8 -16 -204 0
-173 -186 -8 16 204 0
-173 -186 8 -16 204 0
-173 -186 8 16 -204 0
-173 -187 -1 -17 -197 0
-173 -187 -1 17 197 0
-173 -187 1 -17 197 0
-173 -187 1 17 -197 0
-173 -187 -2 -18 -198 0
-173 -187 -2 18 198 0
-173 -187 2 -18 198 0
-173 -187 2 18 -198 0
-173 -187 -3 -19 -199 0
-173 -187 -3 19 199 0
-173 -187 3 -19 199 0
-173 -187 3 19 -199 0
-173 -187 -4 -20 -200 0
-173 -187 -4 20 200 0
-173 -187 4 -20 200 0
-173 -187 4 20 -200 0
-173 -187 -5 -21 -201 0
-173 -187 -5 21 201 0
-173 -187 5 -21 201 0
-173 -187 5 21 -201 0
-173 -187 -6 -22 -202 0
-173 -187 -6 22 202 0
-173 -187 6 -22 202 0
-173 -187 6 22 -202 0
-173 -187 -7 -23 -203 0
-173 -187 -7 23 203 0
-173 -187 7 -23 203 0
-173 -187 7 23 -203 0
-173 -187 -8 -24 -204 0
-173 -187 -8 24 204 0
-173 -187 8 -24 204 0
-173 -187 8 24 -204 0
-173 -188 -1 -25 -197 0
-173 -188 -1 25 197 0
-173 -188 1 -25 197 0
-173 -188 1 25 -197 0
-173 -188 -2 -26 -198 0
-173 -188 -2 26 198 0
-173 -188 2 -26 198 0
-173 -188 2 26 -198 0
-173 -188 -3 -27 -199 0
-173 -188 -3 27 199 0
-173 -188 3 -27 199 0
-173 -188 3 27 -199 0
-173 -188 -4 -28 -200 0
-173 -188 -4 28 200 0
-173 -188 4 -28 200 0
-173 -188 4 28 -200 0
-173 -188 -5 -29 -201 0
-173 -188 -5 29 201 0
-173 -188 5 -29 201 0
-173 -188 5 29 -201 0
-173 -188 -6 -30 -202 0
-173 -188 -6 30 202 0
-173 -188 6 -30 202 0
-173 -188 6 30 -202 0
-173 -188 -7 -31 -203 0
-173 -188 -7 31 203 0
-173 -188 7 -31 203 0
-173 -188 7 31 -203 0
-173 -188 -8 -32 -204 0
-173 -188 -8 32 204 0
-173 -188 8 -32 204 0
-173 -188 8 32 -204 0
-173 -189 -1 -33 -197 0
-173 -189 -1 33 197 0
-173 -189 1 -33 197 0
-173 -189 1 33 -197 0
-173 -189 -2 -34 -198 0
-173 -189 -2 34 198 0
-173 -189 2 -34 198 0
-173 -189 2 34 -198 0
-173 -189 -3 -35 -199 0
-173 -189 -3 35 199 0
-173 -189 3 -35 199 0
-173 -189 3 35 -199 0
-173 -189 -4 -36 -200 0
-173 -189 -4 36 200 0
-173 -189 4 -36 200 0
-173 -189 4 36 -200 0
-173 -189 -5 -37 -201 0
-173 -189 -5 37 201 0
-173 -189 5 -37 201 0
-173 -189 5 37 -201 0
-173 -189 -6 -38 -202 0
-173 -189 -6 38 202 0
-173 -189 6 -38 202 0
-173 -189 6 38 -202 0
-173 -189 -7 -39 -203 0
-173 -189 -7 39 203 0
-173 -189 7 -39 203 0
-173 -189 7 39 -203 0
-173 -189 -8 -40 -204 0
-173 -189 -8 40 204 0
-173 -189 8 -40 204 0
-173 -189 8 40 -204 0
-173 -190 -1 -41 -197 0
-173 -190 -1 41 197 0
-173 -190 1 -41 197 0
-173 -190 1 41 -197 0
-173 -190 -2 -42 -198 0
-173 -190 -2 42 198 0
-173 -190 2 -42 198 0
-173 -190 2 42 -198 0
-173 -190 -3 -43 -199 0
-173 -190 -3 43 199 0
-173 -190 3 -43 199 0
-173 -190 3 43 -199 0
-173 -190 -4 -44 -200 0
-173 -190 -4 44 200 0
-173 -190 4 -44 200 0
-173 -190 4 44 -200 0
-173 -190 -5 -45 -201 0
-173 -190 -5 45 201 0
-173 -190 5 -45 201 0
-173 -190 5 45 -201 0
-173 -190 -6 -46 -202 0
-173 -190 -6 46 202 0
-173 -190 6 -46 202 0
-173 -190 6 46 -202 0
-173 -190 -7 -47 -203 0
-173 -190 -7 47 203 0
-173 -190 7 -47 203 0
-173 -190 7 47 -203 0
-173 -190 -8 -48 -204 0
-173 -190 -8 48 204 0
-173 -190 8 -48 204 0
-173 -190 8 48 -204 0
-173 -191 -1 -49 -197 0
-173 -191 -1 49 197 0
-173 -191 1 -49 197 0
-173 -191 1 49 -197 0
-173 -191 -2 -50 -198 0
-173 -191 -2 50 198 0
-173 -191 2 -50 198 0
-173 -191 2 50 -198 0
-173 -191 -3 -51 -199 0
-173 -191 -3 51 199 0
-173 -191 3 -51 199 0
-173 -191 3 51 -199 0
-173 -191 -4 -52 -200 0
-173 -191 -4 52 200 0
-173 -191 4 -52 200 0
-173 -191 4 52 -200 0
-173 -191 -5 -53 -201 0
-173 -191 -5 53 201 0
-173 -191 5 -53 201 0
-173 -191 5 53 -201 0
-173 -191 -6 -54 -202 0
-173 -191 -6 54 202 0
-173 -191 6 -54 202 0
-173 -191 6 54 -202 0
-173 -191 -7 -55 -203 0
-173 -191 -7 55 203 0
-173 -191 7 -55 203 0
-173 -191 7 55 -203 0
-173 -191 -8 -56 -204 0
-173 -191 -8 56 204 0
-173 -191 8 -56 204 0
-173 -191 8 56 -204 0
-173 -192 -1 -57 -197 0
-173 -192 -1 57 197 0
-173 -192 1 -57 197 0
-173 -192 1 57 -197 0
-173 -192 -2 -58 -198 0
-173 -192 -2 58 198 0
-173 -192 2 -58 198 0
-173 -192 2 58 -198 0
-173 -192 -3 -59 -199 0
-173 -192 -3 59 199 0
-173 -192 3 -59 199 0
-173 -192 3 59 -199 0
-173 -192 -4 -60 -200 0
-173 -192 -4 60 200 0
-173 -192 4 -60 200 0
-173 -192 4 60 -200 0
-173 -192 -5 -61 -201 0
-173 -192 -5 61 201 0
-173 -192 5 -61 201 0
-173 -192 5 61 -201 0
-173 -192 -6 -62 -202 0
-173 -192 -6 62 202 0
-173 -192 6 -62 202 0
-173 -192 6 62 -202 0
-173 -192 -7 -63 -203 0
-173 -192 -7 63 203 0
-173 -192 7 -63 203 0
-173 -192 7 63 -203 0
-173 -192 -8 -64 -204 0
-173 -192 -8 64 204 0
-173 -192 8 -64 204 0
-173 -192 8 64 -204 0
-173 -193 -1 -81 -197 0
-173 -193 -1 81 197 0
-173 -193 1 -81 197 0
-173 -193 1 81 -197 0
-173 -193 -2 -82 -198 0
-173 -193 -2 82 198 0
-173 -193 2 -82 198 0
-173 -193 2 82 -198 0
-173 -193 -3 -83 -199 0
-173 -193 -3 83 199 0
-173 -193 3 -83 199 0
-173 -193 3 83 -199 0
-173 -193 -4 -84 -200 0
-173 -193 -4 84 200 0
-173 -193 4 -84 200 0
-173 -193 4 84 -200 0
-173 -193 -5 -85 -201 0
-173 -193 -5 85 201 0
-173 -193 5 -85 201 0
-173 -193 5 85 -201 0
-173 -193 -6 -86 -202 0
-173 -193 -6 86 202 0
-173 -193 6 -86 202 0
-173 -193 6 86 -202 0
-173 -193 -7 -87 -203 0
-173 -193 -7 87 203 0
-173 -193 7 -87 203 0
-173 -193 7 87 -203 0
-173 -193 -8 -88 -204 0
-173 -193 -8 88 204 0
-173 -193 8 -88 204 0
-173 -193 8 88 -204 0
-173 -194 -1 -107 -197 0
-173 -194 -1 107 197 0
-173 -194 1 -107 197 0
-173 -194 1 107 -197 0
-173 -194 -2 -108 -198 0
-173 -194 -2 108 198 0
-173 -194 2 -108 198 0
-173 -194 2 108 -198 0
-173 -194 -3 -109 -199 0
-173 -194 -3 109 199 0
-173 -194 3 -109 199 0
-173 -194 3 109 -199 0
-173 -194 -4 -110 -200 0
-173 -194 -4 110 200 0
-173 -194 4 -110 200 0
-173 -194 4 110 -200 0
-173 -194 -5 -111 -201 0
-173 -194 -5 111 201 0
-173 -194 5 -111 201 0
-173 -194 5 111 -201 0
-173 -194 -6 -112 -202 0
-173 -194 -6 112 202 0
-173 -194 6 -112 202 0
-173 -194 6 112 -202 0
-173 -194 -7 -113 -203 0
-173 -194 -7 113 203 0
-173 -194 7 -113 203 0
-173 -194 7 113 -203 0
-173 -194 -8 -114 -204 0
-173 -194 -8 114 204 0
-173 -194 8 -114 204 0
-173 -194 8 114 -204 0
-173 -195 -1 -135 -197 0
-173 -195 -1 135 197 0
-173 -195 1 -135 197 0
-173 -195 1 135 -197 0
-173 -195 -2 -136 -198 0
-173 -195 -2 136 198 0
-173 -195 2 -136 198 0
-173 -195 2 136 -198 0
-173 -195 -3 -137 -199 0
-173 -195 -3 137 199 0
-173 -195 3 -137 199 0
-173 -195 3 137 -199 0
-173 -195 -4 -138 -200 0
-173 -195 -4 138 200 0
-173 -195 4 -138 200 0
-173 -195 4 138 -200 0
-173 -195 -5 -139 -201 0
-173 -195 -5 139 201 0
-173 -195 5 -139 201 0
-173 -195 5 139 -201 0
-173 -195 -6 -140 -202 0
-173 -195 -6 140 202 0
-173 -195 6 -140 202 0
-173 -195 6 140 -202 0
-173 -195 -7 -141 -203 0
-173 -195 -7 141 203 0
-173 -195 7 -141 203 0
-173 -195 7 141 -203 0
-173 -195 -8 -142 -204 0
-173 -195 -8 142 204 0
-173 -195 8 -142 204 0
-173 -195 8 142 -204 0
-173 -196 -1 -165 -197 0
-173 -196 -1 165 197 0
-173 -196 1 -165 197 0
-173 -196 1 165 -197 0
-173 -196 -2 -166 -198 0
-173 -196 -2 166 198 0
-173 -196 2 -166 198 0
-173 -196 2 166 -198 0
-173 -196 -3 -167 -199 0
-173 -196 -3 167 199 0
-173 -196 3 -167 199 0
-173 -196 3 167 -199 0
-173 -196 -4 -168 -200 0
-173 -196 -4 168 200 0
-173 -196 4 -168 200 0
-173 -196 4 168 -200 0
-173 -196 -5 -169 -201 0
-173 -196 -5 169 201 0
-173 -196 5 -169 201 0
-173 -196 5 169 -201 0
-173 -196 -6 -170 -202 0
-173 -196 -6 170 202 0
-173 -196 6 -170 202 0
-173 -196 6 170 -202 0
-173 -196 -7 -171 -203 0
-173 -196 -7 171 203 0
-173 -196 7 -171 203 0
-173 -196 7 171 -203 0
-173 -196 -8 -172 -204 0
-173 -196 -8 172 204 0
-173 -196 8 -172 204 0
-173 -196 8 172 -204 0
-174 -187 -9 -17 -197 0
-174 -187 -9 17 197 0
-174 -187 9 -17 197 0
-174 -187 9 17 -197 0
-174 -187 -10 -18 -198 0
-174 -187 -10 18 198 0
-174 -187 10 -18 198 0
-174 -187 10 18 -198 0
-174 -187 -11 -19 -199 0
-174 -187 -11 19 199 0
-174 -187 11 -19 199 0
-174 -187 11 19 -199 0
-174 -187 -12 -20 -200 0
-174 -187 -12 20 200 0
-174 -187 12 -20 200 0
-174 -187 12 20 -200 0
-174 -187 -13 -21 -201 0
-174 -187 -13 21 201 0
-174 -187 13 -21 201 0
-174 -187 13 21 -201 0
-174 -187 -14 -22 -202 0
-174 -187 -14 22 202 0
-174 -187 14 -22 202 0
-174 -187 14 22 -202 0
-174 -187 -15 -23 -203 0
-174 -187 -15 23 203 0
-174 -187 15 -23 203 0
-174 -187 15 23 -203 0
-174 -187 -16 -24 -204 0
-174 -187 -16 24 204 0
-174 -187 16 -24 204 0
-174 -187 16 24 -204 0
-174 -188 -9 -25 -197 0
-174 -188 -9 25 197 0
-174 -188 9 -25 197 0
-174 -188 9 25 -197 0
-174 -188 -10 -26 -198 0
-174 -188 -10 26 198 0
-174 -188 10 -26 198 0
-174 -188 10 26 -198 0
-174 -188 -11 -27 -199 0
-174 -188 -11 27 199 0
-174 -188 11 -27 199 0
-174 -188 11 27 -199 0
-174 -188 -12 -28 -200 0
-174 -188 -12 28 200 0
-174 -188 12 -28 200 0
-174 -188 12 28 -200 0
-174 -188 -13 -29 -201 0
-174 -188 -13 29 201 0
-174 -188 13 -29 201 0
-174 -188 13 29 -201 0
-174 -188 -14 -30 -202 0
-174 -188 -14 30 202 0
-174 -188 14 -30 202 0
-174 -188 14 30 -202 0
-174 -188 -15 -31 -203 0
-174 -188 -15 31 203 0
-174 -188 15 -31 203 0
-174 -188 15 31 -203 0
-174 -188 -16 -32 -204 0
-174 -188 -16 32 204 0
-174 -188 16 -32 204 0
-174 -188 16 32 -204 0
-174 -189 -9 -33 -197 0
-174 -189 -9 33 197 0
-174 -189 9 -33 197 0
-174 -189 9 33 -197 0
-174 -189 -10 -34 -198 0
-174 -189 -10 34 198 0
-174 -189 10 -34 198 0
-174 -189 10 34 -198 0
-174 -189 -11 -35 -199 0
-174 -189 -11 35 199 0
-174 -189 11 -35 199 0
-174 -189 11 35 -199 0
-174 -189 -12 -36 -200 0
-174 -189 -12 36 200 0
-174 -189 12 -36 200 0
-174 -189 12 36 -200 0
-174 -189 -13 -37 -201 0
-174 -189 -13 37 201 0
-174 -189 13 -37 201 0
-174 -189 13 37 -201 0
-174 -189 -14 -38 -202 0
-174 -189 -14 38 202 0
-174 -189 14 -38 202 0
-174 -189 14 38 -202 0
-174 -189 -15 -39 -203 0
-174 -189 -15 39 203 0
-174 -189 15 -39 203 0
-174 -189 15 39 -203 0
-174 -189 -16 -40 -204 0
-174 -189 -16 40 204 0
-174 -189 16 -40 204 0
-174 -189 16 40 -204 0
-174 -190 -9 -41 -197 0
-174 -190 -9 41 197 0
-174 -190 9 -41 197 0
-174 -190 9 41 -197 0
-174 -190 -10 -42 -198 0
-174 -190 -10 42 198 0
-174 -190 10 -42 198 0
-174 -190 10 42 -198 0
-174 -190 -11 -43 -199 0
-174 -190 -11 43 199 0
-174 -190 11 -43 199 0
-174 -190 11 43 -199 0
-174 -190 -12 -44 -200 0
-174 -190 -12 44 200 0
-174 -190 12 -44 200 0
-174 -190 12 44 -200 0
-174 -190 -13 -45 -201 0
-174 -190 -13 45 201 0
-174 -190 13 -45 201 0
-174 -190 13 45 -201 0
-174 -190 -14 -46 -202 0
-174 -190 -14 46 202 0
-174 -190 14 -46 202 0
-174 -190 14 46 -202 0
-174 -190 -15 -47 -203 0
-174 -190 -15 47 203 0
-174 -190 15 -47 203 0
-174 -190 15 47 -203 0
-174 -190 -16 -48 -204 0
-174 -190 -16 48 204 0
-174 -190 16 -48 204 0
-174 -190 16 48 -204 0
-174 -191 -9 -49 -197 0
-174 -191 -9 49 197 0
-174 -191 9 -49 197 0
-174 -191 9 49 -197 0
-174 -191 -10 -50 -198 0
-174 -191 -10 50 198 0
-174 -191 10 -50 198 0
-174 -191 10 50 -198 0
-174 -191 -11 -51 -199 0
-174 -191 -11 51 199 0
-174 -191 11 -51 199 0
-174 -191 11 51 -199 0
-174 -191 -12 -52 -200 0
-174 -191 -12 52 200 0
-174 -191 12 -52 200 0
-174 -191 12 52 -200 0
-174 -191 -13 -53 -201 0
-174 -191 -13 53 201 0
-174 -191 13 -53 201 0
-174 -191 13 53 -201 0
-174 -191 -14 -54 -202 0
-174 -191 -14 54 202 0
-174 -191 14 -54 202 0
-174 -191 14 54 -202 0
-174 -191 -15 -55 -203 0
-174 -191 -15 55 203 0
-174 -191 15 -55 203 0
-174 -191 15 55 -203 0
-174 -191 -16 -56 -204 0
-174 -191 -16 56 204 0
-174 -191 16 -56 204 0
-174 -191 16 56 -204 0
-174 -192 -9 -57 -197 0
-174 -192 -9 57 197 0
-174 -192 9 -57 197 0
-174 -192 9 57 -197 0
-174 -192 -10 -58 -198 0
-174 -192 -10 58 198 0
-174 -192 10 -58 198 0
-174 -192 10 58 -198 0
-174 -192 -11 -59 -199 0
-174 -192 -11 59 199 0
-174 -192 11 -59 199 0
-174 -192 11 59 -199 0
-174 -192 -12 -60 -200 0
-174 -192 -12 60 200 0
-174 -192 12 -60 200 0
-174 -192 12 60 -200 0
-174 -192 -13 -61 -201 0
-174 -192 -13 61 201 0
-174 -192 13 -61 201 0
-174 -192 13 61 -201 0
-174 -192 -14 -62 -202 0
-174 -192 -14 62 202 0
-174 -192 14 -62 202 0
-174 -192 14 62 -202 0
-174 -192 -15 -63 -203 0
-174 -192 -15 63 203 0
-174 -192 15 -63 203 0
-174 -192 15 63 -203 0
-174 -192 -16 -64 -204 0
-174 -192 -16 64 204 0
-174 -192 16 -64 204 0
-174 -192 16 64 -204 0
-174 -193 -9 -81 -197 0
-174 -193 -9 81 197 0
-174 -193 9 -81 197 0
-174 -193 9 81 -197 0
-174 -193 -10 -82 -198 0
-174 -193 -10 82 198 0
-174 -193 10 -82 198 0
-174 -193 10 82 -198 0
-174 -193 -11 -83 -199 0
-174 -193 -11 83 199 0
-174 -193 11 -83 199 0
-174 -193 11 83 -199 0
-174 -193 -12 -84 -200 0
-174 -193 -12 84 200 0
-174 -193 12 -84 200 0
-174 -193 12 84 -200 0
-174 -193 -13 -85 -201 0
-174 -193 -13 85 201 0
-174 -193 13 -85 201 0
-174 -193 13 85 -201 0
-174 -193 -14 -86 -202 0
-174 -193 -14 86 202 0
-174 -193 14 -86 202 0
-174 -193 14 86 -202 0
-174 -193 -15 -87 -203 0
-174 -193 -15 87 203 0
-174 -193 15 -87 203 0
-174 -193 15 87 -203 0
-174 -193 -16 -88 -204 0
-174 -193 -16 88 204 0
-174 -193 16 -88 204 0
-174 -193 16 88 -204 0
-174 -194 -9 -107 -197 0
-174 -194 -9 107 197 0
-174 -194 9 -107 197 0
-174 -194 9 107 -197 0
-174 -194 -10 -108 -198 0
-174 -194 -10 108 198 0
-174 -194 10 -108 198 0
-174 -194 10 108 -198 0
-174 -194 -11 -109 -199 0
-174 -194 -11 109 199 0
-174 -194 11 -109 199 0
-174 -194 11 109 -199 0
-174 -194 -12 -110 -200 0
-174 -194 -12 110 200 0
-174 -194 12 -110 200 0
-174 -194 12 110 -200 0
-174 -194 -13 -111 -201 0
-174 -194 -13 111 201 0
-174 -194 13 -111 201 0
-174 -194 13 111 -201 0
-174 -194 -14 -112 -202 0
-174 -194 -14 112 202 0
-174 -194 14 -112 202 0
-174 -194 14 112 -202 0
-174 -194 -15 -113 -203 0
-174 -194 -15 113 203 0
-174 -194 15 -113 203 0
-174 -194 15 113 -203 0
-174 -194 -16 -114 -204 0
-174 -194 -16 114 204 0
-174 -194 16 -114 204 0
-174 -194 16 114 -204 0
-174 -195 -9 -135 -197 0
-174 -195 -9 135 197 0
-174 -195 9 -135 197 0
-174 -195 9 135 -197 0
-174 -195 -10 -136 -198 0
-174 -195 -10 136 198 0
-174 -195 10 -136 198 0
-174 -195 10 136 -198 0
-174 -195 -11 -137 -199 0
-174 -195 -11 137 199 0
-174 -195 11 -137 199 0
-174 -195 11 137 -199 0
-174 -195 -12 -138 -200 0
-174 -195 -12 138 200 0
-174 -195 12 -138 200 0
-174 -195 12 138 -200 0
-174 -195 -13 -139 -201 0
-174 -195 -13 139 201 0
-174 -195 13 -139 201 0
-174 -195 13 139 -201 0
-174 -195 -14 -140 -202 0
-174 -195 -14 140 202 0
-174 -195 14 -140 202 0
-174 -195 14 140 -202 0
-174 -195 -15 -141 -203 0
-174 -195 -15 141 203 0
-174 -195 15 -141 203 0
-174 -195 15 141 -203 0
-174 -195 -16 -142 -204 0
-174 -195 -16 142 204 0
-174 -195 16 -142 204 0
-174 -195 16 142 -204 0
-174 -196 -9 -165 -197 0
-174 -196 -9 165 197 0
-174 -196 9 -165 197 0
-174 -196 9 165 -197 0
-174 -196 -10 -166 -198 0
-174 -196 -10 166 198 0
-174 -196 10 -166 198 0
-174 -196 10 166 -198 0
-174 -196 -11 -167 -199 0
-174 -196 -11 167 199 0
-174 -196 11 -167 199 0
-174 -196 11 167 -199 0
-174 -196 -12 -168 -200 0
-174 -196 -12 168 200 0
-174 -196 12 -168 200 0
-174 -196 12 168 -200 0
-174 -196 -13 -169 -201 0
-174 -196 -13 169 201 0
-174 -196 13 -169 201 0
-174 -196 13 169 -201 0
-174 -196 -14 -170 -202 0
-174 -196 -14 170 202 0
-174 -196 14 -170 202 0
-174 -196 14 170 -202 0
-174 -196 -15 -171 -203 0
-174 -196 -15 171 203 0
-174 -196 15 -171 203 0
-174 -196 15 171 -203 0
-174 -196 -16 -172 -204 0
-174 -196 -16 172 204 0
-174 -196 16 -172 204 0
-174 -196 16 172 -204 0
-175 -188 -17 -25 -197 0
-175 -188 -17 25 197 0
-175 -188 17 -25 197 0
-175 -188 17 25 -197 0
-175 -188 -18 -26 -198 0
-175 -188 -18 26 198 0
-175 -188 18 -26 198 0
-175 -188 18 26 -198 0
-175 -188 -19 -27 -199 0
-175 -188 -19 27 199 0
-175 -188 19 -27 199 0
-175 -188 19 27 -199 0
-175 -188 -20 -28 -200 0
-175 -188 -20 28 200 0
-175 -188 20 -28 200 0
-175 -188 20 28 -200 0
-175 -188 -21 -29 -201 0
-175 -188 -21 29 201 0
-175 -188 21 -29 201 0
-175 -188 21 29 -201 0
-175 -188 -22 -30 -202 0
-175 -188 -22 30 202 0
-175 -188 22 -30 202 0
-175 -188 22 30 -202 0
-175 -188 -23 -31 -203 0
-175 -188 -23 31 203 0
-175 -188 23 -31 203 0
-175 -188 23 31 -203 0
-175 -188 -24 -32 -204 0
-175 -188 -24 32 204 0
-175 -188 24 -32 204 0
-175 -188 24 32 -204 0
-175 -189 -17 -33 -197 0
-175 -189 -17 33 197 0
-175 -189 17 -33 197 0
-175 -189 17 33 -197 0
-175 -189 -18 -34 -198 0
-175 -189 -18 34 198 0
-175 -189 18 -34 198 0
-175 -189 18 34 -198 0
-175 -189 -19 -35 -199 0
-175 -189 -19 35 199 0
-175 -189 19 -35 199 0
-175 -189 19 35 -199 0
-175 -189 -20 -36 -200 0
-175 -189 -20 36 200 0
-175 -189 20 -36 200 0
-175 -189 20 36 -200 0
-175 -189 -21 -37 -201 0
-175 -189 -21 37 201 0
-175 -189 21 -37 201 0
-175 -189 21 37 -201 0
-175 -189 -22 -38 -202 0
-175 -189 -22 38 202 0
-175 -189 22 -38 202 0
-175 -189 22 38 -202 0
-175 -189 -23 -39 -203 0
-175 -189 -23 39 203 0
-175 -189 23 -39 203 0
-175 -189 23 39 -203 0
-175 -189 -24 -40 -204 0
-175 -189 -24 40 204 0
-175 -189 24 -40 204 0
-175 -189 24 40 -204 0
-175 -190 -17 -41 -197 0
-175 -190 -17 41 197 0
-175 -190 17 -41 197 0
-175 -190 17 41 -197 0
-175 -190 -18 -42 -198 0
-175 -190 -18 42 198 0
-175 -190 18 -42 198 0
-175 -190 18 42 -198 0
-175 -190 -19 -43 -199 0
-175 -190 -19 43 199 0
-175 -190 19 -43 199 0
-175 -190 19 43 -199 0
-175 -190 -20 -44 -200 0
-175 -190 -20 44 200 0
-175 -190 20 -44 200 0
-175 -190 20 44 -200 0
-175 -190 -21 -45 -201 0
-175 -190 -21 45 201 0
-175 -190 21 -45 201 0
-175 -190 21 45 -201 0
-175 -190 -22 -46 -202 0
-175 -190 -22 46 202 0
-175 -190 22 -46 202 0
-175 -190 22 46 -202 0
-175 -190 -23 -47 -203 0
-175 -190 -23 47 203 0
-175 -190 23 -47 203 0
-175 -190 23 47 -203 0
-175 -190 -24 -48 -204 0
-175 -190 -24 48 204 0
-175 -190 24 -48 204 0
-175 -190 24 48 -204 0
-175 -191 -17 -49 -197 0
-175 -191 -17 49 197 0
-175 -191 17 -49 197 0
-175 -191 17 49 -197 0
-175 -191 -18 -50 -198 0
-175 -191 -18 50 198 0
-175 -191 18 -50 198 0
-175 -191 18 50 -198 0
-175 -191 -19 -51 -199 0
-175 -191 -19 51 199 0
-175 -191 19 -51 199 0
-175 -191 19 51 -199 0
-175 -191 -20 -52 -200 0
-175 -191 -20 52 200 0
-175 -191 20 -52 200 0
-175 -191 20 52 -200 0
-175 -191 -21 -53 -201 0
-175 -191 -21 53 201 0
-175 -191 21 -53 201 0
-175 -191 21 53 -201 0
-175 -191 -22 -54 -202 0
-175 -191 -22 54 202 0
-175 -191 22 -54 202 0
-175 -191 22 54 -202 0
-175 -191 -23 -55 -203 0
-175 -191 -23 55 203 0
-175 -191 23 -55 203 0
-175 -191 23 55 -203 0
-175 -191 -24 -56 -204 0
-175 -191 -24 56 204 0
-175 -191 24 -56 204 0
-175 -191 24 56 -204 0
-175 -192 -17 -57 -197 0
-175 -192 -17 57 197 0
-175 -192 17 -57 197 0
-175 -192 17 57 -197 0
-175 -192 -18 -58 -198 0
-175 -192 -18 58 198 0
-175 -192 18 -58 198 0
-175 -192 18 58 -198 0
-175 -192 -19 -59 -199 0
-175 -192 -19 59 199 0
-175 -192 19 -59 199 0
-175 -192 19 59 -199 0
-175 -192 -20 -60 -200 0
-175 -192 -20 60 200 0
-175 -192 20 -60 200 0
-175 -192 20 60 -200 0
-175 -192 -21 -61 -201 0
-175 -192 -21 61 201 0
-175 -192 21 -61 201 0
-175 -192 21 61 -201 0
-175 -192 -22 -62 -202 0
-175 -192 -22 62 202 0
-175 -192 22 -62 202 0
-175 -192 22 62 -202 0
-175 -192 -23 -63 -203 0
-175 -192 -23 63 203 0
-175 -192 23 -63 203 0
-175 -192 23 63 -203 0
-175 -192 -24 -64 -204 0
-175 -192 -24 64 204 0
-175 -192 24 -64 204 0
-175 -192 24 64 -204 0
-175 -193 -17 -81 -197 0
-175 -193 -17 81 197 0
-175 -193 17 -81 197 0
-175 -193 17 81 -197 0
-175 -193 -18 -82 -198 0
-175 -193 -18 82 198 0
-175 -193 18 -82 198 0
-175 -193 18 82 -198 0
-175 -193 -19 -83 -199 0
-175 -193 -19 83 199 0
-175 -193 19 -83 199 0
-175 -193 19 83 -199 0
-175 -193 -20 -84 -200 0
-175 -193 -20 84 200 0
-175 -193 20 -84 200 0
-175 -193 20 84 -200 0
-175 -193 -21 -85 -201 0
-175 -193 -21 85 201 0
-175 -193 21 -85 201 0
-175 -193 21 85 -201 0
-175 -193 -22 -86 -202 0
-175 -193 -22 86 202 0
-175 -193 22 -86 202 0
-175 -193 22 86 -202 0
-175 -193 -23 -87 -203 0
-175 -193 -23 87 203 0
-175 -193 23 -87 203 0
-175 -193 23 87 -203 0
-175 -193 -24 -88 -204 0
-175 -193 -24 88 204 0
-175 -193 24 -88 204 0
-175 -193 24 88 -204 0
-175 -194 -17 -107 -197 0
-175 -194 -17 107 197 0
-175 -194 17 -107 197 0
-175 -194 17 107 -197 0
-175 -194 -18 -108 -198 0
-175 -194 -18 108 198 0
-175 -194 18 -108 198 0
-175 -194 18 108 -198 0
-175 -194 -19 -109 -199 0
-175 -194 -19 109 199 0
-175 -194 19 -109 199 0
-175 -194 19 109 -199 0
-175 -194 -20 -110 -200 0
-175 -194 -20 110 200 0
-175 -194 20 -110 200 0
-175 -194 20 110 -200 0
-175 -194 -21 -111 -201 0
-175 -194 -21 111 201 0
-175 -194 21 -111 201 0
-175 -194 21 111 -201 0
-175 -194 -22 -112 -202 0
-175 -194 -22 112 202 0
-175 -194 22 -112 202 0
-175 -194 22 112 -202 0
-175 -194 -23 -113 -203 0
-175 -194 -23 113 203 0
-175 -194 23 -113 203 0
-175 -194 23 113 -203 0
-175 -194 -24 -114 -204 0
-175 -194 -24 114 204 0
-175 -194 24 -114 204 0
-175 -194 24 114 -204 0
-175 -195 -17 -135 -197 0
-175 -195 -17 135 197 0
-175 -195 17 -135 197 0
-175 -195 17 135 -197 0
-175 -195 -18 -136 -198 0
-175 -195 -18 136 198 0
-175 -195 18 -136 198 0
-175 -195 18 136 -198 0
-175 -195 -19 -137 -199 0
-175 -195 -19 137 199 0
-175 -195 19 -137 199 0
-175 -195 19 137 -199 0
-175 -195 -20 -138 -200 0
-175 -195 -20 138 200 0
-175 -195 20 -138 200 0
-175 -195 20 138 -200 0
-175 -195 -21 -139 -201 0
-175 -195 -21 139 201 0
-175 -195 21 -139 201 0
-175 -195 21 139 -201 0
-175 -195 -22 -140 -202 0
-175 -195 -22 140 202 0
-175 -195 22 -140 202 0
-175 -195 22 140 -202 0
-175 -195 -23 -141 -203 0
-175 -195 -23 141 203 0
-175 -195 23 -141 203 0
-175 -195 23 141 -203 0
-175 -195 -24 -142 -204 0
-175 -195 -24 142 204 0
-175 -195 24 -142 204 0
-175 -195 24 142 -204 0
-175 -196 -17 -165 -197 0
-175 -196 -17 165 197 0
-175 -196 17 -165 197 0
-175 -196 17 165 -197 0
-175 -196 -18 -166 -198 0
-175 -196 -18 166 198 0
-175 -196 18 -166 198 0
-175 -196 18 166 -198 0
-175 -196 -19 -167 -199 0
-175 -196 -19 167 199 0
-175 -196 19 -167 199 0
-175 -196 19 167 -199 0
-175 -196 -20 -168 -200 0
-175 -196 -20 168 200 0
-175 -196 20 -168 200 0
-175 -196 20 168 -200 0
-175 -196 -21 -169 -201 0
-175 -196 -21 169 201 0
-175 -196 21 -169 201 0
-175 -196 21 169 -201 0
-175 -196 -22 -170 -202 0
-175 -196 -22 170 202 0
-175 -196 22 -170 202 0
-175 -196 22 170 -202 0
-175 -196 -23 -171 -203 0
-175 -196 -23 171 203 0
-175 -196 23 -171 203 0
-175 -196 23 171 -203 0
-175 -196 -24 -172 -204 0
-175 -196 -24 172 204 0
-175 -196 24 -172 204 0
-175 -196 24 172 -204 0
-176 -189 -25 -33 -197 0
-176 -189 -25 33 197 0
-176 -189 25 -33 197 0
-176 -189 25 33 -197 0
-176 -189 -26 -34 -198 0
-176 -189 -26 34 198 0
-176 -189 26 -34 198 0
-176 -189 26 34 -198 0
-176 -189 -27 -35 -199 0
-176 -189 -27 35 199 0
-176 -189 27 -35 199 0
-176 -189 27 35 -199 0
-176 -189 -28 -36 -200 0
-176 -189 -28 36 200 0
-176 -189 28 -36 200 0
-176 -189 28 36 -200 0
-176 -189 -29 -37 -201 0
-176 -189 -29 37 201 0
-176 -189 29 -37 201 0
-176 -189 29 37 -201 0
-176 -189 -30 -38 -202 0
-176 -189 -30 38 202 0
-176 -189 30 -38 202 0
-176 -189 30 38 -202 0
-176 -189 -31 -39 -203 0
-176 -189 -31 39 203 0
-176 -189 31 -39 203 0
-176 -189 31 39 -203 0
-176 -189 -32 -40 -204 0
-176 -189 -32 40 204 0
-176 -189 32 -40 204 0
-176 -189 32 40 -204 0
-176 -190 -25 -41 -197 0
-176 -190 -25 41 197 0
-176 -190 25 -41 197 0
-176 -190 25 41 -197 0
-176 -190 -26 -42 -198 0
-176 -190 -26 42 198 0
-176 -190 26 -42 198 0
-176 -190 26 42 -198 0
-176 -190 -27 -43 -199 0
-176 -190 -27 43 199 0
-176 -190 27 -43 199 0
-176 -190 27 43 -199 0
-176 -190 -28 -44 -200 0
-176 -190 -28 44 200 0
-176 -190 28 -44 200 0
-176 -190 28 44 -200 0
-176 -190 -29 -45 -201 0
-176 -190 -29 45 201 0
-176 -190 29 -45 201 0
-176 -190 29 45 -201 0
-176 -190 -30 -46 -202 0
-176 -190 -30 46 202 0
-176 -190 30 -46 202 0
-176 -190 30 46 -202 0
-176 -190 -31 -47 -203 0
-176 -190 -31 47 203 0
-176 -190 31 -47 203 0
-176 -190 31 47 -203 0
-176 -190 -32 -48 -204 0
-176 -190 -32 48 204 0
-176 -190 32 -48 204 0
-176 -190 32 48 -204 0
-176 -191 -25 -49 -197 0
-176 -191 -25 49 197 0
-176 -191 25 -49 197 0
-176 -191 25 49 -197 0
-176 -191 -26 -50 -198 0
-176 -191 -26 50 198 0
-176 -191 26 -50 198 0
-176 -191 26 50 -198 0
-176 -191 -27 -51 -199 0
-176 -191 -27 51 199 0
-176 -191 27 -51 199 0
-176 -191 27 51 -199 0
-176 -191 -28 -52 -200 0
-176 -191 -28 52 200 0
-176 -191 28 -52 200 0
-176 -191 28 52 -200 0
-176 -191 -29 -53 -201 0
-176 -191 -29 53 201 0
-176 -191 29 -53 201 0
-176 -191 29 53 -201 0
-176 -191 -30 -54 -202 0
-176 -191 -30 54 202 0
-176 -191 30 -54 202 0
-176 -191 30 54 -202 0
-176 -191 -31 -55 -203 0
-176 -191 -31 55 203 0
-176 -191 31 -55 203 0
-176 -191 31 55 -203 0
-176 -191 -32 -56 -204 0
-176 -191 -32 56 204 0
-176 -191 32 -56 204 0
-176 -191 32 56 -204 0
-176 -192 -25 -57 -197 0
-176 -192 -25 57 197 0
-176 -192 25 -57 197 0
-176 -192 25 57 -197 0
-176 -192 -26 -58 -198 0
-176 -192 -26 58 198 0
-176 -192 26 -58 198 0
-176 -192 26 58 -198 0
-176 -192 -27 -59 -199 0
-176 -192 -27 59 199 0
-176 -192 27 -59 199 0
-176 -192 27 59 -199 0
-176 -192 -28 -60 -200 0
-176 -192 -28 60 200 0
-176 -192 28 -60 200 0
-176 -192 28 60 -200 0
-176 -192 -29 -61 -201 0
-176 -192 -29 61 201 0
-176 -192 29 -61 201 0
-176 -192 29 61 -201 0
-176 -192 -30 -62 -202 0
-176 -192 -30 62 202 0
-176 -192 30 -62 202 0
-176 -192 30 62 -202 0
-176 -192 -31 -63 -203 0
-176 -192 -31 63 203 0
-176 -192 31 -63 203 0
-176 -192 31 63 -203 0
-176 -192 -32 -64 -204 0
-176 -192 -32 64 204 0
-176 -192 32 -64 204 0
-176 -192 32 64 -204 0
-176 -193 -25 -81 -197 0
-176 -193 -25 81 197 0
-176 -193 25 -81 197 0
-176 -193 25 81 -197 0
-176 -193 -26 -82 -198 0
-176 -193 -26 82 198 0
-176 -193 26 -82 198 0
-176 -193 26 82 -198 0
-176 -193 -27 -83 -199 0
-176 -193 -27 83 199 0
-176 -193 27 -83 199 0
-176 -193 27 83 -199 0
-176 -193 -28 -84 -200 0
-176 -193 -28 84 200 0
-176 -193 28 -84 200 0
-176 -193 28 84 -200 0
-176 -193 -29 -85 -201 0
-176 -193 -29 85 201 0
-176 -193 29 -85 201 0
-176 -193 29 85 -201 0
-176 -193 -30 -86 -202 0
-176 -193 -30 86 202 0
-176 -193 30 -86 202 0
-176 -193 30 86 -202 0
-176 -193 -31 -87 -203 0
-176 -193 -31 87 203 0
-176 -193 31 -87 203 0
-176 -193 31 87 -203 0
-176 -193 -32 -88 -204 0
-176 -193 -32 88 204 0
-176 -193 32 -88 204 0
-176 -193 32 88 -204 0
-176 -194 -25 -107 -197 0
-176 -194 -25 107 197 0
-176 -194 25 -107 197 0
-176 -194 25 107 -197 0
-176 -194 -26 -108 -198 0
-176 -194 -26 108 198 0
-176 -194 26 -108 198 0
-176 -194 26 108 -198 0
-176 -194 -27 -109 -199 0
-176 -194 -27 109 199 0
-176 -194 27 -109 199 0
-176 -194 27 109 -199 0
-176 -194 -28 -110 -200 0
-176 -194 -28 110 200 0
-176 -194 28 -110 200 0
-176 -194 28 110 -200 0
-176 -194 -29 -111 -201 0
-176 -194 -29 111 201 0
-176 -194 29 -111 201 0
-176 -194 29 111 -201 0
-176 -194 -30 -112 -202 0
-176 -194 -30 112 202 0
-176 -194 30 -112 202 0
-176 -194 30 112 -202 0
-176 -194 -31 -113 -203 0
-176 -194 -31 113 203 0
-176 -194 31 -113 203 0
-176 -194 31 113 -203 0
-176 -194 -32 -114 -204 0
-176 -194 -32 114 204 0
-176 -194 32 -114 204 0
-176 -194 32 114 -204 0
-176 -195 -25 -135 -197 0
-176 -195 -25 135 197 0
-176 -195 25 -135 197 0
-176 -195 25 135 -197 0
-176 -195 -26 -136 -198 0
-176 -195 -26 136 198 0
-176 -195 26 -136 198 0
-176 -195 26 136 -198 0
-176 -195 -27 -137 -199 0
-176 -195 -27 137 199 0
-176 -195 27 -137 199 0
-176 -195 27 137 -199 0
-176 -195 -28 -138 -200 0
-176 -195 -28 138 200 0
-176 -195 28 -138 200 0
-176 -195 28 138 -200 0
-176 -195 -29 -139 -201 0
-176 -195 -29 139 201 0
-176 -195 29 -139 201 0
-176 -195 29 139 -201 0
-176 -195 -30 -140 -202 0
-176 -195 -30 140 202 0
-176 -195 30 -140 202 0
-176 -195 30 140 -202 0
-176 -195 -31 -141 -203 0
-176 -195 -31 141 203 0
-176 -195 31 -141 203 0
-176 -195 31 141 -203 0
-176 -195 -32 -142 -204 0
-176 -195 -32 142 204 0
-176 -195 32 -142 204 0
-176 -195 32 142 -204 0
-176 -196 -25 -165 -197 0
-176 -196 -25 165 197 0
-176 -196 25 -165 197 0
-176 -196 25 165 -197 0
-176 -196 -26 -166 -198 0
-176 -196 -26 166 198 0
-176 -196 26 -166 198 0
-176 -196 26 166 -198 0
-176 -196 -27 -167 -199 0
-176 -196 -27 167 199 0
-176 -196 27 -167 199 0
-176 -196 27 167 -199 0
-176 -196 -28 -168 -200 0
-176 -196 -28 168 200 0
-176 -196 28 -168 200 0
-176 -196 28 168 -200 0
-176 -196 -29 -169 -201 0
-176 -196 -29 169 201 0
-176 -196 29 -169 201 0
-176 -196 29 169 -201 0
-176 -196 -30 -170 -202 0
-176 -196 -30 170 202 0
-176 -196 30 -170 202 0
-176 -196 30 170 -202 0
-176 -196 -31 -171 -203 0
-176 -196 -31 171 203 0
-176 -196 31 -171 203 0
-176 -196 31 171 -203 0
-176 -196 -32 -172 -204 0
-176 -196 -32 172 204 0
-176 -196 32 -172 204 0
-176 -196 32 172 -204 0
-177 -190 -33 -41 -197 0
-177 -190 -33 41 197 0
-177 -190 33 -41 197 0
-177 -190 33 41 -197 0
-177 -190 -34 -42 -198 0
-177 -190 -34 42 198 0
-177 -190 34 -42 198 0
-177 -190 34 42 -198 0
-177 -190 -35 -43 -199 0
-177 -190 -35 43 199 0
-177 -190 35 -43 199 0
-177 -190 35 43 -199 0
-177 -190 -36 -44 -200 0
-177 -190 -36 44 200 0
-177 -190 36 -44 200 0
-177 -190 36 44 -200 0
-177 -190 -37 -45 -201 0
-177 -190 -37 45 201 0
-177 -190 37 -45 201 0
-177 -190 37 45 -201 0
-177 -190 -38 -46 -202 0
-177 -190 -38 46 202 0
-177 -190 38 -46 202 0
-177 -190 38 46 -202 0
-177 -190 -39 -47 -203 0
-177 -190 -39 47 203 0
-177 -190 39 -47 203 0
-177 -190 39 47 -203 0
-177 -190 -40 -48 -204 0
-177 -190 -40 48 204 0
-177 -190 40 -48 204 0
-177 -190 40 48 -204 0
-177 -191 -33 -49 -197 0
-177 -191 -33 49 197 0
-177 -191 33 -49 197 0
-177 -191 33 49 -197 0
-177 -191 -34 -50 -198 0
-177 -191 -34 50 198 0
-177 -191 34 -50 198 0
-177 -191 34 50 -198 0
-177 -191 -35 -51 -199 0
-177 -191 -35 51 199 0
-177 -191 35 -51 199 0
-177 -191 35 51 -199 0
-177 -191 -36 -52 -200 0
-177 -191 -36 52 200 0
-177 -191 36 -52 200 0
-177 -191 36 52 -200 0
-177 -191 -37 -53 -201 0
-177 -191 -37 53 201 0
-177 -191 37 -53 201 0
-177 -191 37 53 -201 0
-177 -191 -38 -54 -202 0
-177 -191 -38 54 202 0
-177 -191 38 -54 202 0
-177 -191 38 54 -202 0
-177 -191 -39 -55 -203 0
-177 -191 -39 55 203 0
-177 -191 39 -55 203 0
-177 -191 39 55 -203 0
-177 -191 -40 -56 -204 0
-177 -191 -40 56 204 0
-177 -191 40 -56 204 0
-177 -191 40 56 -204 0
-177 -192 -33 -57 -197 0
-177 -192 -33 57 197 0
-177 -192 33 -57 197 0
-177 -192 33 57 -197 0
-177 -192 -34 -58 -198 0
-177 -192 -34 58 198 0
-177 -192 34 -58 198 0
-177 -192 34 58 -198 0
-177 -192 -35 -59 -199 0
-177 -192 -35 59 199 0
-177 -192 35 -59 199 0
-177 -192 35 59 -199 0
-177 -192 -36 -60 -200 0
-177 -192 -36 60 200 0
-177 -192 36 -60 200 0
-177 -192 36 60 -200 0
-177 -192 -37 -61 -201 0
-177 -192 -37 61 201 0
-177 -192 37 -61 201 0
-177 -192 37 61 -201 0
-177 -192 -38 -62 -202 0
-177 -192 -38 62 202 0
-177 -192 38 -62 202 0
-177 -192 38 62 -202 0
-177 -192 -39 -63 -203 0
-177 -192 -39 63 203 0
-177 -192 39 -63 203 0
-177 -192 39 63 -203 0
-177 -192 -40 -64 -204 0
-177 -192 -40 64 204 0
-177 -192 40 -64 204 0
-177 -192 40 64 -204 0
-177 -193 -33 -81 -197 0
-177 -193 -33 81 197 0
-177 -193 33 -81 197 0
-177 -193 33 81 -197 0
-177 -193 -34 -82 -198 0
-177 -193 -34 82 198 0
-177 -193 34 -82 198 0
-177 -193 34 82 -198 0
-177 -193 -35 -83 -199 0
-177 -193 -35 83 199 0
-177 -193 35 -83 199 0
-177 -193 35 83 -199 0
-177 -193 -36 -84 -200 0
-177 -193 -36 84 200 0
-177 -193 36 -84 200 0
-177 -193 36 84 -200 0
-177 -193 -37 -85 -201 0
-177 -193 -37 85 201 0
-177 -193 37 -85 201 0
-177 -193 37 85 -201 0
-177 -193 -38 -86 -202 0
-177 -193 -38 86 202 0
-177 -193 38 -86 202 0
-177 -193 38 86 -202 0
-177 -193 -39 -87 -203 0
-177 -193 -39 87 203 0
-177 -193 39 -87 203 0
-177 -193 39 87 -203 0
-177 -193 -40 -88 -204 0
-177 -193 -40 88 204 0
-177 -193 40 -88 204 0
-177 -193 40 88 -204 0
-177 -194 -33 -107 -197 0
-177 -194 -33 107 197 0
-177 -194 33 -107 197 0
-177 -194 33 107 -197 0
-177 -194 -34 -108 -198 0
-177 -194 -34 108 198 0
-177 -194 34 -108 198 0
-177 -194 34 108 -198 0
-177 -194 -35 -109 -199 0
-177 -194 -35 109 199 0
-177 -194 35 -109 199 0
-177 -194 35 109 -199 0
-177 -194 -36 -110 -200 0
-177 -194 -36 110 200 0
-177 -194 36 -110 200 0
-177 -194 36 110 -200 0
-177 -194 -37 -111 -201 0
-177 -194 -37 111 201 0
-177 -194 37 -111 201 0
-177 -194 37 111 -201 0
-177 -194 -38 -112 -202 0
-177 -194 -38 112 202 0
-177 -194 38 -112 202 0
-177 -194 38 112 -202 0
-177 -194 -39 -113 -203 0
-177 -194 -39 113 203 0
-177 -194 39 -113 203 0
-177 -194 39 113 -203 0
-177 -194 -40 -114 -204 0
-177 -194 -40 114 204 0
-177 -194 40 -114 204 0
-177 -194 40 114 -204 0
-177 -195 -33 -135 -197 0
-177 -195 -33 135 197 0
-177 -195 33 -135 197 0
-177 -195 33 135 -197 0
-177 -195 -34 -136 -198 0
-177 -195 -34 136 198 0
-177 -195 34 -136 198 0
-177 -195 34 136 -198 0
-177 -195 -35 -137 -199 0
-177 -195 -35 137 199 0
-177 -195 35 -137 199 0
-177 -195 35 137 -199 0
-177 -195 -36 -138 -200 0
-177 -195 -36 138 200 0
-177 -195 36 -138 200 0
-177 -195 36 138 -200 0
-177 -195 -37 -139 -201 0
-177 -195 -37 139 201 0
-177 -195 37 -139 201 0
-177 -195 37 139 -201 0
-177 -195 -38 -140 -202 0
-177 -195 -38 140 202 0
-177 -195 38 -140 202 0
-177 -195 38 140 -202 0
-177 -195 -39 -141 -203 0
-177 -195 -39 141 203 0
-177 -195 39 -141 203 0
-177 -195 39 141 -203 0
-177 -195 -40 -142 -204 0
-177 -195 -40 142 204 0
-177 -195 40 -142 204 0
-177 -195 40 142 -204 0
-177 -196 -33 -165 -197 0
-177 -196 -33 165 197 0
-177 -196 33 -165 197 0
-177 -196 33 165 -197 0
-177 -196 -34 -166 -198 0
-177 -196 -34 166 198 0
-177 -196 34 -166 198 0
-177 -196 34 166 -198 0
-177 -196 -35 -167 -199 0
-177 -196 -35 167 199 0
-177 -196 35 -167 199 0
-177 -196 35 167 -199 0
-177 -196 -36 -168 -200 0
-177 -196 -36 168 200 0
-177 -196 36 -168 200 0
-177 -196 36 168 -200 0
-177 -196 -37 -169 -201 0
-177 -196 -37 169 201 0
-177 -196 37 -169 201 0
-177 -196 37 169 -201 0
-177 -196 -38 -170 -202 0
-177 -196 -38 170 202 0
-177 -196 38 -170 202 0
-177 -196 38 170 -202 0
-177 -196 -39 -171 -203 0
-177 -196 -39 171 203 0
-177 -196 39 -171 203 0
-177 -196 39 171 -203 0
-177 -196 -40 -172 -204 0
-177 -196 -40 172 204 0
-177 -196 40 -172 204 0
-177 -196 40 172 -204 0
-178 -191 -41 -49 -197 0
-178 -191 -41 49 197 0
-178 -191 41 -49 197 0
-178 -191 41 49 -197 0
-178 -191 -42 -50 -198 0
-178 -191 -42 50 198 0
-178 -191 42 -50 198 0
-178 -191 42 50 -198 0
-178 -191 -43 -51 -199 0
-178 -191 -43 51 199 0
-178 -191 43 -51 199 0
-178 -191 43 51 -199 0
-178 -191 -44 -52 -200 0
-178 -191 -44 52 200 0
-178 -191 44 -52 200 0
-178 -191 44 52 -200 0
-178 -191 -45 -53 -201 0
-178 -191 -45 53 201 0
-178 -191 45 -53 201 0
-178 -191 45 53 -201 0
-178 -191 -46 -54 -202 0
-178 -191 -46 54 202 0
-178 -191 46 -54 202 0
-178 -191 46 54 -202 0
-178 -191 -47 -55 -203 0
-178 -191 -47 55 203 0
-178 -191 47 -55 203 0
-178 -191 47 55 -203 0
-178 -191 -48 -56 -204 0
-178 -191 -48 56 204 0
-178 -191 48 -56 204 0
-178 -191 48 56 -204 0
-178 -192 -41 -57 -197 0
-178 -192 -41 57 197 0
-178 -192 41 -57 197 0
-178 -192 41 57 -197 0
-178 -192 -42 -58 -198 0
-178 -192 -42 58 198 0
-178 -192 42 -58 198 0
-178 -192 42 58 -198 0
-178 -192 -43 -59 -199 0
-178 -192 -43 59 199 0
-178 -192 43 -59 199 0
-178 -192 43 59 -199 0
-178 -192 -44 -60 -200 0
-178 -192 -44 60 200 0
-178 -192 44 -60 200 0
-178 -192 44 60 -200 0
-178 -192 -45 -61 -201 0
-178 -192 -45 61 201 0
-178 -192 45 -61 201 0
-178 -192 45 61 -201 0
-178 -192 -46 -62 -202 0
-178 -192 -46 62 202 0
-178 -192 46 -62 202 0
-178 -192 46 62 -202 0
-178 -192 -47 -63 -203 0
-178 -192 -47 63 203 0
-178 -192 47 -63 203 0
-178 -192 47 63 -203 0
-178 -192 -48 -64 -204 0
-178 -192 -48 64 204 0
-178 -192 48 -64 204 0
-178 -192 48 64 -204 0
-178 -193 -41 -81 -197 0
-178 -193 -41 81 197 0
-178 -193 41 -81 197 0
-178 -193 41 81 -197 0
-178 -193 -42 -82 -198 0
-178 -193 -42 82 198 0
-178 -193 42 -82 198 0
-178 -193 42 82 -198 0
-178 -193 -43 -83 -199 0
-178 -193 -43 83 199 0
-178 -193 43 -83 199 0
-178 -193 43 83 -199 0
-178 -193 -44 -84 -200 0
-178 -193 -44 84 200 0
-178 -193 44 -84 200 0
-178 -193 44 84 -200 0
-178 -193 -45 -85 -201 0
-178 -193 -45 85 201 0
-178 -193 45 -85 201 0
-178 -193 45 85 -201 0
-178 -193 -46 -86 -202 0
-178 -193 -46 86 202 0
-178 -193 46 -86 202 0
-178 -193 46 86 -202 0
-178 -193 -47 -87 -203 0
-178 -193 -47 87 203 0
-178 -193 47 -87 203 0
-178 -193 47 87 -203 0
-178 -193 -48 -88 -204 0
-178 -193 -48 88 204 0
-178 -193 48 -88 204 0
-178 -193 48 88 -204 0
-178 -194 -41 -107 -197 0
-178 -194 -41 107 197 0
-178 -194 41 -107 197 0
-178 -194 41 107 -197 0
-178 -194 -42 -108 -198 0
-178 -194 -42 108 198 0
-178 -194 42 -108 198 0
-178 -194 42 108 -198 0
-178 -194 -43 -109 -199 0
-178 -194 -43 109 199 0
-178 -194 43 -109 199 0
-178 -194 43 109 -199 0
-178 -194 -44 -110 -200 0
-178 -194 -44 110 200 0
-178 -194 44 -110 200 0
-178 -194 44 110 -200 0
-178 -194 -45 -111 -201 0
-178 -194 -45 111 201 0
-178 -194 45 -111 201 0
-178 -194 45 111 -201 0
-178 -194 -46 -112 -202 0
-178 -194 -46 112 202 0
-178 -194 46 -112 202 0
-178 -194 46 112 -202 0
-178 -194 -47 -113 -203 0
-178 -194 -47 113 203 0
-178 -194 47 -113 203 0
-178 -194 47 113 -203 0
-178 -194 -48 -114 -204 0
-178 -194 -48 114 204 0
-178 -194 48 -114 204 0
-178 -194 48 114 -204 0
-178 -195 -41 -135 -197 0
-178 -195 -41 135 197 0
-178 -195 41 -135 197 0
-178 -195 41 135 -197 0
-178 -195 -42 -136 -198 0
-178 -195 -42 136 198 0
-178 -195 42 -136 198 0
-178 -195 42 136 -198 0
-178 -195 -43 -137 -199 0
-178 -195 -43 137 199 0
-178 -195 43 -137 199 0
-178 -195 43 137 -199 0
-178 -195 -44 -138 -200 0
-178 -195 -44 138 200 0
-178 -195 44 -138 200 0
-178 -195 44 138 -200 0
-178 -195 -45 -139 -201 0
-178 -195 -45 139 201 0
-178 -195 45 -139 201 0
-178 -195 45 139 -201 0
-178 -195 -46 -140 -202 0
-178 -195 -46 140 202 0
-178 -195 46 -140 202 0
-178 -195 46 140 -202 0
-178 -195 -47 -141 -203 0
-178 -195 -47 141 203 0
-178 -195 47 -141 203 0
-178 -195 47 141 -203 0
-178 -195 -48 -142 -204 0
-178 -195 -48 142 204 0
-178 -195 48 -142 204 0
-178 -195 48 142 -204 0
-178 -196 -41 -165 -197 0
-178 -196 -41 165 197 0
-178 -196 41 -165 197 0
-178 -196 41 165 -197 0
-178 -196 -42 -166 -198 0
-178 -196 -42 166 198 0
-178 -196 42 -166 198 0
-178 -196 42 166 -198 0
-178 -196 -43 -167 -199 0
-178 -196 -43 167 199 0
-178 -196 43 -167 199 0
-178 -196 43 167 -199 0
-178 -196 -44 -168 -200 0
-178 -196 -44 168 200 0
-178 -196 44 -168 200 0
-178 -196 44 168 -200 0
-178 -196 -45 -169 -201 0
-178 -196 -45 169 201 0
-178 -196 45 -169 201 0
-178 -196 45 169 -201 0
-178 -196 -46 -170 -202 0
-178 -196 -46 170 202 0
-178 -196 46 -170 202 0
-178 -196 46 170 -202 0
-178 -196 -47 -171 -203 0
-178 -196 -47 171 203 0
-178 -196 47 -171 203 0
-178 -196 47 171 -203 0
-178 -196 -48 -172 -204 0
-178 -196 -48 172 204 0
-178 -196 48 -172 204 0
-178 -196 48 172 -204 0
-179 -192 -49 -57 -197 0
-179 -192 -49 57 197 0
-179 -192 49 -57 197 0
-179 -192 49 57 -197 0
-179 -192 -50 -58 -198 0
-179 -192 -50 58 198 0
-179 -192 50 -58 198 0
-179 -192 50 58 -198 0
-179 -192 -51 -59 -199 0
-179 -192 -51 59 199 0
-179 -192 51 -59 199 0
-179 -192 51 59 -199 0
-179 -192 -52 -60 -200 0
-179 -192 -52 60 200 0
-179 -192 52 -60 200 0
-179 -192 52 60 -200 0
-179 -192 -53 -61 -201 0
-179 -192 -53 61 201 0
-179 -192 53 -61 201 0
-179 -192 53 61 -201 0
-179 -192 -54 -62 -202 0
-179 -192 -54 62 202 0
-179 -192 54 -62 202 0
-179 -192 54 62 -202 0
-179 -192 -55 -63 -203 0
-179 -192 -55 63 203 0
-179 -192 55 -63 203 0
-179 -192 55 63 -203 0
-179 -192 -56 -64 -204 0
-179 -192 -56 64 204 0
-179 -192 56 -64 204 0
-179 -192 56 64 -204 0
-179 -193 -49 -81 -197 0
-179 -193 -49 81 197 0
-179 -193 49 -81 197 0
-179 -193 49 81 -197 0
-179 -193 -50 -82 -198 0
-179 -193 -50 82 198 0
-179 -193 50 -82 198 0
-179 -193 50 82 -198 0
-179 -193 -51 -83 -199 0
-179 -193 -51 83 199 0
-179 -193 51 -83 199 0
-179 -193 51 83 -199 0
-179 -193 -52 -84 -200 0
-179 -193 -52 84 200 0
-179 -193 52 -84 200 0
-179 -193 52 84 -200 0
-179 -193 -53 -85 -201 0
-179 -193 -53 85 201 0
-179 -193 53 -85 201 0
-179 -193 53 85 -201 0
-179 -193 -54 -86 -202 0
-179 -193 -54 86 202 0
-179 -193 54 -86 202 0
-179 -193 54 86 -202 0
-179 -193 -55 -87 -203 0
-179 -193 -55 87 203 0
-179 -193 55 -87 203 0
-179 -193 55 87 -203 0
-179 -193 -56 -88 -204 0
-179 -193 -56 88 204 0
-179 -193 56 -88 204 0
-179 -193 56 88 -204 0
-179 -194 -49 -107 -197 0
-179 -194 -49 107 197 0
-179 -194 49 -107 197 0
-179 -194 49 107 -197 0
-179 -194 -50 -108 -198 0
-179 -194 -50 108 198 0
-179 -194 50 -108 198 0
-179 -194 50 108 -198 0
-179 -194 -51 -109 -199 0
-179 -194 -51 109 199 0
-179 -194 51 -109 199 0
-179 -194 51 109 -199 0
-179 -194 -52 -110 -200 0
-179 -194 -52 110 200 0
-179 -194 52 -110 200 0
-179 -194 52 110 -200 0
-179 -194 -53 -111 -201 0
-179 -194 -53 111 201 0
-179 -194 53 -111 201 0
-179 -194 53 111 -201 0
-179 -194 -54 -112 -202 0
-179 -194 -54 112 202 0
-179 -194 54 -112 202 0
-179 -194 54 112 -202 0
-179 -194 -55 -113 -203 0
-179 -194 -55 113 203 0
-179 -194 55 -113 203 0
-179 -194 55 113 -203 0
-179 -194 -56 -114 -204 0
-179 -194 -56 114 204 0
-179 -194 56 -114 204 0
-179 -194 56 114 -204 0
-179 -195 -49 -135 -197 0
-179 -195 -49 135 197 0
-179 -195 49 -135 197 0
-179 -195 49 135 -197 0
-179 -195 -50 -136 -198 0
-179 -195 -50 136 198 0
-179 -195 50 -136 198 0
-179 -195 50 136 -198 0
-179 -195 -51 -137 -199 0
-179 -195 -51 137 199 0
-179 -195 51 -137 199 0
-179 -195 51 137 -199 0
-179 -195 -52 -138 -200 0
-179 -195 -52 138 200 0
-179 -195 52 -138 200 0
-179 -195 52 138 -200 0
-179 -195 -53 -139 -201 0
-179 -195 -53 139 201 0
-179 -195 53 -139 201 0
-179 -195 53 139 -201 0
-179 -195 -54 -140 -202 0
-179 -195 -54 140 202 0
-179 -195 54 -140 202 0
-179 -195 54 140 -202 0
-179 -195 -55 -141 -203 0
-179 -195 -55 141 203 0
-179 -195 55 -141 203 0
-179 -195 55 141 -203 0
-179 -195 -56 -142 -204 0
-179 -195 -56 142 204 0
-179 -195 56 -142 204 0
-179 -195 56 142 -204 0
-179 -196 -49 -165 -197 0
-179 -196 -49 165 197 0
-179 -196 49 -165 197 0
-179 -196 49 165 -197 0
-179 -196 -50 -166 -198 0
-179 -196 -50 166 198 0
-179 -196 50 -166 198 0
-179 -196 50 166 -198 0
-179 -196 -51 -167 -199 0
-179 -196 -51 167 199 0
-179 -196 51 -167 199 0
-179 -196 51 167 -199 0
-179 -196 -52 -168 -200 0
-179 -196 -52 168 200 0
-179 -196 52 -168 200 0
-179 -196 52 168 -200 0
-179 -196 -53 -169 -201 0
-179 -196 -53 169 201 0
-179 -196 53 -169 201 0
-179 -196 53 169 -201 0
-179 -196 -54 -170 -202 0
-179 -196 -54 170 202 0
-179 -196 54 -170 202 0
-179 -196 54 170 -202 0
-179 -196 -55 -171 -203 0
-179 -196 -55 171 203 0
-179 -196 55 -171 203 0
-179 -196 55 171 -203 0
-179 -196 -56 -172 -204 0
-179 -196 -56 172 204 0
-179 -196 56 -172 204 0
-179 -196 56 172 -204 0
-180 -193 -57 -81 -197 0
-180 -193 -57 81 197 0
-180 -193 57 -81 197 0
-180 -193 57 81 -197 0
-180 -193 -58 -82 -198 0
-180 -193 -58 82 198 0
-180 -193 58 -82 198 0
-180 -193 58 82 -198 0
-180 -193 -59 -83 -199 0
-180 -193 -59 83 199 0
-180 -193 59 -83 199 0
-180 -193 59 83 -199 0
-180 -193 -60 -84 -200 0
-180 -193 -60 84 200 0
-180 -193 60 -84 200 0
-180 -193 60 84 -200 0
-180 -193 -61 -85 -201 0
-180 -193 -61 85 201 0
-180 -193 61 -85 201 0
-180 -193 61 85 -201 0
-180 -193 -62 -86 -202 0
-180 -193 -62 86 202 0
-180 -193 62 -86 202 0
-180 -193 62 86 -202 0
-180 -193 -63 -87 -203 0
-180 -193 -63 87 203 0
-180 -193 63 -87 203 0
-180 -193 63 87 -203 0
-180 -193 -64 -88 -204 0
-180 -193 -64 88 204 0
-180 -193 64 -88 204 0
-180 -193 64 88 -204 0
-180 -194 -57 -107 -197 0
-180 -194 -57 107 197 0
-180 -194 57 -107 197 0
-180 -194 57 107 -197 0
-180 -194 -58 -108 -198 0
-180 -194 -58 108 198 0
-180 -194 58 -108 198 0
-180 -194 58 108 -198 0
-180 -194 -59 -109 -199 0
-180 -194 -59 109 199 0
-180 -194 59 -109 199 0
-180 -194 59 109 -199 0
-180 -194 -60 -110 -200 0
-180 -194 -60 110 200 0
-180 -194 60 -110 200 0
-180 -194 60 110 -200 0
-180 -194 -61 -111 -201 0
-180 -194 -61 111 201 0
-180 -194 61 -111 201 0
-180 -194 61 111 -201 0
-180 -194 -62 -112 -202 0
-180 -194 -62 112 202 0
-180 -194 62 -112 202 0
-180 -194 62 112 -202 0
-180 -194 -63 -113 -203 0
-180 -194 -63 113 203 0
-180 -194 63 -113 203 0
-180 -194 63 113 -203 0
-180 -194 -64 -114 -204 0
-180 -194 -64 114 204 0
-180 -194 64 -114 204 0
-180 -194 64 114 -204 0
-180 -195 -57 -135 -197 0
-180 -195 -57 135 197 0
-180 -195 57 -135 197 0
-180 -195 57 135 -197 0
-180 -195 -58 -136 -198 0
-180 -195 -58 136 198 0
-180 -195 58 -136 198 0
-180 -195 58 136 -198 0
-180 -195 -59 -137 -199 0
-180 -195 -59 137 199 0
-180 -195 59 -137 199 0
-180 -195 59 137 -199 0
-180 -195 -60 -138 -200 0
-180 -195 -60 138 200 0
-180 -195 60 -138 200 0
-180 -195 60 138 -200 0
-180 -195 -61 -139 -201 0
-180 -195 -61 139 201 0
-180 -195 61 -139 201 0
-180 -195 61 139 -201 0
-180 -195 -62 -140 -202 0
-180 -195 -62 140 202 0
-180 -195 62 -140 202 0
-180 -195 62 140 -202 0
-180 -195 -63 -141 -203 0
-180 -195 -63 141 203 0
-180 -195 63 -141 203 0
-180 -195 63 141 -203 0
-180 -195 -64 -142 -204 0
-180 -195 -64 142 204 0
-180 -195 64 -142 204 0
-180 -195 64 142 -204 0
-180 -196 -57 -165 -197 0
-180 -196 -57 165 197 0
-180 -196 57 -165 197 0
-180 -196 57 165 -197 0
-180 -196 -58 -166 -198 0
-180 -196 -58 166 198 0
-180 -196 58 -166 198 0
-180 -196 58 166 -198 0
-180 -196 -59 -167 -199 0
-180 -196 -59 167 199 0
-180 -196 59 -167 199 0
-180 -196 59 167 -199 0
-180 -196 -60 -168 -200 0
-180 -196 -60 168 200 0
-180 -196 60 -168 200 0
-180 -196 60 168 -200 0
-180 -196 -61 -169 -201 0
-180 -196 -61 169 201 0
-180 -196 61 -169 201 0
-180 -196 61 169 -201 0
-180 -196 -62 -170 -202 0
-180 -196 -62 170 202 0
-180 -196 62 -170 202 0
-180 -196 62 170 -202 0
-180 -196 -63 -171 -203 0
-180 -196 -63 171 203 0
-180 -196 63 -171 203 0
-180 -196 63 171 -203 0
-180 -196 -64 -172 -204 0
-180 -196 -64 172 204 0
-180 -196 64 -172 204 0
-180 -196 64 172 -204 0
-181 -194 -81 -107 -197 0
-181 -194 -81 107 197 0
-181 -194 81 -107 197 0
-181 -194 81 107 -197 0
-181 -194 -82 -108 -198 0
-181 -194 -82 108 198 0
-181 -194 82 -108 198 0
-181 -194 82 108 -198 0
-181 -194 -83 -109 -199 0
-181 -194 -83 109 199 0
-181 -194 83 -109 199 0
-181 -194 83 109 -199 0
-181 -194 -84 -110 -200 0
-181 -194 -84 110 200 0
-181 -194 84 -110 200 0
-181 -194 84 110 -200 0
-181 -194 -85 -111 -201 0
-181 -194 -85 111 201 0
-181 -194 85 -111 201 0
-181 -194 85 111 -201 0
-181 -194 -86 -112 -202 0
-181 -194 -86 112 202 0
-181 -194 86 -112 202 0
-181 -194 86 112 -202 0
-181 -194 -87 -113 -203 0
-181 -194 -87 113 203 0
-181 -194 87 -113 203 0
-181 -194 87 113 -203 0
-181 -194 -88 -114 -204 0
-181 -194 -88 114 204 0
-181 -194 88 -114 204 0
-181 -194 88 114 -204 0
-181 -195 -81 -135 -197 0
-181 -195 -81 135 197 0
-181 -195 81 -135 197 0
-181 -195 81 135 -197 0
-181 -195 -82 -136 -198 0
-181 -195 -82 136 198 0
-181 -195 82 -136 198 0
-181 -195 82 136 -198 0
-181 -195 -83 -137 -199 0
-181 -195 -83 137 199 0
-181 -195 83 -137 199 0
-181 -195 83 137 -199 0
-181 -195 -84 -138 -200 0
-181 -195 -84 138 200 0
-181 -195 84 -138 200 0
-181 -195 84 138 -200 0
-181 -195 -85 -139 -201 0
-181 -195 -85 139 201 0
-181 -195 85 -139 201 0
-181 -195 85 139 -201 0
-181 -195 -86 -140 -202 0
-181 -195 -86 140 202 0
-181 -195 86 -140 202 0
-181 -195 86 140 -202 0
-181 -195 -87 -141 -203 0
-181 -195 -87 141 203 0
-181 -195 87 -141 203 0
-181 -195 87 141 -203 0
-181 -195 -88 -142 -204 0
-181 -195 -88 142 204 0
-181 -195 88 -142 204 0
-181 -195 88 142 -204 0
-181 -196 -81 -165 -197 0
-181 -196 -81 165 197 0
-181 -196 81 -165 197 0
-181 -196 81 165 -197 0
-181 -196 -82 -166 -198 0
-181 -196 -82 166 198 0
-181 -196 82 -166 198 0
-181 -196 82 166 -198 0
-181 -196 -83 -167 -199 0
-181 -196 -83 167 199 0
-181 -196 83 -167 199 0
-181 -196 83 167 -199 0
-181 -196 -84 -168 -200 0
-181 -196 -84 168 200 0
-181 -196 84 -168 200 0
-181 -196 84 168 -200 0
-181 -196 -85 -169 -201 0
-181 -196 -85 169 201 0
-181 -196 85 -169 201 0
-181 -196 85 169 -201 0
-181 -196 -86 -170 -202 0
-181 -196 -86 170 202 0
-181 -196 86 -170 202 0
-181 -196 86 170 -202 0
-181 -196 -87 -171 -203 0
-181 -196 -87 171 203 0
-181 -196 87 -171 203 0
-181 -196 87 171 -203 0
-181 -196 -88 -172 -204 0
-181 -196 -88 172 204 0
-181 -196 88 -172 204 0
-181 -196 88 172 -204 0
-182 -195 -107 -135 -197 0
-182 -195 -107 135 197 0
-182 -195 107 -135 197 0
-182 -195 107 135 -197 0
-182 -195 -108 -136 -198 0
-182 -195 -108 136 198 0
-182 -195 108 -136 198 0
-182 -195 108 136 -198 0
-182 -195 -109 -137 -199 0
-182 -195 -109 137 199 0
-182 -195 109 -137 199 0
-182 -195 109 137 -199 0
-182 -195 -110 -138 -200 0
-182 -195 -110 138 200 0
-182 -195 110 -138 200 0
-182 -195 110 138 -200 0
-182 -195 -111 -139 -201 0
-182 -195 -111 139 201 0
-182 -195 111 -139 201 0
-182 -195 111 139 -201 0
-182 -195 -112 -140 -202 0
-182 -195 -112 140 202 0
-182 -195 112 -140 202 0
-182 -195 112 140 -202 0
-182 -195 -113 -141 -203 0
-182 -195 -113 141 203 0
-182 -195 113 -141 203 0
-182 -195 113 141 -203 0
-182 -195 -114 -142 -204 0
-182 -195 -114 142 204 0
-182 -195 114 -142 204 0
-182 -195 114 142 -204 0
-182 -196 -107 -165 -197 0
-182 -196 -107 165 197 0
-182 -196 107 -165 197 0
-182 -196 107 165 -197 0
-182 -196 -108 -166 -198 0
-182 -196 -108 166 198 0
-182 -196 108 -166 198 0
-182 -196 108 166 -198 0
-182 -196 -109 -167 -199 0
-182 -196 -109 167 199 0
-182 -196 109 -167 199 0
-182 -196 109 167 -199 0
-182 -196 -110 -168 -200 0
-182 -196 -110 168 200 0
-182 -196 110 -168 200 0
-182 -196 110 168 -200 0
-182 -196 -111 -169 -201 0
-182 -196 -111 169 201 0
-182 -196 111 -169 201 0
-182 -196 111 169 -201 0
-182 -196 -112 -170 -202 0
-182 -196 -112 170 202 0
-182 -196 112 -170 202 0
-182 -196 112 170 -202 0
-182 -196 -113 -171 -203 0
-182 -196 -113 171 203 0
-182 -196 113 -171 203 0
-182 -196 113 171 -203 0
-182 -196 -114 -172 -204 0
-182 -196 -114 172 204 0
-182 -196 114 -172 204 0
-182 -196 114 172 -204 0
-183 -196 -135 -165 -197 0
-183 -196 -135 165 197 0
-183 -196 135 -165 197 0
-183 -196 135 165 -197 0
-183 -196 -136 -166 -198 0
-183 -196 -136 166 198 0
-183 -196 136 -166 198 0
-183 -196 136 166 -198 0
-183 -196 -137 -167 -199 0
-183 -196 -137 167 199 0
-183 -196 137 -167 199 0
-183 -196 137 167 -199 0
-183 -196 -138 -168 -200 0
-183 -196 -138 168 200 0
-183 -196 138 -168 200 0
-183 -196 138 168 -200 0
-183 -196 -139 -169 -201 0
-183 -196 -139 169 201 0
-183 -196 139 -169 201 0
-183 -196 139 169 -201 0
-183 -196 -140 -170 -202 0
-183 -196 -140 170 202 0
-183 -196 140 -170 202 0
-183 -196 140 170 -202 0
-183 -196 -141 -171 -203 0
-183 -196 -141 171 203 0
-183 -196 141 -171 203 0
-183 -196 141 171 -203 0
-183 -196 -142 -172 -204 0
-183 -196 -142 172 204 0
-183 -196 142 -172 204 0
-183 -196 142 172 -204 0
197 198 199 200 201 202 203 204 0
205 206 207 208 209 210 211 212 213 214 215 216 217 0
-205 -206 0
-205 -207 0
-205 -208 0
-205 -209 0
-205 -210 0
-205 -211 0
-205 -212 0
-205 -213 0
-205 -214 0
-205 -215 0
-205 -216 0
-205 -217 0
-206 -207 0
-206 -208 0
-206 -209 0
-206 -210 0
-206 -211 0
-206 -212 0
-206 -213 0
-206 -214 0
-206 -215 0
-206 -216 0
-206 -217 0
-207 -208 0
-207 -209 0
-207 -210 0
-207 -211 0
-207 -212 0
-207 -213 0
-207 -214 0
-207 -215 0
-207 -216 0
-207 -217 0
-208 -209 0
-208 -210 0
-208 -211 0
-208 -212 0
-208 -213 0
-208 -214 0
-208 -215 0
-208 -216 0
-208 -217 0
-209 -210 0
-209 -211 0
-209 -212 0
-209 -213 0
-209 -214 0
-209 -215 0
-209 -216 0
-209 -217 0
-210 -211 0
-210 -212 0
-210 -213 0
-210 -214 0
-210 -215 0
-210 -216 0
-210 -217 0
-211 -212 0
-211 -213 0
-211 -214 0
-211 -215 0
-211 -216 0
-211 -217 0
-212 -213 0
-212 -214 0
-212 -215 0
-212 -216 0
-212 -217 0
-213 -214 0
-213 -215 0
-213 -216 0
-213 -217 0
-214 -215 0
-214 -216 0
-214 -217 0
-215 -216 0
-215 -217 0
-216 -217 0
218 219 220 221 222 223 224 225 226 227 228 229 230 0
-218 -219 0
-218 -220 0
-218 -221 0
-218 -222 0
-218 -223 0
-218 -224 0
-218 -225 0
-218 -226 0
-218 -227 0
-218 -228 0
-218 -229 0
-218 -230 0
-219 -220 0
-219 -221 0
-219 -222 0
-219 -223 0
-219 -224 0
-219 -225 0
-219 -226 0
-219 -227 0
-219 -228 0
-219 -229 0
-219 -230 0
-220 -221 0
-220 -222 0
-220 -223 0
-220 -224 0
-220 -225 0
-220 -226 0
-220 -227 0
-220 -228 0
-220 -229 0
-220 -230 0
-221 -222 0
-221 -223 0
-221 -224 0
-221 -225 0
-221 -226 0
-221 -227 0
-221 -228 0
-221 -229 0
-221 -230 0
-222 -223 0
-222 -224 0
-222 -225 0
-222 -226 0
-222 -227 0
-222 -228 0
-222 -229 0
-222 -230 0
-223 -224 0
-223 -225 0
-223 -226 0
-223 -227 0
-223 -228 0
-223 -229 0
-223 -230 0
-224 -225 0
-224 -226 0
-224 -227 0
-224 -228 0
-224 -229 0
-224 -230 0
-225 -226 0
-225 -227 0
-225 -228 0
-225 -229 0
-225 -230 0
-226 -227 0
-226 -228 0
-226 -229 0
-226 -230 0
-227 -228 0
-227 -229 0
-227 -230 0
-228 -229 0
-228 -230 0
-229 -230 0
-205 -218 0
-206 -218 0
-206 -219 0
-207 -218 0
-207 -219 0
-207 -220 0
-208 -218 0
-208 -219 0
-208 -220 0
-208 -221 0
-209 -218 0
-209 -219 0
-209 -220 0
-209 -221 0
-209 -222 0
-210 -218 0
-210 -219 0
-210 -220 0
-210 -221 0
-210 -222 0
-210 -223 0
-211 -218 0
-211 -219 0
-211 -220 0
-211 -221 0
-211 -222 0
-211 -223 0
-211 -224 0
-212 -218 0
-212 -219 0
-212 -220 0
-212 -221 0
-212 -222 0
-212 -223 0
-212 -224 0
-212 -225 0
-213 -218 0
-213 -219 0
-213 -220 0
-213 -221 0
-213 -222 0
-213 -223 0
-213 -224 0
-213 -225 0
-213 -226 0
-214 -218 0
-214 -219 0
-214 -220 0
-214 -221 0
-214 -222 0
-214 -223 0
-214 -224 0
-214 -225 0
-214 -226 0
-214 -227 0
-215 -218 0
-215 -219 0
-215 -220 0
-215 -221 0
-215 -222 0
-215 -223 0
-215 -224 0
-215 -225 0
-215 -226 0
-215 -227 0
-215 -228 0
-216 -218 0
-216 -219 0
-216 -220 0
-216 -221 0
-216 -222 0
-216 -223 0
-216 -224 0
-216 -225 0
-216 -226 0
-216 -227 0
-216 -228 0
-216 -229 0
-217 -218 0
-217 -219 0
-217 -220 0
-217 -221 0
-217 -222 0
-217 -223 0
-217 -224 0
-217 -225 0
-217 -226 0
-217 -227 0
-217 -228 0
-217 -229 0
-217 -230 0
-205 -219 -1 -9 -231 0
-205 -219 -1 9 231 0
-205 -219 1 -9 231 0
-205 -219 1 9 -231 0
-205 -219 -2 -10 -232 0
-205 -219 -2 10 232 0
-205 -219 2 -10 232 0
-205 -219 2 10 -232 0
-205 -219 -3 -11 -233 0
-205 -219 -3 11 233 0
-205 -219 3 -11 233 0
-205 -219 3 11 -233 0
-205 -219 -4 -12 -234 0
-205 -219 -4 12 234 0
-205 -219 4 -12 234 0
-205 -219 4 12 -234 0
-205 -219 -5 -13 -235 0
-205 -219 -5 13 235 0
-205 -219 5 -13 235 0
-205 -219 5 13 -235 0
-205 -219 -6 -14 -236 0
-205 -219 -6 14 236 0
-205 -219 6 -14 236 0
-205 -219 6 14 -236 0
-205 -219 -7 -15 -237 0
-205 -219 -7 15 237 0
-205 -219 7 -15 237 0
-205 -219 7 15 -237 0
-205 -219 -8 -16 -238 0
-205 -219 -8 16 238 0
-205 -219 8 -16 238 0
-205 -219 8 16 -238 0
-205 -220 -1 -17 -231 0
-205 -220 -1 17 231 0
-205 -220 1 -17 231 0
-205 -220 1 17 -231 0
-205 -220 -2 -18 -232 0
-205 -220 -2 18 232 0
-205 -220 2 -18 232 0
-205 -220 2 18 -232 0
-205 -220 -3 -19 -233 0
-205 -220 -3 19 233 0
-205 -220 3 -19 233 0
-205 -220 3 19 -233 0
-205 -220 -4 -20 -234 0
-205 -220 -4 20 234 0
-205 -220 4 -20 234 0
-205 -220 4 20 -234 0
-205 -220 -5 -21 -235 0
-205 -220 -5 21 235 0
-205 -220 5 -21 235 0
-205 -220 5 21 -235 0
-205 -220 -6 -22 -236 0
-205 -220 -6 22 236 0
-205 -220 6 -22 236 0
-205 -220 6 22 -236 0
-205 -220 -7 -23 -237 0
-205 -220 -7 23 237 0
-205 -220 7 -23 237 0
-205 -220 7 23 -237 0
-205 -220 -8 -24 -238 0
-205 -220 -8 24 238 0
-205 -220 8 -24 238 0
-205 -220 8 24 -238 0
-205 -221 -1 -25 -231 0
-205 -221 -1 25 231 0
-205 -221 1 -25 231 0
-205 -221 1 25 -231 0
-205 -221 -2 -26 -232 0
-205 -221 -2 26 232 0
-205 -221 2 -26 232 0
-205 -221 2 26 -232 0
-205 -221 -3 -27 -233 0
-205 -221 -3 27 233 0
-205 -221 3 -27 233 0
-205 -221 3 27 -233 0
-205 -221 -4 -28 -234 0
-205 -221 -4 28 234 0
-205 -221 4 -28 234 0
-205 -221 4 28 -234 0
-205 -221 -5 -29 -235 0
-205 -221 -5 29 235 0
-205 -221 5 -29 235 0
-205 -221 5 29 -235 0
-205 -221 -6 -30 -236 0
-205 -221 -6 30 236 0
-205 -221 6 -30 236 0
-205 -221 6 30 -236 0
-205 -221 -7 -31 -237 0
-205 -221 -7 31 237 0
-205 -221 7 -31 237 0
-205 -221 7 31 -237 0
-205 -221 -8 -32 -238 0
-205 -221 -8 32 238 0
-205 -221 8 -32 238 0
-205 -221 8 32 -238 0
-205 -222 -1 -33 -231 0
-205 -222 -1 33 231 0
-205 -222 1 -33 231 0
-205 -222 1 33 -231 0
-205 -222 -2 -34 -232 0
-205 -222 -2 34 232 0
-205 -222 2 -34 232 0
-205 -222 2 34 -232 0
-205 -222 -3 -35 -233 0
-205 -222 -3 35 233 0
-205 -222 3 -35 233 0
-205 -222 3 35 -233 0
-205 -222 -4 -36 -234 0
-205 -222 -4 36 234 0
-205 -222 4 -36 234 0
-205 -222 4 36 -234 0
-205 -222 -5 -37 -235 0
-205 -222 -5 37 235 0
-205 -222 5 -37 235 0
-205 -222 5 37 -235 0
-205 -222 -6 -38 -236 0
-205 -222 -6 38 236 0
-205 -222 6 -38 236 0
-205 -222 6 38 -236 0
-205 -222 -7 -39 -237 0
-205 -222 -7 39 237 0
-205 -222 7 -39 237 0
-205 -222 7 39 -237 0
-205 -222 -8 -40 -238 0
-205 -222 -8 40 238 0
-205 -222 8 -40 238 0
-205 -222 8 40 -238 0
-205 -223 -1 -41 -231 0
-205 -223 -1 41 231 0
-205 -223 1 -41 231 0
-205 -223 1 41 -231 0
-205 -223 -2 -42 -232 0
-205 -223 -2 42 232 0
-205 -223 2 -42 232 0
-205 -223 2 42 -232 0
-205 -223 -3 -43 -233 0
-205 -223 -3 43 233 0
-205 -223 3 -43 233 0
-205 -223 3 43 -233 0
-205 -223 -4 -44 -234 0
-205 -223 -4 44 234 0
-205 -223 4 -44 234 0
-205 -223 4 44 -234 0
-205 -223 -5 -45 -235 0
-205 -223 -5 45 235 0
-205 -223 5 -45 235 0
-205 -223 5 45 -235 0
-205 -223 -6 -46 -236 0
-205 -223 -6 46 236 0
-205 -223 6 -46 236 0
-205 -223 6 46 -236 0
-205 -223 -7 -47 -237 0
-205 -223 -7 47 237 0
-205 -223 7 -47 237 0
-205 -223 7 47 -237 0
-205 -223 -8 -48 -238 0
-205 -223 -8 48 238 0
-205 -223 8 -48 238 0
-205 -223 8 48 -238 0
-205 -224 -1 -49 -231 0
-205 -224 -1 49 231 0
-205 -224 1 -49 231 0
-205 -224 1 49 -231 0
-205 -224 -2 -50 -232 0
-205 -224 -2 50 232 0
-205 -224 2 -50 232 0
-205 -224 2 50 -232 0
-205 -224 -3 -51 -233 0
-205 -224 -3 51 233 0
-205 -224 3 -51 233 0
-205 -224 3 51 -233 0
-205 -224 -4 -52 -234 0
-205 -224 -4 52 234 0
-205 -224 4 -52 234 0
-205 -224 4 52 -234 0
-205 -224 -5 -53 -235 0
-205 -224 -5 53 235 0
-205 -224 5 -53 235 0
-205 -224 5 53 -235 0
-205 -224 -6 -54 -236 0
-205 -224 -6 54 236 0
-205 -224 6 -54 236 0
-205 -224 6 54 -236 0
-205 -224 -7 -55 -237 0
-205 -224 -7 55 237 0
-205 -224 7 -55 237 0
-205 -224 7 55 -237 0
-205 -224 -8 -56 -238 0
-205 -224 -8 56 238 0
-205 -224 8 -56 238 0
-205 -224 8 56 -238 0
-205 -225 -1 -57 -231 0
-205 -225 -1 57 231 0
-205 -225 1 -57 231 0
-205 -225 1 57 -231 0
-205 -225 -2 -58 -232 0
-205 -225 -2 58 232 0
-205 -225 2 -58 232 0
-205 -225 2 58 -232 0
-205 -225 -3 -59 -233 0
-205 -225 -3 59 233 0
-205 -225 3 -59 233 0
-205 -225 3 59 -233 0
-205 -225 -4 -60 -234 0
-205 -225 -4 60 234 0
-205 -225 4 -60 234 0
-205 -225 4 60 -234 0
-205 -225 -5 -61 -235 0
-205 -225 -5 61 235 0
-205 -225 5 -61 235 0
-205 -225 5 61 -235 0
-205 -225 -6 -62 -236 0
-205 -225 -6 62 236 0
-205 -225 6 -62 236 0
-205 -225 6 62 -236 0
-205 -225 -7 -63 -237 0
-205 -225 -7 63 237 0
-205 -225 7 -63 237 0
-205 -225 7 63 -237 0
-205 -225 -8 -64 -238 0
-205 -225 -8 64 238 0
-205 -225 8 -64 238 0
-205 -225 8 64 -238 0
-205 -226 -1 -81 -231 0
-205 -226 -1 81 231 0
-205 -226 1 -81 231 0
-205 -226 1 81 -231 0
-205 -226 -2 -82 -232 0
-205 -226 -2 82 232 0
-205 -226 2 -82 232 0
-205 -226 2 82 -232 0
-205 -226 -3 -83 -233 0
-205 -226 -3 83 233 0
-205 -226 3 -83 233 0
-205 -226 3 83 -233 0
-205 -226 -4 -84 -234 0
-205 -226 -4 84 234 0
-205 -226 4 -84 234 0
-205 -226 4 84 -234 0
-205 -226 -5 -85 -235 0
-205 -226 -5 85 235 0
-205 -226 5 -85 235 0
-205 -226 5 85 -235 0
-205 -226 -6 -86 -236 0
-205 -226 -6 86 236 0
-205 -226 6 -86 236 0
-205 -226 6 86 -236 0
-205 -226 -7 -87 -237 0
-205 -226 -7 87 237 0
-205 -226 7 -87 237 0
-205 -226 7 87 -237 0
-205 -226 -8 -88 -238 0
-205 -226 -8 88 238 0
-205 -226 8 -88 238 0
-205 -226 8 88 -238 0
-205 -227 -1 -107 -231 0
-205 -227 -1 107 231 0
-205 -227 1 -107 231 0
-205 -227 1 107 -231 0
-205 -227 -2 -108 -232 0
-205 -227 -2 108 232 0
-205 -227 2 -108 232 0
-205 -227 2 108 -232 0
-205 -227 -3 -109 -233 0
-205 -227 -3 109 233 0
-205 -227 3 -109 233 0
-205 -227 3 109 -233 0
-205 -227 -4 -110 -234 0
-205 -227 -4 110 234 0
-205 -227 4 -110 234 0
-205 -227 4 110 -234 0
-205 -227 -5 -111 -235 0
-205 -227 -5 111 235 0
-205 -227 5 -111 235 0
-205 -227 5 111 -235 0
-205 -227 -6 -112 -236 0
-205 -227 -6 112 236 0
-205 -227 6 -112 236 0
-205 -227 6 112 -236 0
-205 -227 -7 -113 -237 0
-205 -227 -7 113 237 0
-205 -227 7 -113 237 0
-205 -227 7 113 -237 0
-205 -227 -8 -114 -238 0
-205 -227 -8 114 238 0
-205 -227 8 -114 238 0
-205 -227 8 114 -238 0
-205 -228 -1 -135 -231 0
-205 -228 -1 135 231 0
-205 -228 1 -135 231 0
-205 -228 1 135 -231 0
-205 -228 -2 -136 -232 0
-205 -228 -2 136 232 0
-205 -228 2 -136 232 0
-205 -228 2 136 -232 0
-205 -228 -3 -137 -233 0
-205 -228 -3 137 233 0
-205 -228 3 -137 233 0
-205 -228 3 137 -233 0
-205 -228 -4 -138 -234 0
-205 -228 -4 138 234 0
-205 -228 4 -138 234 0
-205 -228 4 138 -234 0
-205 -228 -5 -139 -235 0
-205 -228 -5 139 235 0
-205 -228 5 -139 235 0
-205 -228 5 139 -235 0
-205 -228 -6 -140 -236 0
-205 -228 -6 140 236 0
-205 -228 6 -140 236 0
-205 -228 6 140 -236 0
-205 -228 -7 -141 -237 0
-205 -228 -7 141 237 0
-205 -228 7 -141 237 0
-205 -228 7 141 -237 0
-205 -228 -8 -142 -238 0
-205 -228 -8 142 238 0
-205 -228 8 -142 238 0
-205 -228 8 142 -238 0
-205 -229 -1 -165 -231 0
-205 -229 -1 165 231 0
-205 -229 1 -165 231 0
-205 -229 1 165 -231 0
-205 -229 -2 -166 -232 0
-205 -229 -2 166 232 0
-205 -229 2 -166 232 0
-205 -229 2 166 -232 0
-205 -229 -3 -167 -233 0
-205 -229 -3 167 233 0
-205 -229 3 -167 233 0
-205 -229 3 167 -233 0
-205 -229 -4 -168 -234 0
-205 -229 -4 168 234 0
-205 -229 4 -168 234 0
-205 -229 4 168 -234 0
-205 -229 -5 -169 -235 0
-205 -229 -5 169 235 0
-205 -229 5 -169 235 0
-205 -229 5 169 -235 0
-205 -229 -6 -170 -236 0
-205 -229 -6 170 236 0
-205 -229 6 -170 236 0
-205 -229 6 170 -236 0
-205 -229 -7 -171 -237 0
-205 -229 -7 171 237 0
-205 -229 7 -171 237 0
-205 -229 7 171 -237 0
-205 -229 -8 -172 -238 0
-205 -229 -8 172 238 0
-205 -229 8 -172 238 0
-205 -229 8 172 -238 0
-205 -230 -1 -197 -231 0
-205 -230 -1 197 231 0
-205 -230 1 -197 231 0
-205 -230 1 197 -231 0
-205 -230 -2 -198 -232 0
-205 -230 -2 198 232 0
-205 -230 2 -198 232 0
-205 -230 2 198 -232 0
-205 -230 -3 -199 -233 0
-205 -230 -3 199 233 0
-205 -230 3 -199 233 0
-205 -230 3 199 -233 0
-205 -230 -4 -200 -234 0
-205 -230 -4 200 234 0
-205 -230 4 -200 234 0
-205 -230 4 200 -234 0
-205 -230 -5 -201 -235 0
-205 -230 -5 201 235 0
-205 -230 5 -201 235 0
-205 -230 5 201 -235 0
-205 -230 -6 -202 -236 0
-205 -230 -6 202 236 0
-205 -230 6 -202 236 0
-205 -230 6 202 -236 0
-205 -230 -7 -203 -237 0
-205 -230 -7 203 237 0
-205 -230 7 -203 237 0
-205 -230 7 203 -237 0
-205 -230 -8 -204 -238 0
-205 -230 -8 204 238 0
-205 -230 8 -204 238 0
-205 -230 8 204 -238 0
-206 -220 -9 -17 -231 0
-206 -220 -9 17 231 0
-206 -220 9 -17 231 0
-206 -220 9 17 -231 0
-206 -220 -10 -18 -232 0
-206 -220 -10 18 232 0
-206 -220 10 -18 232 0
-206 -220 10 18 -232 0
-206 -220 -11 -19 -233 0
-206 -220 -11 19 233 0
-206 -220 11 -19 233 0
-206 -220 11 19 -233 0
-206 -220 -12 -20 -234 0
-206 -220 -12 20 234 0
-206 -220 12 -20 234 0
-206 -220 12 20 -234 0
-206 -220 -13 -21 -235 0
-206 -220 -13 21 235 0
-206 -220 13 -21 235 0
-206 -220 13 21 -235 0
-206 -220 -14 -22 -236 0
-206 -220 -14 22 236 0
-206 -220 14 -22 236 0
-206 -220 14 22 -236 0
-206 -220 -15 -23 -237 0
-206 -220 -15 23 237 0
-206 -220 15 -23 237 0
-206 -220 15 23 -237 0
-206 -220 -16 -24 -238 0
-206 -220 -16 24 238 0
-206 -220 16 -24 238 0
-206 -220 16 24 -238 0
-206 -221 -9 -25 -231 0
-206 -221 -9 25 231 0
-206 -221 9 -25 231 0
-206 -221 9 25 -231 0
-206 -221 -10 -26 -232 0
-206 -221 -10 26 232 0
-206 -221 10 -26 232 0
-206 -221 10 26 -232 0
-206 -221 -11 -27 -233 0
-206 -221 -11 27 233 0
-206 -221 11 -27 233 0
-206 -221 11 27 -233 0
-206 -221 -12 -28 -234 0
-206 -221 -12 28 234 0
-206 -221 12 -28 234 0
-206 -221 12 28 -234 0
-206 -221 -13 -29 -235 0
-206 -221 -13 29 235 0
-206 -221 13 -29 235 0
-206 -221 13 29 -235 0
-206 -221 -14 -30 -236 0
-206 -221 -14 30 236 0
-206 -221 14 -30 236 0
-206 -221 14 30 -236 0
-206 -221 -15 -31 -237 0
-206 -221 -15 31 237 0
-206 -221 15 -31 237 0
-206 -221 15 31 -237 0
-206 -221 -16 -32 -238 0
-206 -221 -16 32 238 0
-206 -221 16 -32 238 0
-206 -221 16 32 -238 0
-206 -222 -9 -33 -231 0
-206 -222 -9 33 231 0
-206 -222 9 -33 231 0
-206 -222 9 33 -231 0
-206 -222 -10 -34 -232 0
-206 -222 -10 34 232 0
-206 -222 10 -34 232 0
-206 -222 10 34 -232 0
-206 -222 -11 -35 -233 0
-206 -222 -11 35 233 0
-206 -222 11 -35 233 0
-206 -222 11 35 -233 0
-206 -222 -12 -36 -234 0
-206 -222 -12 36 234 0
-206 -222 12 -36 234 0
-206 -222 12 36 -234 0
-206 -222 -13 -37 -235 0
-206 -222 -13 37 235 0
-206 -222 13 -37 235 0
-206 -222 13 37 -235 0
-206 -222 -14 -38 -236 0
-206 -222 -14 38 236 0
-206 -222 14 -38 236 0
-206 -222 14 38 -236 0
-206 -222 -15 -39 -237 0
-206 -222 -15 39 237 0
-206 -222 15 -39 237 0
-206 -222 15 39 -237 0
-206 -222 -16 -40 -238 0
-206 -222 -16 40 238 0
-206 -222 16 -40 238 0
-206 -222 16 40 -238 0
-206 -223 -9 -41 -231 0
-206 -223 -9 41 231 0
-206 -223 9 -41 231 0
-206 -223 9 41 -231 0
-206 -223 -10 -42 -232 0
-206 -223 -10 42 232 0
-206 -223 10 -42 232 0
-206 -223 10 42 -232 0
-206 -223 -11 -43 -233 0
-206 -223 -11 43 233 0
-206 -223 11 -43 233 0
-206 -223 11 43 -233 0
-206 -223 -12 -44 -234 0
-206 -223 -12 44 234 0
-206 -223 12 -44 234 0
-206 -223 12 44 -234 0
-206 -223 -13 -45 -235 0
-206 -223 -13 45 235 0
-206 -223 13 -45 235 0
-206 -223 13 45 -235 0
-206 -223 -14 -46 -236 0
-206 -223 -14 46 236 0
-206 -223 14 -46 236 0
-206 -223 14 46 -236 0
-206 -223 -15 -47 -237 0
-206 -223 -15 47 237 0
-206 -223 15 -47 237 0
-206 -223 15 47 -237 0
-206 -223 -16 -48 -238 0
-206 -223 -16 48 238 0
-206 -223 16 -48 238 0
-206 -223 16 48 -238 0
-206 -224 -9 -49 -231 0
-206 -224 -9 49 231 0
-206 -224 9 -49 231 0
-206 -224 9 49 -231 0
-206 -224 -10 -50 -232 0
-206 -224 -10 50 232 0
-206 -224 10 -50 232 0
-206 -224 10 50 -232 0
-206 -224 -11 -51 -233 0
-206 -224 -11 51 233 0
-206 -224 11 -51 233 0
-206 -224 11 51 -233 0
-206 -224 -12 -52 -234 0
-206 -224 -12 52 234 0
-206 -224 12 -52 234 0
-206 -224 12 52 -234 0
-206 -224 -13 -53 -235 0
-206 -224 -13 53 235 0
-206 -224 13 -53 235 0
-206 -224 13 53 -235 0
-206 -224 -14 -54 -236 0
-206 -224 -14 54 236 0
-206 -224 14 -54 236 0
-206 -224 14 54 -236 0
-206 -224 -15 -55 -237 0
-206 -224 -15 55 237 0
-206 -224 15 -55 237 0
-206 -224 15 55 -237 0
-206 -224 -16 -56 -238 0
-206 -224 -16 56 238 0
-206 -224 16 -56 238 0
-206 -224 16 56 -238 0
-206 -225 -9 -57 -231 0
-206 -225 -9 57 231 0
-206 -225 9 -57 231 0
-206 -225 9 57 -231 0
-206 -225 -10 -58 -232 0
-206 -225 -10 58 232 0
-206 -225 10 -58 232 0
-206 -225 10 58 -232 0
-206 -225 -11 -59 -233 0
-206 -225 -11 59 233 0
-206 -225 11 -59 233 0
-206 -225 11 59 -233 0
-206 -225 -12 -60 -234 0
-206 -225 -12 60 234 0
-206 -225 12 -60 234 0
-206 -225 12 60 -234 0
-206 -225 -13 -61 -235 0
-206 -225 -13 61 235 0
-206 -225 13 -61 235 0
-206 -225 13 61 -235 0
-206 -225 -14 -62 -236 0
-206 -225 -14 62 236 0
-206 -225 14 -62 236 0
-206 -225 14 62 -236 0
-206 -225 -15 -63 -237 0
-206 -225 -15 63 237 0
-206 -225 15 -63 237 0
-206 -225 15 63 -237 0
-206 -225 -16 -64 -238 0
-206 -225 -16 64 238 0
-206 -225 16 -64 238 0
-206 -225 16 64 -238 0
-206 -226 -9 -81 -231 0
-206 -226 -9 81 231 0
-206 -226 9 -81 231 0
-206 -226 9 81 -231 0
-206 -226 -10 -82 -232 0
-206 -226 -10 82 232 0
-206 -226 10 -82 232 0
-206 -226 10 82 -232 0
-206 -226 -11 -83 -233 0
-206 -226 -11 83 233 0
-206 -226 11 -83 233 0
-206 -226 11 83 -233 0
-206 -226 -12 -84 -234 0
-206 -226 -12 84 234 0
-206 -226 12 -84 234 0
-206 -226 12 84 -234 0
-206 -226 -13 -85 -235 0
-206 -226 -13 85 235 0
-206 -226 13 -85 235 0
-206 -226 13 85 -235 0
-206 -226 -14 -86 -236 0
-206 -226 -14 86 236 0
-206 -226 14 -86 236 0
-206 -226 14 86 -236 0
-206 -226 -15 -87 -237 0
-206 -226 -15 87 237 0
-206 -226 15 -87 237 0
-206 -226 15 87 -237 0
-206 -226 -16 -88 -238 0
-206 -226 -16 88 238 0
-206 -226 16 -88 238 0
-206 -226 16 88 -238 0
-206 -227 -9 -107 -231 0
-206 -227 -9 107 231 0
-206 -227 9 -107 231 0
-206 -227 9 107 -231 0
-206 -227 -10 -108 -232 0
-206 -227 -10 108 232 0
-206 -227 10 -108 232 0
-206 -227 10 108 -232 0
-206 -227 -11 -109 -233 0
-206 -227 -11 109 233 0
-206 -227 11 -109 233 0
-206 -227 11 109 -233 0
-206 -227 -12 -110 -234 0
-206 -227 -12 110 234 0
-206 -227 12 -110 234 0
-206 -227 12 110 -234 0
-206 -227 -13 -111 -235 0
-206 -227 -13 111 235 0
-206 -227 13 -111 235 0
-206 -227 13 111 -235 0
-206 -227 -14 -112 -236 0
-206 -227 -14 112 236 0
-206 -227 14 -112 236 0
-206 -227 14 112 -236 0
-206 -227 -15 -113 -237 0
-206 -227 -15 113 237 0
-206 -227 15 -113 237 0
-206 -227 15 113 -237 0
-206 -227 -16 -114 -238 0
-206 -227 -16 114 238 0
-206 -227 16 -114 238 0
-206 -227 16 114 -238 0
-206 -228 -9 -135 -231 0
-206 -228 -9 135 231 0
-206 -228 9 -135 231 0
-206 -228 9 135 -231 0
-206 -228 -10 -136 -232 0
-206 -228 -10 136 232 0
-206 -228 10 -136 232 0
-206 -228 10 136 -232 0
-206 -228 -11 -137 -233 0
-206 -228 -11 137 233 0
-206 -228 11 -137 233 0
-206 -228 11 137 -233 0
-206 -228 -12 -138 -234 0
-206 -228 -12 138 234 0
-206 -228 12 -138 234 0
-206 -228 12 138 -234 0
-206 -228 -13 -139 -235 0
-206 -228 -13 139 235 0
-206 -228 13 -139 235 0
-206 -228 13 139 -235 0
-206 -228 -14 -140 -236 0
-206 -228 -14 140 236 0
-206 -228 14 -140 236 0
-206 -228 14 140 -236 0
-206 -228 -15 -141 -237 0
-206 -228 -15 141 237 0
-206 -228 15 -141 237 0
-206 -228 15 141 -237 0
-206 -228 -16 -142 -238 0
-206 -228 -16 142 238 0
-206 -228 16 -142 238 0
-206 -228 16 142 -238 0
-206 -229 -9 -165 -231 0
-206 -229 -9 165 231 0
-206 -229 9 -165 231 0
-206 -229 9 165 -231 0
-206 -229 -10 -166 -232 0
-206 -229 -10 166 232 0
-206 -229 10 -166 232 0
-206 -229 10 166 -232 0
-206 -229 -11 -167 -233 0
-206 -229 -11 167 233 0
-206 -229 11 -167 233 0
-206 -229 11 167 -233 0
-206 -229 -12 -168 -234 0
-206 -229 -12 168 234 0
-206 -229 12 -168 234 0
-206 -229 12 168 -234 0
-206 -229 -13 -169 -235 0
-206 -229 -13 169 235 0
-206 -229 13 -169 235 0
-206 -229 13 169 -235 0
-206 -229 -14 -170 -236 0
-206 -229 -14 170 236 0
-206 -229 14 -170 236 0
-206 -229 14 170 -236 0
-206 -229 -15 -171 -237 0
-206 -229 -15 171 237 0
-206 -229 15 -171 237 0
-206 -229 15 171 -237 0
-206 -229 -16 -172 -238 0
-206 -229 -16 172 238 0
-206 -229 16 -172 238 0
-206 -229 16 172 -238 0
-206 -230 -9 -197 -231 0
-206 -230 -9 197 231 0
-206 -230 9 -197 231 0
-206 -230 9 197 -231 0
-206 -230 -10 -198 -232 0
-206 -230 -10 198 232 0
-206 -230 10 -198 232 0
-206 -230 10 198 -232 0
-206 -230 -11 -199 -233 0
-206 -230 -11 199 233 0
-206 -230 11 -199 233 0
-206 -230 11 199 -233 0
-206 -230 -12 -200 -234 0
-206 -230 -12 200 234 0
-206 -230 12 -200 234 0
-206 -230 12 200 -234 0
-206 -230 -13 -201 -235 0
-206 -230 -13 201 235 0
-206 -230 13 -201 235 0
-206 -230 13 201 -235 0
-206 -230 -14 -202 -236 0
-206 -230 -14 202 236 0
-206 -230 14 -202 236 0
-206 -230 14 202 -236 0
-206 -230 -15 -203 -237 0
-206 -230 -15 203 237 0
-206 -230 15 -203 237 0
-206 -230 15 203 -237 0
-206 -230 -16 -204 -238 0
-206 -230 -16 204 238 0
-206 -230 16 -204 238 0
-206 -230 16 204 -238 0
-207 -221 -17 -25 -231 0
-207 -221 -17 25 231 0
-207 -221 17 -25 231 0
-207 -221 17 25 -231 0
-207 -221 -18 -26 -232 0
-207 -221 -18 26 232 0
-207 -221 18 -26 232 0
-207 -221 18 26 -232 0
-207 -221 -19 -27 -233 0
-207 -221 -19 27 233 0
-207 -221 19 -27 233 0
-207 -221 19 27 -233 0
-207 -221 -20 -28 -234 0
-207 -221 -20 28 234 0
-207 -221 20 -28 234 0
-207 -221 20 28 -234 0
-207 -221 -21 -29 -235 0
-207 -221 -21 29 235 0
-207 -221 21 -29 235 0
-207 -221 21 29 -235 0
-207 -221 -22 -30 -236 0
-207 -221 -22 30 236 0
-207 -221 22 -30 236 0
-207 -221 22 30 -236 0
-207 -221 -23 -31 -237 0
-207 -221 -23 31 237 0
-207 -221 23 -31 237 0
-207 -221 23 31 -237 0
-207 -221 -24 -32 -238 0
-207 -221 -24 32 238 0
-207 -221 24 -32 238 0
-207 -221 24 32 -238 0
-207 -222 -17 -33 -231 0
-207 -222 -17 33 231 0
-207 -222 17 -33 231 0
-207 -222 17 33 -231 0
-207 -222 -18 -34 -232 0
-207 -222 -18 34 232 0
-207 -222 18 -34 232 0
-207 -222 18 34 -232 0
-207 -222 -19 -35 -233 0
-207 -222 -19 35 233 0
-207 -222 19 -35 233 0
-207 -222 19 35 -233 0
-207 -222 -20 -36 -234 0
-207 -222 -20 36 234 0
-207 -222 20 -36 234 0
-207 -222 20 36 -234 0
-207 -222 -21 -37 -235 0
-207 -222 -21 37 235 0
-207 -222 21 -37 235 0
-207 -222 21 37 -235 0
-207 -222 -22 -38 -236 0
-207 -222 -22 38 236 0
-207 -222 22 -38 236 0
-207 -222 22 38 -236 0
-207 -222 -23 -39 -237 0
-207 -222 -23 39 237 0
-207 -222 23 -39 237 0
-207 -222 23 39 -237 0
-207 -222 -24 -40 -238 0
-207 -222 -24 40 238 0
-207 -222 24 -40 238 0
-207 -222 24 40 -238 0
-207 -223 -17 -41 -231 0
-207 -223 -17 41 231 0
-207 -223 17 -41 231 0
-207 -223 17 41 -231 0
-207 -223 -18 -42 -232 0
-207 -223 -18 42 232 0
-207 -223 18 -42 232 0
-207 -223 18 42 -232 0
-207 -223 -19 -43 -233 0
-207 -223 -19 43 233 0
-207 -223 19 -43 233 0
-207 -223 19 43 -233 0
-207 -223 -20 -44 -234 0
-207 -223 -20 44 234 0
-207 -223 20 -44 234 0
-207 -223 20 44 -234 0
-207 -223 -21 -45 -235 0
-207 -223 -21 45 235 0
-207 -223 21 -45 235 0
-207 -223 21 45 -235 0
-207 -223 -22 -46 -236 0
-207 -223 -22 46 236 0
-207 -223 22 -46 236 0
-207 -223 22 46 -236 0
-207 -223 -23 -47 -237 0
-207 -223 -23 47 237 0
-207 -223 23 -47 237 0
-207 -223 23 47 -237 0
-207 -223 -24 -48 -238 0
-207 -223 -24 48 238 0
-207 -223 24 -48 238 0
-207 -223 24 48 -238 0
-207 -224 -17 -49 -231 0
-207 -224 -17 49 231 0
-207 -224 17 -49 231 0
-207 -224 17 49 -231 0
-207 -224 -18 -50 -232 0
-207 -224 -18 50 232 0
-207 -224 18 -50 232 0
-207 -224 18 50 -232 0
-207 -224 -19 -51 -233 0
-207 -224 -19 51 233 0
-207 -224 19 -51 233 0
-207 -224 19 51 -233 0
-207 -224 -20 -52 -234 0
-207 -224 -20 52 234 0
-207 -224 20 -52 234 0
-207 -224 20 52 -234 0
-207 -224 -21 -53 -235 0
-207 -224 -21 53 235 0
-207 -224 21 -53 235 0
-207 -224 21 53 -235 0
-207 -224 -22 -54 -236 0
-207 -224 -22 54 236 0
-207 -224 22 -54 236 0
-207 -224 22 54 -236 0
-207 -224 -23 -55 -237 0
-207 -224 -23 55 237 0
-207 -224 23 -55 237 0
-207 -224 23 55 -237 0
-207 -224 -24 -56 -238 0
-207 -224 -24 56 238 0
-207 -224 24 -56 238 0
-207 -224 24 56 -238 0
-207 -225 -17 -57 -231 0
-207 -225 -17 57 231 0
-207 -225 17 -57 231 0
-207 -225 17 57 -231 0
-207 -225 -18 -58 -232 0
-207 -225 -18 58 232 0
-207 -225 18 -58 232 0
-207 -225 18 58 -232 0
-207 -225 -19 -59 -233 0
-207 -225 -19 59 233 0
-207 -225 19 -59 233 0
-207 -225 19 59 -233 0
-207 -225 -20 -60 -234 0
-207 -225 -20 60 234 0
-207 -225 20 -60 234 0
-207 -225 20 60 -234 0
-207 -225 -21 -61 -235 0
-207 -225 -21 61 235 0
-207 -225 21 -61 235 0
-207 -225 21 61 -235 0
-207 -225 -22 -62 -236 0
-207 -225 -22 62 236 0
-207 -225 22 -62 236 0
-207 -225 22 62 -236 0
-207 -225 -23 -63 -237 0
-207 -225 -23 63 237 0
-207 -225 23 -63 237 0
-207 -225 23 63 -237 0
-207 -225 -24 -64 -238 0
-207 -225 -24 64 238 0
-207 -225 24 -64 238 0
-207 -225 24 64 -238 0
-207 -226 -17 -81 -231 0
-207 -226 -17 81 231 0
-207 -226 17 -81 231 0
-207 -226 17 81 -231 0
-207 -226 -18 -82 -232 0
-207 -226 -18 82 232 0
-207 -226 18 -82 232 0
-207 -226 18 82 -232 0
-207 -226 -19 -83 -233 0
-207 -226 -19 83 233 0
-207 -226 19 -83 233 0
-207 -226 19 83 -233 0
-207 -226 -20 -84 -234 0
-207 -226 -20 84 234 0
-207 -226 20 -84 234 0
-207 -226 20 84 -234 0
-207 -226 -21 -85 -235 0
-207 -226 -21 85 235 0
-207 -226 21 -85 235 0
-207 -226 21 85 -235 0
-207 -226 -22 -86 -236 0
-207 -226 -22 86 236 0
-207 -226 22 -86 236 0
-207 -226 22 86 -236 0
-207 -226 -23 -87 -237 0
-207 -226 -23 87 237 0
-207 -226 23 -87 237 0
-207 -226 23 87 -237 0
-207 -226 -24 -88 -238 0
-207 -226 -24 88 238 0
-207 -226 24 -88 238 0
-207 -226 24 88 -238 0
-207 -227 -17 -107 -231 0
-207 -227 -17 107 231 0
-207 -227 17 -107 231 0
-207 -227 17 107 -231 0
-207 -227 -18 -108 -232 0
-207 -227 -18 108 232 0
-207 -227 18 -108 232 0
-207 -227 18 108 -232 0
-207 -227 -19 -109 -233 0
-207 -227 -19 109 233 0
-207 -227 19 -109 233 0
-207 -227 19 109 -233 0
-207 -227 -20 -110 -234 0
-207 -227 -20 110 234 0
-207 -227 20 -110 234 0
-207 -227 20 110 -234 0
-207 -227 -21 -111 -235 0
-207 -227 -21 111 235 0
-207 -227 21 -111 235 0
-207 -227 21 111 -235 0
-207 -227 -22 -112 -236 0
-207 -227 -22 112 236 0
-207 -227 22 -112 236 0
-207 -227 22 112 -236 0
-207 -227 -23 -113 -237 0
-207 -227 -23 113 237 0
-207 -227 23 -113 237 0
-207 -227 23 113 -237 0
-207 -227 -24 -114 -238 0
-207 -227 -24 114 238 0
-207 -227 24 -114 238 0
-207 -227 24 114 -238 0
-207 -228 -17 -135 -231 0
-207 -228 -17 135 231 0
-207 -228 17 -135 231 0
-207 -228 17 135 -231 0
-207 -228 -18 -136 -232 0
-207 -228 -18 136 232 0
-207 -228 18 -136 232 0
-207 -228 18 136 -232 0
-207 -228 -19 -137 -233 0
-207 -228 -19 137 233 0
-207 -228 19 -137 233 0
-207 -228 19 137 -233 0
-207 -228 -20 -138 -234 0
-207 -228 -20 138 234 0
-207 -228 20 -138 234 0
-207 -228 20 138 -234 0
-207 -228 -21 -139 -235 0
-207 -228 -21 139 235 0
-207 -228 21 -139 235 0
-207 -228 21 139 -235 0
-207 -228 -22 -140 -236 0
-207 -228 -22 140 236 0
-207 -228 22 -140 236 0
-207 -228 22 140 -236 0
-207 -228 -23 -141 -237 0
-207 -228 -23 141 237 0
-207 -228 23 -141 237 0
-207 -228 23 141 -237 0
-207 -228 -24 -142 -238 0
-207 -228 -24 142 238 0
-207 -228 24 -142 238 0
-207 -228 24 142 -238 0
-207 -229 -17 -165 -231 0
-207 -229 -17 165 231 0
-207 -229 17 -165 231 0
-207 -229 17 165 -231 0
-207 -229 -18 -166 -232 0
-207 -229 -18 166 232 0
-207 -229 18 -166 232 0
-207 -229 18 166 -232 0
-207 -229 -19 -167 -233 0
-207 -229 -19 167 233 0
-207 -229 19 -167 233 0
-207 -229 19 167 -233 0
-207 -229 -20 -168 -234 0
-207 -229 -20 168 234 0
-207 -229 20 -168 234 0
-207 -229 20 168 -234 0
-207 -229 -21 -169 -235 0
-207 -229 -21 169 235 0
-207 -229 21 -169 235 0
-207 -229 21 169 -235 0
-207 -229 -22 -170 -236 0
-207 -229 -22 170 236 0
-207 -229 22 -170 236 0
-207 -229 22 170 -236 0
-207 -229 -23 -171 -237 0
-207 -229 -23 171 237 0
-207 -229 23 -171 237 0
-207 -229 23 171 -237 0
-207 -229 -24 -172 -238 0
-207 -229 -24 172 238 0
-207 -229 24 -172 238 0
-207 -229 24 172 -238 0
-207 -230 -17 -197 -231 0
-207 -230 -17 197 231 0
-207 -230 17 -197 231 0
-207 -230 17 197 -231 0
-207 -230 -18 -198 -232 0
-207 -230 -18 198 232 0
-207 -230 18 -198 232 0
-207 -230 18 198 -232 0
-207 -230 -19 -199 -233 0
-207 -230 -19 199 233 0
-207 -230 19 -199 233 0
-207 -230 19 199 -233 0
-207 -230 -20 -200 -234 0
-207 -230 -20 200 234 0
-207 -230 20 -200 234 0
-207 -230 20 200 -234 0
-207 -230 -21 -201 -235 0
-207 -230 -21 201 235 0
-207 -230 21 -201 235 0
-207 -230 21 201 -235 0
-207 -230 -22 -202 -236 0
-207 -230 -22 202 236 0
-207 -230 22 -202 236 0
-207 -230 22 202 -236 0
-207 -230 -23 -203 -237 0
-207 -230 -23 203 237 0
-207 -230 23 -203 237 0
-207 -230 23 203 -237 0
-207 -230 -24 -204 -238 0
-207 -230 -24 204 238 0
-207 -230 24 -204 238 0
-207 -230 24 204 -238 0
-208 -222 -25 -33 -231 0
-208 -222 -25 33 231 0
-208 -222 25 -33 231 0
-208 -222 25 33 -231 0
-208 -222 -26 -34 -232 0
-208 -222 -26 34 232 0
-208 -222 26 -34 232 0
-208 -222 26 34 -232 0
-208 -222 -27 -35 -233 0
-208 -222 -27 35 233 0
-208 -222 27 -35 233 0
-208 -222 27 35 -233 0
-208 -222 -28 -36 -234 0
-208 -222 -28 36 234 0
-208 -222 28 -36 234 0
-208 -222 28 36 -234 0
-208 -222 -29 -37 -235 0
-208 -222 -29 37 235 0
-208 -222 29 -37 235 0
-208 -222 29 37 -235 0
-208 -222 -30 -38 -236 0
-208 -222 -30 38 236 0
-208 -222 30 -38 236 0
-208 -222 30 38 -236 0
-208 -222 -31 -39 -237 0
-208 -222 -31 39 237 0
-208 -222 31 -39 237 0
-208 -222 31 39 -237 0
-208 -222 -32 -40 -238 0
-208 -222 -32 40 238 0
-208 -222 32 -40 238 0
-208 -222 32 40 -238 0
-208 -223 -25 -41 -231 0
-208 -223 -25 41 231 0
-208 -223 25 -41 231 0
-208 -223 25 41 -231 0
-208 -223 -26 -42 -232 0
-208 -223 -26 42 232 0
-208 -223 26 -42 232 0
-208 -223 26 42 -232 0
-208 -223 -27 -43 -233 0
-208 -223 -27 43 233 0
-208 -223 27 -43 233 0
-208 -223 27 43 -233 0
-208 -223 -28 -44 -234 0
-208 -223 -28 44 234 0
-208 -223 28 -44 234 0
-208 -223 28 44 -234 0
-208 -223 -29 -45 -235 0
-208 -223 -29 45 235 0
-208 -223 29 -45 235 0
-208 -223 29 45 -235 0
-208 -223 -30 -46 -236 0
-208 -223 -30 46 236 0
-208 -223 30 -46 236 0
-208 -223 30 46 -236 0
-208 -223 -31 -47 -237 0
-208 -223 -31 47 237 0
-208 -223 31 -47 237 0
-208 -223 31 47 -237 0
-208 -223 -32 -48 -238 0
-208 -223 -32 48 238 0
-208 -223 32 -48 238 0
-208 -223 32 48 -238 0
-208 -224 -25 -49 -231 0
-208 -224 -25 49 231 0
-208 -224 25 -49 231 0
-208 -224 25 49 -231 0
-208 -224 -26 -50 -232 0
-208 -224 -26 50 232 0
-208 -224 26 -50 232 0
-208 -224 26 50 -232 0
-208 -224 -27 -51 -233 0
-208 -224 -27 51 233 0
-208 -224 27 -51 233 0
-208 -224 27 51 -233 0
-208 -224 -28 -52 -234 0
-208 -224 -28 52 234 0
-208 -224 28 -52 234 0
-208 -224 28 52 -234 0
-208 -224 -29 -53 -235 0
-208 -224 -29 53 235 0
-208 -224 29 -53 235 0
-208 -224 29 53 -235 0
-208 -224 -30 -54 -236 0
-208 -224 -30 54 236 0
-208 -224 30 -54 236 0
-208 -224 30 54 -236 0
-208 -224 -31 -55 -237 0
-208 -224 -31 55 237 0
-208 -224 31 -55 237 0
-208 -224 31 55 -237 0
-208 -224 -32 -56 -238 0
-208 -224 -32 56 238 0
-208 -224 32 -56 238 0
-208 -224 32 56 -238 0
-208 -225 -25 -57 -231 0
-208 -225 -25 57 231 0
-208 -225 25 -57 231 0
-208 -225 25 57 -231 0
-208 -225 -26 -58 -232 0
-208 -225 -26 58 232 0
-208 -225 26 -58 232 0
-208 -225 26 58 -232 0
-208 -225 -27 -59 -233 0
-208 -225 -27 59 233 0
-208 -225 27 -59 233 0
-208 -225 27 59 -233 0
-208 -225 -28 -60 -234 0
-208 -225 -28 60 234 0
-208 -225 28 -60 234 0
-208 -225 28 60 -234 0
-208 -225 -29 -61 -235 0
-208 -225 -29 61 235 0
-208 -225 29 -61 235 0
-208 -225 29 61 -235 0
-208 -225 -30 -62 -236 0
-208 -225 -30 62 236 0
-208 -225 30 -62 236 0
-208 -225 30 62 -236 0
-208 -225 -31 -63 -237 0
-208 -225 -31 63 237 0
-208 -225 31 -63 237 0
-208 -225 31 63 -237 0
-208 -225 -32 -64 -238 0
-208 -225 -32 64 238 0
-208 -225 32 -64 238 0
-208 -225 32 64 -238 0
-208 -226 -25 -81 -231 0
-208 -226 -25 81 231 0
-208 -226 25 -81 231 0
-208 -226 25 81 -231 0
-208 -226 -26 -82 -232 0
-208 -226 -26 82 232 0
-208 -226 26 -82 232 0
-208 -226 26 82 -232 0
-208 -226 -27 -83 -233 0
-208 -226 -27 83 233 0
-208 -226 27 -83 233 0
-208 -226 27 83 -233 0
-208 -226 -28 -84 -234 0
-208 -226 -28 84 234 0
-208 -226 28 -84 234 0
-208 -226 28 84 -234 0
-208 -226 -29 -85 -235 0
-208 -226 -29 85 235 0
-208 -226 29 -85 235 0
-208 -226 29 85 -235 0
-208 -226 -30 -86 -236 0
-208 -226 -30 86 236 0
-208 -226 30 -86 236 0
-208 -226 30 86 -236 0
-208 -226 -31 -87 -237 0
-208 -226 -31 87 237 0
-208 -226 31 -87 237 0
-208 -226 31 87 -237 0
-208 -226 -32 -88 -238 0
-208 -226 -32 88 238 0
-208 -226 32 -88 238 0
-208 -226 32 88 -238 0
-208 -227 -25 -107 -231 0
-208 -227 -25 107 231 0
-208 -227 25 -107 231 0
-208 -227 25 107 -231 0
-208 -227 -26 -108 -232 0
-208 -227 -26 108 232 0
-208 -227 26 -108 232 0
-208 -227 26 108 -232 0
-208 -227 -27 -109 -233 0
-208 -227 -27 109 233 0
-208 -227 27 -109 233 0
-208 -227 27 109 -233 0
-208 -227 -28 -110 -234 0
-208 -227 -28 110 234 0
-208 -227 28 -110 234 0
-208 -227 28 110 -234 0
-208 -227 -29 -111 -235 0
-208 -227 -29 111 235 0
-208 -227 29 -111 235 0
-208 -227 29 111 -235 0
-208 -227 -30 -112 -236 0
-208 -227 -30 112 236 0
-208 -227 30 -112 236 0
-208 -227 30 112 -236 0
-208 -227 -31 -113 -237 0
-208 -227 -31 113 237 0
-208 -227 31 -113 237 0
-208 -227 31 113 -237 0
-208 -227 -32 -114 -238 0
-208 -227 -32 114 238 0
-208 -227 32 -114 238 0
-208 -227 32 114 -238 0
-208 -228 -25 -135 -231 0
-208 -228 -25 135 231 0
-208 -228 25 -135 231 0
-208 -228 25 135 -231 0
-208 -228 -26 -136 -232 0
-208 -228 -26 136 232 0
-208 -228 26 -136 232 0
-208 -228 26 136 -232 0
-208 -228 -27 -137 -233 0
-208 -228 -27 137 233 0
-208 -228 27 -137 233 0
-208 -228 27 137 -233 0
-208 -228 -28 -138 -234 0
-208 -228 -28 138 234 0
-208 -228 28 -138 234 0
-208 -228 28 138 -234 0
-208 -228 -29 -139 -235 0
-208 -228 -29 139 235 0
-208 -228 29 -139 235 0
-208 -228 29 139 -235 0
-208 -228 -30 -140 -236 0
-208 -228 -30 140 236 0
-208 -228 30 -140 236 0
-208 -228 30 140 -236 0
-208 -228 -31 -141 -237 0
-208 -228 -31 141 237 0
-208 -228 31 -141 237 0
-208 -228 31 141 -237 0
-208 -228 -32 -142 -238 0
-208 -228 -32 142 238 0
-208 -228 32 -142 238 0
-208 -228 32 142 -238 0
-208 -229 -25 -165 -231 0
-208 -229 -25 165 231 0
-208 -229 25 -165 231 0
-208 -229 25 165 -231 0
-208 -229 -26 -166 -232 0
-208 -229 -26 166 232 0
-208 -229 26 -166 232 0
-208 -229 26 166 -232 0
-208 -229 -27 -167 -233 0
-208 -229 -27 167 233 0
-208 -229 27 -167 233 0
-208 -229 27 167 -233 0
-208 -229 -28 -168 -234 0
-208 -229 -28 168 234 0
-208 -229 28 -168 234 0
-208 -229 28 168 -234 0
-208 -229 -29 -169 -235 0
-208 -229 -29 169 235 0
-208 -229 29 -169 235 0
-208 -229 29 169 -235 0
-208 -229 -30 -170 -236 0
-208 -229 -30 170 236 0
-208 -229 30 -170 236 0
-208 -229 30 170 -236 0
-208 -229 -31 -171 -237 0
-208 -229 -31 171 237 0
-208 -229 31 -171 237 0
-208 -229 31 171 -237 0
-208 -229 -32 -172 -238 0
-208 -229 -32 172 238 0
-208 -229 32 -172 238 0
-208 -229 32 172 -238 0
-208 -230 -25 -197 -231 0
-208 -230 -25 197 231 0
-208 -230 25 -197 231 0
-208 -230 25 197 -231 0
-208 -230 -26 -198 -232 0
-208 -230 -26 198 232 0
-208 -230 26 -198 232 0
-208 -230 26 198 -232 0
-208 -230 -27 -199 -233 0
-208 -230 -27 199 233 0
-208 -230 27 -199 233 0
-208 -230 27 199 -233 0
-208 -230 -28 -200 -234 0
-208 -230 -28 200 234 0
-208 -230 28 -200 234 0
-208 -230 28 200 -234 0
-208 -230 -29 -201 -235 0
-208 -230 -29 201 235 0
-208 -230 29 -201 235 0
-208 -230 29 201 -235 0
-208 -230 -30 -202 -236 0
-208 -230 -30 202 236 0
-208 -230 30 -202 236 0
-208 -230 30 202 -236 0
-208 -230 -31 -203 -237 0
-208 -230 -31 203 237 0
-208 -230 31 -203 237 0
-208 -230 31 203 -237 0
-208 -230 -32 -204 -238 0
-208 -230 -32 204 238 0
-208 -230 32 -204 238 0
-208 -230 32 204 -238 0
-209 -223 -33 -41 -231 0
-209 -223 -33 41 231 0
-209 -223 33 -41 231 0
-209 -223 33 41 -231 0
-209 -223 -34 -42 -232 0
-209 -223 -34 42 232 0
-209 -223 34 -42 232 0
-209 -223 34 42 -232 0
-209 -223 -35 -43 -233 0
-209 -223 -35 43 233 0
-209 -223 35 -43 233 0
-209 -223 35 43 -233 0
-209 -223 -36 -44 -234 0
-209 -223 -36 44 234 0
-209 -223 36 -44 234 0
-209 -223 36 44 -234 0
-209 -223 -37 -45 -235 0
-209 -223 -37 45 235 0
-209 -223 37 -45 235 0
-209 -223 37 45 -235 0
-209 -223 -38 -46 -236 0
-209 -223 -38 46 236 0
-209 -223 38 -46 236 0
-209 -223 38 46 -236 0
-209 -223 -39 -47 -237 0
-209 -223 -39 47 237 0
-209 -223 39 -47 237 0
-209 -223 39 47 -237 0
-209 -223 -40 -48 -238 0
-209 -223 -40 48 238 0
-209 -223 40 -48 238 0
-209 -223 40 48 -238 0
-209 -224 -33 -49 -231 0
-209 -224 -33 49 231 0
-209 -224 33 -49 231 0
-209 -224 33 49 -231 0
-209 -224 -34 -50 -232 0
-209 -224 -34 50 232 0
-209 -224 34 -50 232 0
-209 -224 34 50 -232 0
-209 -224 -35 -51 -233 0
-209 -224 -35 51 233 0
-209 -224 35 -51 233 0
-209 -224 35 51 -233 0
-209 -224 -36 -52 -234 0
-209 -224 -36 52 234 0
-209 -224 36 -52 234 0
-209 -224 36 52 -234 0
-209 -224 -37 -53 -235 0
-209 -224 -37 53 235 0
-209 -224 37 -53 235 0
-209 -224 37 53 -235 0
-209 -224 -38 -54 -236 0
-209 -224 -38 54 236 0
-209 -224 38 -54 236 0
-209 -224 38 54 -236 0
-209 -224 -39 -55 -237 0
-209 -224 -39 55 237 0
-209 -224 39 -55 237 0
-209 -224 39 55 -237 0
-209 -224 -40 -56 -238 0
-209 -224 -40 56 238 0
-209 -224 40 -56 238 0
-209 -224 40 56 -238 0
-209 -225 -33 -57 -231 0
-209 -225 -33 57 231 0
-209 -225 33 -57 231 0
-209 -225 33 57 -231 0
-209 -225 -34 -58 -232 0
-209 -225 -34 58 232 0
-209 -225 34 -58 232 0
-209 -225 34 58 -232 0
-209 -225 -35 -59 -233 0
-209 -225 -35 59 233 0
-209 -225 35 -59 233 0
-209 -225 35 59 -233 0
-209 -225 -36 -60 -234 0
-209 -225 -36 60 234 0
-209 -225 36 -60 234 0
-209 -225 36 60 -234 0
-209 -225 -37 -61 -235 0
-209 -225 -37 61 235 0
-209 -225 37 -61 235 0
-209 -225 37 61 -235 0
-209 -225 -38 -62 -236 0
-209 -225 -38 62 236 0
-209 -225 38 -62 236 0
-209 -225 38 62 -236 0
-209 -225 -39 -63 -237 0
-209 -225 -39 63 237 0
-209 -225 39 -63 237 0
-209 -225 39 63 -237 0
-209 -225 -40 -64 -238 0
-209 -225 -40 64 238 0
-209 -225 40 -64 238 0
-209 -225 40 64 -238 0
-209 -226 -33 -81 -231 0
-209 -226 -33 81 231 0
-209 -226 33 -81 231 0
-209 -226 33 81 -231 0
-209 -226 -34 -82 -232 0
-209 -226 -34 82 232 0
-209 -226 34 -82 232 0
-209 -226 34 82 -232 0
-209 -226 -35 -83 -233 0
-209 -226 -35 83 233 0
-209 -226 35 -83 233 0
-209 -226 35 83 -233 0
-209 -226 -36 -84 -234 0
-209 -226 -36 84 234 0
-209 -226 36 -84 234 0
-209 -226 36 84 -234 0
-209 -226 -37 -85 -235 0
-209 -226 -37 85 235 0
-209 -226 37 -85 235 0
-209 -226 37 85 -235 0
-209 -226 -38 -86 -236 0
-209 -226 -38 86 236 0
-209 -226 38 -86 236 0
-209 -226 38 86 -236 0
-209 -226 -39 -87 -237 0
-209 -226 -39 87 237 0
-209 -226 39 -87 237 0
-209 -226 39 87 -237 0
-209 -226 -40 -88 -238 0
-209 -226 -40 88 238 0
-209 -226 40 -88 238 0
-209 -226 40 88 -238 0
-209 -227 -33 -107 -231 0
-209 -227 -33 107 231 0
-209 -227 33 -107 231 0
-209 -227 33 107 -231 0
-209 -227 -34 -108 -232 0
-209 -227 -34 108 232 0
-209 -227 34 -108 232 0
-209 -227 34 108 -232 0
-209 -227 -35 -109 -233 0
-209 -227 -35 109 233 0
-209 -227 35 -109 233 0
-209 -227 35 109 -233 0
-209 -227 -36 -110 -234 0
-209 -227 -36 110 234 0
-209 -227 36 -110 234 0
-209 -227 36 110 -234 0
-209 -227 -37 -111 -235 0
-209 -227 -37 111 235 0
-209 -227 37 -111 235 0
-209 -227 37 111 -235 0
-209 -227 -38 -112 -236 0
-209 -227 -38 112 236 0
-209 -227 38 -112 236 0
-209 -227 38 112 -236 0
-209 -227 -39 -113 -237 0
-209 -227 -39 113 237 0
-209 -227 39 -113 237 0
-209 -227 39 113 -237 0
-209 -227 -40 -114 -238 0
-209 -227 -40 114 238 0
-209 -227 40 -114 238 0
-209 -227 40 114 -238 0
-209 -228 -33 -135 -231 0
-209 -228 -33 135 231 0
-209 -228 33 -135 231 0
-209 -228 33 135 -231 0
-209 -228 -34 -136 -232 0
-209 -228 -34 136 232 0
-209 -228 34 -136 232 0
-209 -228 34 136 -232 0
-209 -228 -35 -137 -233 0
-209 -228 -35 137 233 0
-209 -228 35 -137 233 0
-209 -228 35 137 -233 0
-209 -228 -36 -138 -234 0
-209 -228 -36 138 234 0
-209 -228 36 -138 234 0
-209 -228 36 138 -234 0
-209 -228 -37 -139 -235 0
-209 -228 -37 139 235 0
-209 -228 37 -139 235 0
-209 -228 37 139 -235 0
-209 -228 -38 -140 -236 0
-209 -228 -38 140 236 0
-209 -228 38 -140 236 0
-209 -228 38 140 -236 0
-209 -228 -39 -141 -237 0
-209 -228 -39 141 237 0
-209 -228 39 -141 237 0
-209 -228 39 141 -237 0
-209 -228 -40 -142 -238 0
-209 -228 -40 142 238 0
-209 -228 40 -142 238 0
-209 -228 40 142 -238 0
-209 -229 -33 -165 -231 0
-209 -229 -33 165 231 0
-209 -229 33 -165 231 0
-209 -229 33 165 -231 0
-209 -229 -34 -166 -232 0
-209 -229 -34 166 232 0
-209 -229 34 -166 232 0
-209 -229 34 166 -232 0
-209 -229 -35 -167 -233 0
-209 -229 -35 167 233 0
-209 -229 35 -167 233 0
-209 -229 35 167 -233 0
-209 -229 -36 -168 -234 0
-209 -229 -36 168 234 0
-209 -229 36 -168 234 0
-209 -229 36 168 -234 0
-209 -229 -37 -169 -235 0
-209 -229 -37 169 235 0
-209 -229 37 -169 235 0
-209 -229 37 169 -235 0
-209 -229 -38 -170 -236 0
-209 -229 -38 170 236 0
-209 -229 38 -170 236 0
-209 -229 38 170 -236 0
-209 -229 -39 -171 -237 0
-209 -229 -39 171 237 0
-209 -229 39 -171 237 0
-209 -229 39 171 -237 0
-209 -229 -40 -172 -238 0
-209 -229 -40 172 238 0
-209 -229 40 -172 238 0
-209 -229 40 172 -238 0
-209 -230 -33 -197 -231 0
-209 -230 -33 197 231 0
-209 -230 33 -197 231 0
-209 -230 33 197 -231 0
-209 -230 -34 -198 -232 0
-209 -230 -34 198 232 0
-209 -230 34 -198 232 0
-209 -230 34 198 -232 0
-209 -230 -35 -199 -233 0
-209 -230 -35 199 233 0
-209 -230 35 -199 233 0
-209 -230 35 199 -233 0
-209 -230 -36 -200 -234 0
-209 -230 -36 200 234 0
-209 -230 36 -200 234 0
-209 -230 36 200 -234 0
-209 -230 -37 -201 -235 0
-209 -230 -37 201 235 0
-209 -230 37 -201 235 0
-209 -230 37 201 -235 0
-209 -230 -38 -202 -236 0
-209 -230 -38 202 236 0
-209 -230 38 -202 236 0
-209 -230 38 202 -236 0
-209 -230 -39 -203 -237 0
-209 -230 -39 203 237 0
-209 -230 39 -203 237 0
-209 -230 39 203 -237 0
-209 -230 -40 -204 -238 0
-209 -230 -40 204 238 0
-209 -230 40 -204 238 0
-209 -230 40 204 -238 0
-210 -224 -41 -49 -231 0
-210 -224 -41 49 231 0
-210 -224 41 -49 231 0
-210 -224 41 49 -231 0
-210 -224 -42 -50 -232 0
-210 -224 -42 50 232 0
-210 -224 42 -50 232 0
-210 -224 42 50 -232 0
-210 -224 -43 -51 -233 0
-210 -224 -43 51 233 0
-210 -224 43 -51 233 0
-210 -224 43 51 -233 0
-210 -224 -44 -52 -234 0
-210 -224 -44 52 234 0
-210 -224 44 -52 234 0
-210 -224 44 52 -234 0
-210 -224 -45 -53 -235 0
-210 -224 -45 53 235 0
-210 -224 45 -53 235 0
-210 -224 45 53 -235 0
-210 -224 -46 -54 -236 0
-210 -224 -46 54 236 0
-210 -224 46 -54 236 0
-210 -224 46 54 -236 0
-210 -224 -47 -55 -237 0
-210 -224 -47 55 237 0
-210 -224 47 -55 237 0
-210 -224 47 55 -237 0
-210 -224 -48 -56 -238 0
-210 -224 -48 56 238 0
-210 -224 48 -56 238 0
-210 -224 48 56 -238 0
-210 -225 -41 -57 -231 0
-210 -225 -41 57 231 0
-210 -225 41 -57 231 0
-210 -225 41 57 -231 0
-210 -225 -42 -58 -232 0
-210 -225 -42 58 232 0
-210 -225 42 -58 232 0
-210 -225 42 58 -232 0
-210 -225 -43 -59 -233 0
-210 -225 -43 59 233 0
-210 -225 43 -59 233 0
-210 -225 43 59 -233 0
-210 -225 -44 -60 -234 0
-210 -225 -44 60 234 0
-210 -225 44 -60 234 0
-210 -225 44 60 -234 0
-210 -225 -45 -61 -235 0
-210 -225 -45 61 235 0
-210 -225 45 -61 235 0
-210 -225 45 61 -235 0
-210 -225 -46 -62 -236 0
-210 -225 -46 62 236 0
-210 -225 46 -62 236 0
-210 -225 46 62 -236 0
-210 -225 -47 -63 -237 0
-210 -225 -47 63 237 0
-210 -225 47 -63 237 0
-210 -225 47 63 -237 0
-210 -225 -48 -64 -238 0
-210 -225 -48 64 238 0
-210 -225 48 -64 238 0
-210 -225 48 64 -238 0
-210 -226 -41 -81 -231 0
-210 -226 -41 81 231 0
-210 -226 41 -81 231 0
-210 -226 41 81 -231 0
-210 -226 -42 -82 -232 0
-210 -226 -42 82 232 0
-210 -226 42 -82 232 0
-210 -226 42 82 -232 0
-210 -226 -43 -83 -233 0
-210 -226 -43 83 233 0
-210 -226 43 -83 233 0
-210 -226 43 83 -233 0
-210 -226 -44 -84 -234 0
-210 -226 -44 84 234 0
-210 -226 44 -84 234 0
-210 -226 44 84 -234 0
-210 -226 -45 -85 -235 0
-210 -226 -45 85 235 0
-210 -226 45 -85 235 0
-210 -226 45 85 -235 0
-210 -226 -46 -86 -236 0
-210 -226 -46 86 236 0
-210 -226 46 -86 236 0
-210 -226 46 86 -236 0
-210 -226 -47 -87 -237 0
-210 -226 -47 87 237 0
-210 -226 47 -87 237 0
-210 -226 47 87 -237 0
-210 -226 -48 -88 -238 0
-210 -226 -48 88 238 0
-210 -226 48 -88 238 0
-210 -226 48 88 -238 0
-210 -227 -41 -107 -231 0
-210 -227 -41 107 231 0
-210 -227 41 -107 231 0
-210 -227 41 107 -231 0
-210 -227 -42 -108 -232 0
-210 -227 -42 108 232 0
-210 -227 42 -108 232 0
-210 -227 42 108 -232 0
-210 -227 -43 -109 -233 0
-210 -227 -43 109 233 0
-210 -227 43 -109 233 0
-210 -227 43 109 -233 0
-210 -227 -44 -110 -234 0
-210 -227 -44 110 234 0
-210 -227 44 -110 234 0
-210 -227 44 110 -234 0
-210 -227 -45 -111 -235 0
-210 -227 -45 111 235 0
-210 -227 45 -111 235 0
-210 -227 45 111 -235 0
-210 -227 -46 -112 -236 0
-210 -227 -46 112 236 0
-210 -227 46 -112 236 0
-210 -227 46 112 -236 0
-210 -227 -47 -113 -237 0
-210 -227 -47 113 237 0
-210 -227 47 -113 237 0
-210 -227 47 113 -237 0
-210 -227 -48 -114 -238 0
-210 -227 -48 114 238 0
-210 -227 48 -114 238 0
-210 -227 48 114 -238 0
-210 -228 -41 -135 -231 0
-210 -228 -41 135 231 0
-210 -228 41 -135 231 0
-210 -228 41 135 -231 0
-210 -228 -42 -136 -232 0
-210 -228 -42 136 232 0
-210 -228 42 -136 232 0
-210 -228 42 136 -232 0
-210 -228 -43 -137 -233 0
-210 -228 -43 137 233 0
-210 -228 43 -137 233 0
-210 -228 43 137 -233 0
-210 -228 -44 -138 -234 0
-210 -228 -44 138 234 0
-210 -228 44 -138 234 0
-210 -228 44 138 -234 0
-210 -228 -45 -139 -235 0
-210 -228 -45 139 235 0
-210 -228 45 -139 235 0
-210 -228 45 139 -235 0
-210 -228 -46 -140 -236 0
-210 -228 -46 140 236 0
-210 -228 46 -140 236 0
-210 -228 46 140 -236 0
-210 -228 -47 -141 -237 0
-210 -228 -47 141 237 0
-210 -228 47 -141 237 0
-210 -228 47 141 -237 0
-210 -228 -48 -142 -238 0
-210 -228 -48 142 238 0
-210 -228 48 -142 238 0
-210 -228 48 142 -238 0
-210 -229 -41 -165 -231 0
-210 -229 -41 165 231 0
-210 -229 41 -165 231 0
-210 -229 41 165 -231 0
-210 -229 -42 -166 -232 0
-210 -229 -42 166 232 0
-210 -229 42 -166 232 0
-210 -229 42 166 -232 0
-210 -229 -43 -167 -233 0
-210 -229 -43 167 233 0
-210 -229 43 -167 233 0
-210 -229 43 167 -233 0
-210 -229 -44 -168 -234 0
-210 -229 -44 168 234 0
-210 -229 44 -168 234 0
-210 -229 44 168 -234 0
-210 -229 -45 -169 -235 0
-210 -229 -45 169 235 0
-210 -229 45 -169 235 0
-210 -229 45 169 -235 0
-210 -229 -46 -170 -236 0
-210 -229 -46 170 236 0
-210 -229 46 -170 236 0
-210 -229 46 170 -236 0
-210 -229 -47 -171 -237 0
-210 -229 -47 171 237 0
-210 -229 47 -171 237 0
-210 -229 47 171 -237 0
-210 -229 -48 -172 -238 0
-210 -229 -48 172 238 0
-210 -229 48 -172 238 0
-210 -229 48 172 -238 0
-210 -230 -41 -197 -231 0
-210 -230 -41 197 231 0
-210 -230 41 -197 231 0
-210 -230 41 197 -231 0
-210 -230 -42 -198 -232 0
-210 -230 -42 198 232 0
-210 -230 42 -198 232 0
-210 -230 42 198 -232 0
-210 -230 -43 -199 -233 0
-210 -230 -43 199 233 0
-210 -230 43 -199 233 0
-210 -230 43 199 -233 0
-210 -230 -44 -200 -234 0
-210 -230 -44 200 234 0
-210 -230 44 -200 234 0
-210 -230 44 200 -234 0
-210 -230 -45 -201 -235 0
-210 -230 -45 201 235 0
-210 -230 45 -201 235 0
-210 -230 45 201 -235 0
-210 -230 -46 -202 -236 0
-210 -230 -46 202 236 0
-210 -230 46 -202 236 0
-210 -230 46 202 -236 0
-210 -230 -47 -203 -237 0
-210 -230 -47 203 237 0
-210 -230 47 -203 237 0
-210 -230 47 203 -237 0
-210 -230 -48 -204 -238 0
-210 -230 -48 204 238 0
-210 -230 48 -204 238 0
-210 -230 48 204 -238 0
-211 -225 -49 -57 -231 0
-211 -225 -49 57 231 0
-211 -225 49 -57 231 0
-211 -225 49 57 -231 0
-211 -225 -50 -58 -232 0
-211 -225 -50 58 232 0
-211 -225 50 -58 232 0
-211 -225 50 58 -232 0
-211 -225 -51 -59 -233 0
-211 -225 -51 59 233 0
-211 -225 51 -59 233 0
-211 -225 51 59 -233 0
-211 -225 -52 -60 -234 0
-211 -225 -52 60 234 0
-211 -225 52 -60 234 0
-211 -225 52 60 -234 0
-211 -225 -53 -61 -235 0
-211 -225 -53 61 235 0
-211 -225 53 -61 235 0
-211 -225 53 61 -235 0
-211 -225 -54 -62 -236 0
-211 -225 -54 62 236 0
-211 -225 54 -62 236 0
-211 -225 54 62 -236 0
-211 -225 -55 -63 -237 0
-211 -225 -55 63 237 0
-211 -225 55 -63 237 0
-211 -225 55 63 -237 0
-211 -225 -56 -64 -238 0
-211 -225 -56 64 238 0
-211 -225 56 -64 238 0
-211 -225 56 64 -238 0
-211 -226 -49 -81 -231 0
-211 -226 -49 81 231 0
-211 -226 49 -81 231 0
-211 -226 49 81 -231 0
-211 -226 -50 -82 -232 0
-211 -226 -50 82 232 0
-211 -226 50 -82 232 0
-211 -226 50 82 -232 0
-211 -226 -51 -83 -233 0
-211 -226 -51 83 233 0
-211 -226 51 -83 233 0
-211 -226 51 83 -233 0
-211 -226 -52 -84 -234 0
-211 -226 -52 84 234 0
-211 -226 52 -84 234 0
-211 -226 52 84 -234 0
-211 -226 -53 -85 -235 0
-211 -226 -53 85 235 0
-211 -226 53 -85 235 0
-211 -226 53 85 -235 0
-211 -226 -54 -86 -236 0
-211 -226 -54 86 236 0
-211 -226 54 -86 236 0
-211 -226 54 86 -236 0
-211 -226 -55 -87 -237 0
-211 -226 -55 87 237 0
-211 -226 55 -87 237 0
-211 -226 55 87 -237 0
-211 -226 -56 -88 -238 0
-211 -226 -56 88 238 0
-211 -226 56 -88 238 0
-211 -226 56 88 -238 0
-211 -227 -49 -107 -231 0
-211 -227 -49 107 231 0
-211 -227 49 -107 231 0
-211 -227 49 107 -231 0
-211 -227 -50 -108 -232 0
-211 -227 -50 108 232 0
-211 -227 50 -108 232 0
-211 -227 50 108 -232 0
-211 -227 -51 -109 -233 0
-211 -227 -51 109 233 0
-211 -227 51 -109 233 0
-211 -227 51 109 -233 0
-211 -227 -52 -110 -234 0
-211 -227 -52 110 234 0
-211 -227 52 -110 234 0
-211 -227 52 110 -234 0
-211 -227 -53 -111 -235 0
-211 -227 -53 111 235 0
-211 -227 53 -111 235 0
-211 -227 53 111 -235 0
-211 -227 -54 -112 -236 0
-211 -227 -54 112 236 0
-211 -227 54 -112 236 0
-211 -227 54 112 -236 0
-211 -227 -55 -113 -237 0
-211 -227 -55 113 237 0
-211 -227 55 -113 237 0
-211 -227 55 113 -237 0
-211 -227 -56 -114 -238 0
-211 -227 -56 114 238 0
-211 -227 56 -114 238 0
-211 -227 56 114 -238 0
-211 -228 -49 -135 -231 0
-211 -228 -49 135 231 0
-211 -228 49 -135 231 0
-211 -228 49 135 -231 0
-211 -228 -50 -136 -232 0
-211 -228 -50 136 232 0
-211 -228 50 -136 232 0
-211 -228 50 136 -232 0
-211 -228 -51 -137 -233 0
-211 -228 -51 137 233 0
-211 -228 51 -137 233 0
-211 -228 51 137 -233 0
-211 -228 -52 -138 -234 0
-211 -228 -52 138 234 0
-211 -228 52 -138 234 0
-211 -228 52 138 -234 0
-211 -228 -53 -139 -235 0
-211 -228 -53 139 235 0
-211 -228 53 -139 235 0
-211 -228 53 139 -235 0
-211 -228 -54 -140 -236 0
-211 -228 -54 140 236 0
-211 -228 54 -140 236 0
-211 -228 54 140 -236 0
-211 -228 -55 -141 -237 0
-211 -228 -55 141 237 0
-211 -228 55 -141 237 0
-211 -228 55 141 -237 0
-211 -228 -56 -142 -238 0
-211 -228 -56 142 238 0
-211 -228 56 -142 238 0
-211 -228 56 142 -238 0
-211 -229 -49 -165 -231 0
-211 -229 -49 165 231 0
-211 -229 49 -165 231 0
-211 -229 49 165 -231 0
-211 -229 -50 -166 -232 0
-211 -229 -50 166 232 0
-211 -229 50 -166 232 0
-211 -229 50 166 -232 0
-211 -229 -51 -167 -233 0
-211 -229 -51 167 233 0
-211 -229 51 -167 233 0
-211 -229 51 167 -233 0
-211 -229 -52 -168 -234 0
-211 -229 -52 168 234 0
-211 -229 52 -168 234 0
-211 -229 52 168 -234 0
-211 -229 -53 -169 -235 0
-211 -229 -53 169 235 0
-211 -229 53 -169 235 0
-211 -229 53 169 -235 0
-211 -229 -54 -170 -236 0
-211 -229 -54 170 236 0
-211 -229 54 -170 236 0
-211 -229 54 170 -236 0
-211 -229 -55 -171 -237 0
-211 -229 -55 171 237 0
-211 -229 55 -171 237 0
-211 -229 55 171 -237 0
-211 -229 -56 -172 -238 0
-211 -229 -56 172 238 0
-211 -229 56 -172 238 0
-211 -229 56 172 -238 0
-211 -230 -49 -197 -231 0
-211 -230 -49 197 231 0
-211 -230 49 -197 231 0
-211 -230 49 197 -231 0
-211 -230 -50 -198 -232 0
-211 -230 -50 198 232 0
-211 -230 50 -198 232 0
-211 -230 50 198 -232 0
-211 -230 -51 -199 -233 0
-211 -230 -51 199 233 0
-211 -230 51 -199 233 0
-211 -230 51 199 -233 0
-211 -230 -52 -200 -234 0
-211 -230 -52 200 234 0
-211 -230 52 -200 234 0
-211 -230 52 200 -234 0
-211 -230 -53 -201 -235 0
-211 -230 -53 201 235 0
-211 -230 53 -201 235 0
-211 -230 53 201 -235 0
-211 -230 -54 -202 -236 0
-211 -230 -54 202 236 0
-211 -230 54 -202 236 0
-211 -230 54 202 -236 0
-211 -230 -55 -203 -237 0
-211 -230 -55 203 237 0
-211 -230 55 -203 237 0
-211 -230 55 203 -237 0
-211 -230 -56 -204 -238 0
-211 -230 -56 204 238 0
-211 -230 56 -204 238 0
-211 -230 56 204 -238 0
-212 -226 -57 -81 -231 0
-212 -226 -57 81 231 0
-212 -226 57 -81 231 0
-212 -226 57 81 -231 0
-212 -226 -58 -82 -232 0
-212 -226 -58 82 232 0
-212 -226 58 -82 232 0
-212 -226 58 82 -232 0
-212 -226 -59 -83 -233 0
-212 -226 -59 83 233 0
-212 -226 59 -83 233 0
-212 -226 59 83 -233 0
-212 -226 -60 -84 -234 0
-212 -226 -60 84 234 0
-212 -226 60 -84 234 0
-212 -226 60 84 -234 0
-212 -226 -61 -85 -235 0
-212 -226 -61 85 235 0
-212 -226 61 -85 235 0
-212 -226 61 85 -235 0
-212 -226 -62 -86 -236 0
-212 -226 -62 86 236 0
-212 -226 62 -86 236 0
-212 -226 62 86 -236 0
-212 -226 -63 -87 -237 0
-212 -226 -63 87 237 0
-212 -226 63 -87 237 0
-212 -226 63 87 -237 0
-212 -226 -64 -88 -238 0
-212 -226 -64 88 238 0
-212 -226 64 -88 238 0
-212 -226 64 88 -238 0
-212 -227 -57 -107 -231 0
-212 -227 -57 107 231 0
-212 -227 57 -107 231 0
-212 -227 57 107 -231 0
-212 -227 -58 -108 -232 0
-212 -227 -58 108 232 0
-212 -227 58 -108 232 0
-212 -227 58 108 -232 0
-212 -227 -59 -109 -233 0
-212 -227 -59 109 233 0
-212 -227 59 -109 233 0
-212 -227 59 109 -233 0
-212 -227 -60 -110 -234 0
-212 -227 -60 110 234 0
-212 -227 60 -110 234 0
-212 -227 60 110 -234 0
-212 -227 -61 -111 -235 0
-212 -227 -61 111 235 0
-212 -227 61 -111 235 0
-212 -227 61 111 -235 0
-212 -227 -62 -112 -236 0
-212 -227 -62 112 236 0
-212 -227 62 -112 236 0
-212 -227 62 112 -236 0
-212 -227 -63 -113 -237 0
-212 -227 -63 113 237 0
-212 -227 63 -113 237 0
-212 -227 63 113 -237 0
-212 -227 -64 -114 -238 0
-212 -227 -64 114 238 0
-212 -227 64 -114 238 0
-212 -227 64 114 -238 0
-212 -228 -57 -135 -231 0
-212 -228 -57 135 231 0
-212 -228 57 -135 231 0
-212 -228 57 135 -231 0
-212 -228 -58 -136 -232 0
-212 -228 -58 136 232 0
-212 -228 58 -136 232 0
-212 -228 58 136 -232 0
-212 -228 -59 -137 -233 0
-212 -228 -59 137 233 0
-212 -228 59 -137 233 0
-212 -228 59 137 -233 0
-212 -228 -60 -138 -234 0
-212 -228 -60 138 234 0
-212 -228 60 -138 234 0
-212 -228 60 138 -234 0
-212 -228 -61 -139 -235 0
-212 -228 -61 139 235 0
-212 -228 61 -139 235 0
-212 -228 61 139 -235 0
-212 -228 -62 -140 -236 0
-212 -228 -62 140 236 0
-212 -228 62 -140 236 0
-212 -228 62 140 -236 0
-212 -228 -63 -141 -237 0
-212 -228 -63 141 237 0
-212 -228 63 -141 237 0
-212 -228 63 141 -237 0
-212 -228 -64 -142 -238 0
-212 -228 -64 142 238 0
-212 -228 64 -142 238 0
-212 -228 64 142 -238 0
-212 -229 -57 -165 -231 0
-212 -229 -57 165 231 0
-212 -229 57 -165 231 0
-212 -229 57 165 -231 0
-212 -229 -58 -166 -232 0
-212 -229 -58 166 232 0
-212 -229 58 -166 232 0
-212 -229 58 166 -232 0
-212 -229 -59 -167 -233 0
-212 -229 -59 167 233 0
-212 -229 59 -167 233 0
-212 -229 59 167 -233 0
-212 -229 -60 -168 -234 0
-212 -229 -60 168 234 0
-212 -229 60 -168 234 0
-212 -229 60 168 -234 0
-212 -229 -61 -169 -235 0
-212 -229 -61 169 235 0
-212 -229 61 -169 235 0
-212 -229 61 169 -235 0
-212 -229 -62 -170 -236 0
-212 -229 -62 170 236 0
-212 -229 62 -170 236 0
-212 -229 62 170 -236 0
-212 -229 -63 -171 -237 0
-212 -229 -63 171 237 0
-212 -229 63 -171 237 0
-212 -229 63 171 -237 0
-212 -229 -64 -172 -238 0
-212 -229 -64 172 238 0
-212 -229 64 -172 238 0
-212 -229 64 172 -238 0
-212 -230 -57 -197 -231 0
-212 -230 -57 197 231 0
-212 -230 57 -197 231 0
-212 -230 57 197 -231 0
-212 -230 -58 -198 -232 0
-212 -230 -58 198 232 0
-212 -230 58 -198 232 0
-212 -230 58 198 -232 0
-212 -230 -59 -199 -233 0
-212 -230 -59 199 233 0
-212 -230 59 -199 233 0
-212 -230 59 199 -233 0
-212 -230 -60 -200 -234 0
-212 -230 -60 200 234 0
-212 -230 60 -200 234 0
-212 -230 60 200 -234 0
-212 -230 -61 -201 -235 0
-212 -230 -61 201 235 0
-212 -230 61 -201 235 0
-212 -230 61 201 -235 0
-212 -230 -62 -202 -236 0
-212 -230 -62 202 236 0
-212 -230 62 -202 236 0
-212 -230 62 202 -236 0
-212 -230 -63 -203 -237 0
-212 -230 -63 203 237 0
-212 -230 63 -203 237 0
-212 -230 63 203 -237 0
-212 -230 -64 -204 -238 0
-212 -230 -64 204 238 0
-212 -230 64 -204 238 0
-212 -230 64 204 -238 0
-213 -227 -81 -107 -231 0
-213 -227 -81 107 231 0
-213 -227 81 -107 231 0
-213 -227 81 107 -231 0
-213 -227 -82 -108 -232 0
-213 -227 -82 108 232 0
-213 -227 82 -108 232 0
-213 -227 82 108 -232 0
-213 -227 -83 -109 -233 0
-213 -227 -83 109 233 0
-213 -227 83 -109 233 0
-213 -227 83 109 -233 0
-213 -227 -84 -110 -234 0
-213 -227 -84 110 234 0
-213 -227 84 -110 234 0
-213 -227 84 110 -234 0
-213 -227 -85 -111 -235 0
-213 -227 -85 111 235 0
-213 -227 85 -111 235 0
-213 -227 85 111 -235 0
-213 -227 -86 -112 -236 0
-213 -227 -86 112 236 0
-213 -227 86 -112 236 0
-213 -227 86 112 -236 0
-213 -227 -87 -113 -237 0
-213 -227 -87 113 237 0
-213 -227 87 -113 237 0
-213 -227 87 113 -237 0
-213 -227 -88 -114 -238 0
-213 -227 -88 114 238 0
-213 -227 88 -114 238 0
-213 -227 88 114 -238 0
-213 -228 -81 -135 -231 0
-213 -228 -81 135 231 0
-213 -228 81 -135 231 0
-213 -228 81 135 -231 0
-213 -228 -82 -136 -232 0
-213 -228 -82 136 232 0
-213 -228 82 -136 232 0
-213 -228 82 136 -232 0
-213 -228 -83 -137 -233 0
-213 -228 -83 137 233 0
-213 -228 83 -137 233 0
-213 -228 83 137 -233 0
-213 -228 -84 -138 -234 0
-213 -228 -84 138 234 0
-213 -228 84 -138 234 0
-213 -228 84 138 -234 0
-213 -228 -85 -139 -235 0
-213 -228 -85 139 235 0
-213 -228 85 -139 235 0
-213 -228 85 139 -235 0
-213 -228 -86 -140 -236 0
-213 -228 -86 140 236 0
-213 -228 86 -140 236 0
-213 -228 86 140 -236 0
-213 -228 -87 -141 -237 0
-213 -228 -87 141 237 0
-213 -228 87 -141 237 0
-213 -228 87 141 -237 0
-213 -228 -88 -142 -238 0
-213 -228 -88 142 238 0
-213 -228 88 -142 238 0
-213 -228 88 142 -238 0
-213 -229 -81 -165 -231 0
-213 -229 -81 165 231 0
-213 -229 81 -165 231 0
-213 -229 81 165 -231 0
-213 -229 -82 -166 -232 0
-213 -229 -82 166 232 0
-213 -229 82 -166 232 0
-213 -229 82 166 -232 0
-213 -229 -83 -167 -233 0
-213 -229 -83 167 233 0
-213 -229 83 -167 233 0
-213 -229 83 167 -233 0
-213 -229 -84 -168 -234 0
-213 -229 -84 168 234 0
-213 -229 84 -168 234 0
-213 -229 84 168 -234 0
-213 -229 -85 -169 -235 0
-213 -229 -85 169 235 0
-213 -229 85 -169 235 0
-213 -229 85 169 -235 0
-213 -229 -86 -170 -236 0
-213 -229 -86 170 236 0
-213 -229 86 -170 236 0
-213 -229 86 170 -236 0
-213 -229 -87 -171 -237 0
-213 -229 -87 171 237 0
-213 -229 87 -171 237 0
-213 -229 87 171 -237 0
-213 -229 -88 -172 -238 0
-213 -229 -88 172 238 0
-213 -229 88 -172 238 0
-213 -229 88 172 -238 0
-213 -230 -81 -197 -231 0
-213 -230 -81 197 231 0
-213 -230 81 -197 231 0
-213 -230 81 197 -231 0
-213 -230 -82 -198 -232 0
-213 -230 -82 198 232 0
-213 -230 82 -198 232 0
-213 -230 82 198 -232 0
-213 -230 -83 -199 -233 0
-213 -230 -83 199 233 0
-213 -230 83 -199 233 0
-213 -230 83 199 -233 0
-213 -230 -84 -200 -234 0
-213 -230 -84 200 234 0
-213 -230 84 -200 234 0
-213 -230 84 200 -234 0
-213 -230 -85 -201 -235 0
-213 -230 -85 201 235 0
-213 -230 85 -201 235 0
-213 -230 85 201 -235 0
-213 -230 -86 -202 -236 0
-213 -230 -86 202 236 0
-213 -230 86 -202 236 0
-213 -230 86 202 -236 0
-213 -230 -87 -203 -237 0
-213 -230 -87 203 237 0
-213 -230 87 -203 237 0
-213 -230 87 203 -237 0
-213 -230 -88 -204 -238 0
-213 -230 -88 204 238 0
-213 -230 88 -204 238 0
-213 -230 88 204 -238 0
-214 -228 -107 -135 -231 0
-214 -228 -107 135 231 0
-214 -228 107 -135 231 0
-214 -228 107 135 -231 0
-214 -228 -108 -136 -232 0
-214 -228 -108 136 232 0
-214 -228 108 -136 232 0
-214 -228 108 136 -232 0
-214 -228 -109 -137 -233 0
-214 -228 -109 137 233 0
-214 -228 109 -137 233 0
-214 -228 109 137 -233 0
-214 -228 -110 -138 -234 0
-214 -228 -110 138 234 0
-214 -228 110 -138 234 0
-214 -228 110 138 -234 0
-214 -228 -111 -139 -235 0
-214 -228 -111 139 235 0
-214 -228 111 -139 235 0
-214 -228 111 139 -235 0
-214 -228 -112 -140 -236 0
-214 -228 -112 140 236 0
-214 -228 112 -140 236 0
-214 -228 112 140 -236 0
-214 -228 -113 -141 -237 0
-214 -228 -113 141 237 0
-214 -228 113 -141 237 0
-214 -228 113 141 -237 0
-214 -228 -114 -142 -238 0
-214 -228 -114 142 238 0
-214 -228 114 -142 238 0
-214 -228 114 142 -238 0
-214 -229 -107 -165 -231 0
-214 -229 -107 165 231 0
-214 -229 107 -165 231 0
-214 -229 107 165 -231 0
-214 -229 -108 -166 -232 0
-214 -229 -108 166 232 0
-214 -229 108 -166 232 0
-214 -229 108 166 -232 0
-214 -229 -109 -167 -233 0
-214 -229 -109 167 233 0
-214 -229 109 -167 233 0
-214 -229 109 167 -233 0
-214 -229 -110 -168 -234 0
-214 -229 -110 168 234 0
-214 -229 110 -168 234 0
-214 -229 110 168 -234 0
-214 -229 -111 -169 -235 0
-214 -229 -111 169 235 0
-214 -229 111 -169 235 0
-214 -229 111 169 -235 0
-214 -229 -112 -170 -236 0
-214 -229 -112 170 236 0
-214 -229 112 -170 236 0
-214 -229 112 170 -236 0
-214 -229 -113 -171 -237 0
-214 -229 -113 171 237 0
-214 -229 113 -171 237 0
-214 -229 113 171 -237 0
-214 -229 -114 -172 -238 0
-214 -229 -114 172 238 0
-214 -229 114 -172 238 0
-214 -229 114 172 -238 0
-214 -230 -107 -197 -231 0
-214 -230 -107 197 231 0
-214 -230 107 -197 231 0
-214 -230 107 197 -231 0
-214 -230 -108 -198 -232 0
-214 -230 -108 198 232 0
-214 -230 108 -198 232 0
-214 -230 108 198 -232 0
-214 -230 -109 -199 -233 0
-214 -230 -109 199 233 0
-214 -230 109 -199 233 0
-214 -230 109 199 -233 0
-214 -230 -110 -200 -234 0
-214 -230 -110 200 234 0
-214 -230 110 -200 234 0
-214 -230 110 200 -234 0
-214 -230 -111 -201 -235 0
-214 -230 -111 201 235 0
-214 -230 111 -201 235 0
-214 -230 111 201 -235 0
-214 -230 -112 -202 -236 0
-214 -230 -112 202 236 0
-214 -230 112 -202 236 0
-214 -230 112 202 -236 0
-214 -230 -113 -203 -237 0
-214 -230 -113 203 237 0
-214 -230 113 -203 237 0
-214 -230 113 203 -237 0
-214 -230 -114 -204 -238 0
-214 -230 -114 204 238 0
-214 -230 114 -204 238 0
-214 -230 114 204 -238 0
-215 -229 -135 -165 -231 0
-215 -229 -135 165 231 0
-215 -229 135 -165 231 0
-215 -229 135 165 -231 0
-215 -229 -136 -166 -232 0
-215 -229 -136 166 232 0
-215 -229 136 -166 232 0
-215 -229 136 166 -232 0
-215 -229 -137 -167 -233 0
-215 -229 -137 167 233 0
-215 -229 137 -167 233 0
-215 -229 137 167 -233 0
-215 -229 -138 -168 -234 0
-215 -229 -138 168 234 0
-215 -229 138 -168 234 0
-215 -229 138 168 -234 0
-215 -229 -139 -169 -235 0
-215 -229 -139 169 235 0
-215 -229 139 -169 235 0
-215 -229 139 169 -235 0
-215 -229 -140 -170 -236 0
-215 -229 -140 170 236 0
-215 -229 140 -170 236 0
-215 -229 140 170 -236 0
-215 -229 -141 -171 -237 0
-215 -229 -141 171 237 0
-215 -229 141 -171 237 0
-215 -229 141 171 -237 0
-215 -229 -142 -172 -238 0
-215 -229 -142 172 238 0
-215 -229 142 -172 238 0
-215 -229 142 172 -238 0
-215 -230 -135 -197 -231 0
-215 -230 -135 197 231 0
-215 -230 135 -197 231 0
-215 -230 135 197 -231 0
-215 -230 -136 -198 -232 0
-215 -230 -136 198 232 0
-215 -230 136 -198 232 0
-215 -230 136 198 -232 0
-215 -230 -137 -199 -233 0
-215 -230 -137 199 233 0
-215 -230 137 -199 233 0
-215 -230 137 199 -233 0
-215 -230 -138 -200 -234 0
-215 -230 -138 200 234 0
-215 -230 138 -200 234 0
-215 -230 138 200 -234 0
-215 -230 -139 -201 -235 0
-215 -230 -139 201 235 0
-215 -230 139 -201 235 0
-215 -230 139 201 -235 0
-215 -230 -140 -202 -236 0
-215 -230 -140 202 236 0
-215 -230 140 -202 236 0
-215 -230 140 202 -236 0
-215 -230 -141 -203 -237 0
-215 -230 -141 203 237 0
-215 -230 141 -203 237 0
-215 -230 141 203 -237 0
-215 -230 -142 -204 -238 0
-215 -230 -142 204 238 0
-215 -230 142 -204 238 0
-215 -230 142 204 -238 0
-216 -230 -165 -197 -231 0
-216 -230 -165 197 231 0
-216 -230 165 -197 231 0
-216 -230 165 197 -231 0
-216 -230 -166 -198 -232 0
-216 -230 -166 198 232 0
-216 -230 166 -198 232 0
-216 -230 166 198 -232 0
-216 -230 -167 -199 -233 0
-216 -230 -167 199 233 0
-216 -230 167 -199 233 0
-216 -230 167 199 -233 0
-216 -230 -168 -200 -234 0
-216 -230 -168 200 234 0
-216 -230 168 -200 234 0
-216 -230 168 200 -234 0
-216 -230 -169 -201 -235 0
-216 -230 -169 201 235 0
-216 -230 169 -201 235 0
-216 -230 169 201 -235 0
-216 -230 -170 -202 -236 0
-216 -230 -170 202 236 0
-216 -230 170 -202 236 0
-216 -230 170 202 -236 0
-216 -230 -171 -203 -237 0
-216 -230 -171 203 237 0
-216 -230 171 -203 237 0
-216 -230 171 203 -237 0
-216 -230 -172 -204 -238 0
-216 -230 -172 204 238 0
-216 -230 172 -204 238 0
-216 -230 172 204 -238 0
231 232 233 234 235 236 237 238 0
239 240 241 242 243 244 245 246 247 248 249 250 251 252 0
-239 -240 0
-239 -241 0
-239 -242 0
-239 -243 0
-239 -244 0
-239 -245 0
-239 -246 0
-239 -247 0
-239 -248 0
-239 -249 0
-239 -250 0
-239 -251 0
-239 -252 0
-240 -241 0
-240 -242 0
-240 -243 0
-240 -244 0
-240 -245 0
-240 -246 0
-240 -247 0
-240 -248 0
-240 -249 0
-240 -250 0
-240 -251 0
-240 -252 0
-241 -242 0
-241 -243 0
-241 -244 0
-241 -245 0
-241 -246 0
-241 -247 0
-241 -248 0
-241 -249 0
-241 -250 0
-241 -251 0
-241 -252 0
-242 -243 0
-242 -244 0
-242 -245 0
-242 -246 0
-242 -247 0
-242 -248 0
-242 -249 0
-242 -250 0
-242 -251 0
-242 -252 0
-243 -244 0
-243 -245 0
-243 -246 0
-243 -247 0
-243 -248 0
-243 -249 0
-243 -250 0
-243 -251 0
-243 -252 0
-244 -245 0
-244 -246 0
-244 -247 0
-244 -248 0
-244 -249 0
-244 -250 0
-244 -251 0
-244 -252 0
-245 -246 0
-245 -247 0
-245 -248 0
-245 -249 0
-245 -250 0
-245 -251 0
-245 -252 0
-246 -247 0
-246 -248 0
-246 -249 0
-246 -250 0
-246 -251 0
-246 -252 0
-247 -248 0
-247 -249 0
-247 -250 0
-247 -251 0
-247 -252 0
-248 -249 0
-248 -250 0
-248 -251 0
-248 -252 0
-249 -250 0
-249 -251 0
-249 -252 0
-250 -251 0
-250 -252 0
-251 -252 0
253 254 255 256 257 258 259 260 261 262 263 264 265 266 0
-253 -254 0
-253 -255 0
-253 -256 0
-253 -257 0
-253 -258 0
-253 -259 0
-253 -260 0
-253 -261 0
-253 -262 0
-253 -263 0
-253 -264 0
-253 -265 0
-253 -266 0
-254 -255 0
-254 -256 0
-254 -257 0
-254 -258 0
-254 -259 0
-254 -260 0
-254 -261 0
-254 -262 0
-254 -263 0
-254 -264 0
-254 -265 0
-254 -266 0
-255 -256 0
-255 -257 0
-255 -258 0
-255 -259 0
-255 -260 0
-255 -261 0
-255 -262 0
-255 -263 0
-255 -264 0
-255 -265 0
-255 -266 0
-256 -257 0
-256 -258 0
-256 -259 0
-256 -260 0
-256 -261 0
-256 -262 0
-256 -263 0
-256 -264 0
-256 -265 0
-256 -266 0
-257 -258 0
-257 -259 0
-257 -260 0
-257 -261 0
-257 -262 0
-257 -263 0
-257 -264 0
-257 -265 0
-257 -266 0
-258 -259 0
-258 -260 0
-258 -261 0
-258 -262 0
-258 -263 0
-258 -264 0
-258 -265 0
-258 -266 0
-259 -260 0
-259 -261 0
-259 -262 0
-259 -263 0
-259 -264 0
-259 -265 0
-259 -266 0
-260 -261 0
-260 -262 0
-260 -263 0
-260 -264 0
-260 -265 0
-260 -266 0
-261 -262 0
-261 -263 0
-261 -264 0
-261 -265 0
-261 -266 0
-262 -263 0
-262 -264 0
-262 -265 0
-262 -266 0
-263 -264 0
-263 -265 0
-263 -266 0
-264 -265 0
-264 -266 0
-265 -266 0
-239 -253 0
-240 -253 0
-240 -254 0
-241 -253 0
-241 -254 0
-241 -255 0
-242 -253 0
-242 -254 0
-242 -255 0
-242 -256 0
-243 -253 0
-243 -254 0
-243 -255 0
-243 -256 0
-243 -257 0
-244 -253 0
-244 -254 0
-244 -255 0
-244 -256 0
-244 -257 0
-244 -258 0
-245 -253 0
-245 -254 0
-245 -255 0
-245 -256 0
-245 -257 0
-245 -258 0
-245 -259 0
-246 -253 0
-246 -254 0
-246 -255 0
-246 -256 0
-246 -257 0
-246 -258 0
-246 -259 0
-246 -260 0
-247 -253 0
-247 -254 0
-247 -255 0
-247 -256 0
-247 -257 0
-247 -258 0
-247 -259 0
-247 -260 0
-247 -261 0
-248 -253 0
-248 -254 0
-248 -255 0
-248 -256 0
-248 -257 0
-248 -258 0
-248 -259 0
-248 -260 0
-248 -261 0
-248 -262 0
-249 -253 0
-249 -254 0
-249 -255 0
-249 -256 0
-249 -257 0
-249 -258 0
-249 -259 0
-249 -260 0
-249 -261 0
-249 -262 0
-249 -263 0
-250 -253 0
-250 -254 0
-250 -255 0
-250 -256 0
-250 -257 0
-250 -258 0
-250 -259 0
-250 -260 0
-250 -261 0
-250 -262 0
-250 -263 0
-250 -264 0
-251 -253 0
-251 -254 0
-251 -255 0
-251 -256 0
-251 -257 0
-251 -258 0
-251 -259 0
-251 -260 0
-251 -261 0
-251 -262 0
-251 -263 0
-251 -264 0
-251 -265 0
-252 -253 0
-252 -254 0
-252 -255 0
-252 -256 0
-252 -257 0
-252 -258 0
-252 -259 0
-252 -260 0
-252 -261 0
-252 -262 0
-252 -263 0
-252 -264 0
-252 -265 0
-252 -266 0
-239 -254 -1 -9 -267 0
-239 -254 -1 9 267 0
-239 -254 1 -9 267 0
-239 -254 1 9 -267 0
-239 -254 -2 -10 -268 0
-239 -254 -2 10 268 0
-239 -254 2 -10 268 0
-239 -254 2 10 -268 0
-239 -254 -3 -11 -269 0
-239 -254 -3 11 269 0
-239 -254 3 -11 269 0
-239 -254 3 11 -269 0
-239 -254 -4 -12 -270 0
-239 -254 -4 12 270 0
-239 -254 4 -12 270 0
-239 -254 4 12 -270 0
-239 -254 -5 -13 -271 0
-239 -254 -5 13 271 0
-239 -254 5 -13 271 0
-239 -254 5 13 -271 0
-239 -254 -6 -14 -272 0
-239 -254 -6 14 272 0
-239 -254 6 -14 272 0
-239 -254 6 14 -272 0
-239 -254 -7 -15 -273 0
-239 -254 -7 15 273 0
-239 -254 7 -15 273 0
-239 -254 7 15 -273 0
-239 -254 -8 -16 -274 0
-239 -254 -8 16 274 0
-239 -254 8 -16 274 0
-239 -254 8 16 -274 0
-239 -255 -1 -17 -267 0
-239 -255 -1 17 267 0
-239 -255 1 -17 267 0
-239 -255 1 17 -267 0
-239 -255 -2 -18 -268 0
-239 -255 -2 18 268 0
-239 -255 2 -18 268 0
-239 -255 2 18 -268 0
-239 -255 -3 -19 -269 0
-239 -255 -3 19 269 0
-239 -255 3 -19 269 0
-239 -255 3 19 -269 0
-239 -255 -4 -20 -270 0
-239 -255 -4 20 270 0
-239 -255 4 -20 270 0
-239 -255 4 20 -270 0
-239 -255 -5 -21 -271 0
-239 -255 -5 21 271 0
-239 -255 5 -21 271 0
-239 -255 5 21 -271 0
-239 -255 -6 -22 -272 0
-239 -255 -6 22 272 0
-239 -255 6 -22 272 0
-239 -255 6 22 -272 0
-239 -255 -7 -23 -273 0
-239 -255 -7 23 273 0
-239 -255 7 -23 273 0
-239 -255 7 23 -273 0
-239 -255 -8 -24 -274 0
-239 -255 -8 24 274 0
-239 -255 8 -24 274 0
-239 -255 8 24 -274 0
-239 -256 -1 -25 -267 0
-239 -256 -1 25 267 0
-239 -256 1 -25 267 0
-239 -256 1 25 -267 0
-239 -256 -2 -26 -268 0
-239 -256 -2 26 268 0
-239 -256 2 -26 268 0
-239 -256 2 26 -268 0
-239 -256 -3 -27 -269 0
-239 -256 -3 27 269 0
-239 -256 3 -27 269 0
-239 -256 3 27 -269 0
-239 -256 -4 -28 -270 0
-239 -256 -4 28 270 0
-239 -256 4 -28 270 0
-239 -256 4 28 -270 0
-239 -256 -5 -29 -271 0
-239 -256 -5 29 271 0
-239 -256 5 -29 271 0
-239 -256 5 29 -271 0
-239 -256 -6 -30 -272 0
-239 -256 -6 30 272 0
-239 -256 6 -30 272 0
-239 -256 6 30 -272 0
-239 -256 -7 -31 -273 0
-239 -256 -7 31 273 0
-239 -256 7 -31 273 0
-239 -256 7 31 -273 0
-239 -256 -8 -32 -274 0
-239 -256 -8 32 274 0
-239 -256 8 -32 274 0
-239 -256 8 32 -274 0
-239 -257 -1 -33 -267 0
-239 -257 -1 33 267 0
-239 -257 1 -33 267 0
-239 -257 1 33 -267 0
-239 -257 -2 -34 -268 0
-239 -257 -2 34 268 0
-239 -257 2 -34 268 0
-239 -257 2 34 -268 0
-239 -257 -3 -35 -269 0
-239 -257 -3 35 269 0
-239 -257 3 -35 269 0
-239 -257 3 35 -269 0
-239 -257 -4 -36 -270 0
-239 -257 -4 36 270 0
-239 -257 4 -36 270 0
-239 -257 4 36 -270 0
-239 -257 -5 -37 -271 0
-239 -257 -5 37 271 0
-239 -257 5 -37 271 0
-239 -257 5 37 -271 0
-239 -257 -6 -38 -272 0
-239 -257 -6 38 272 0
-239 -257 6 -38 272 0
-239 -257 6 38 -272 0
-239 -257 -7 -39 -273 0
-239 -257 -7 39 273 0
-239 -257 7 -39 273 0
-239 -257 7 39 -273 0
-239 -257 -8 -40 -274 0
-239 -257 -8 40 274 0
-239 -257 8 -40 274 0
-239 -257 8 40 -274 0
-239 -258 -1 -41 -267 0
-239 -258 -1 41 267 0
-239 -258 1 -41 267 0
-239 -258 1 41 -267 0
-239 -258 -2 -42 -268 0
-239 -258 -2 42 268 0
-239 -258 2 -42 268 0
-239 -258 2 42 -268 0
-239 -258 -3 -43 -269 0
-239 -258 -3 43 269 0
-239 -258 3 -43 269 0
-239 -258 3 43 -269 0
-239 -258 -4 -44 -270 0
-239 -258 -4 44 270 0
-239 -258 4 -44 270 0
-239 -258 4 44 -270 0
-239 -258 -5 -45 -271 0
-239 -258 -5 45 271 0
-239 -258 5 -45 271 0
-239 -258 5 45 -271 0
-239 -258 -6 -46 -272 0
-239 -258 -6 46 272 0
-239 -258 6 -46 272 0
-239 -258 6 46 -272 0
-239 -258 -7 -47 -273 0
-239 -258 -7 47 273 0
-239 -258 7 -47 273 0
-239 -258 7 47 -273 0
-239 -258 -8 -48 -274 0
-239 -258 -8 48 274 0
-239 -258 8 -48 274 0
-239 -258 8 48 -274 0
-239 -259 -1 -49 -267 0
-239 -259 -1 49 267 0
-239 -259 1 -49 267 0
-239 -259 1 49 -267 0
-239 -259 -2 -50 -268 0
-239 -259 -2 50 268 0
-239 -259 2 -50 268 0
-239 -259 2 50 -268 0
-239 -259 -3 -51 -269 0
-239 -259 -3 51 269 0
-239 -259 3 -51 269 0
-239 -259 3 51 -269 0
-239 -259 -4 -52 -270 0
-239 -259 -4 52 270 0
-239 -259 4 -52 270 0
-239 -259 4 52 -270 0
-239 -259 -5 -53 -271 0
-239 -259 -5 53 271 0
-239 -259 5 -53 271 0
-239 -259 5 53 -271 0
-239 -259 -6 -54 -272 0
-239 -259 -6 54 272 0
-239 -259 6 -54 272 0
-239 -259 6 54 -272 0
-239 -259 -7 -55 -273 0
-239 -259 -7 55 273 0
-239 -259 7 -55 273 0
-239 -259 7 55 -273 0
-239 -259 -8 -56 -274 0
-239 -259 -8 56 274 0
-239 -259 8 -56 274 0
-239 -259 8 56 -274 0
-239 -260 -1 -57 -267 0
-239 -260 -1 57 267 0
-239 -260 1 -57 267 0
-239 -260 1 57 -267 0
-239 -260 -2 -58 -268 0
-239 -260 -2 58 268 0
-239 -260 2 -58 268 0
-239 -260 2 58 -268 0
-239 -260 -3 -59 -269 0
-239 -260 -3 59 269 0
-239 -260 3 -59 269 0
-239 -260 3 59 -269 0
-239 -260 -4 -60 -270 0
-239 -260 -4 60 270 0
-239 -260 4 -60 270 0
-239 -260 4 60 -270 0
-239 -260 -5 -61 -271 0
-239 -260 -5 61 271 0
-239 -260 5 -61 271 0
-239 -260 5 61 -271 0
-239 -260 -6 -62 -272 0
-239 -260 -6 62 272 0
-239 -260 6 -62 272 0
-239 -260 6 62 -272 0
-239 -260 -7 -63 -273 0
-239 -260 -7 63 273 0
-239 -260 7 -63 273 0
-239 -260 7 63 -273 0
-239 -260 -8 -64 -274 0
-239 -260 -8 64 274 0
-239 -260 8 -64 274 0
-239 -260 8 64 -274 0
-239 -261 -1 -81 -267 0
-239 -261 -1 81 267 0
-239 -261 1 -81 267 0
-239 -261 1 81 -267 0
-239 -261 -2 -82 -268 0
-239 -261 -2 82 268 0
-239 -261 2 -82 268 0
-239 -261 2 82 -268 0
-239 -261 -3 -83 -269 0
-239 -261 -3 83 269 0
-239 -261 3 -83 269 0
-239 -261 3 83 -269 0
-239 -261 -4 -84 -270 0
-239 -261 -4 84 270 0
-239 -261 4 -84 270 0
-239 -261 4 84 -270 0
-239 -261 -5 -85 -271 0
-239 -261 -5 85 271 0
-239 -261 5 -85 271 0
-239 -261 5 85 -271 0
-239 -261 -6 -86 -272 0
-239 -261 -6 86 272 0
-239 -261 6 -86 272 0
-239 -261 6 86 -272 0
-239 -261 -7 -87 -273 0
-239 -261 -7 87 273 0
-239 -261 7 -87 273 0
-239 -261 7 87 -273 0
-239 -261 -8 -88 -274 0
-239 -261 -8 88 274 0
-239 -261 8 -88 274 0
-239 -261 8 88 -274 0
-239 -262 -1 -107 -267 0
-239 -262 -1 107 267 0
-239 -262 1 -107 267 0
-239 -262 1 107 -267 0
-239 -262 -2 -108 -268 0
-239 -262 -2 108 268 0
-239 -262 2 -108 268 0
-239 -262 2 108 -268 0
-239 -262 -3 -109 -269 0
-239 -262 -3 109 269 0
-239 -262 3 -109 269 0
-239 -262 3 109 -269 0
-239 -262 -4 -110 -270 0
-239 -262 -4 110 270 0
-239 -262 4 -110 270 0
-239 -262 4 110 -270 0
-239 -262 -5 -111 -271 0
-239 -262 -5 111 271 0
-239 -262 5 -111 271 0
-239 -262 5 111 -271 0
-239 -262 -6 -112 -272 0
-239 -262 -6 112 272 0
-239 -262 6 -112 272 0
-239 -262 6 112 -272 0
-239 -262 -7 -113 -273 0
-239 -262 -7 113 273 0
-239 -262 7 -113 273 0
-239 -262 7 113 -273 0
-239 -262 -8 -114 -274 0
-239 -262 -8 114 274 0
-239 -262 8 -114 274 0
-239 -262 8 114 -274 0
-239 -263 -1 -135 -267 0
-239 -263 -1 135 267 0
-239 -263 1 -135 267 0
-239 -263 1 135 -267 0
-239 -263 -2 -136 -268 0
-239 -263 -2 136 268 0
-239 -263 2 -136 268 0
-239 -263 2 136 -268 0
-239 -263 -3 -137 -269 0
-239 -263 -3 137 269 0
-239 -263 3 -137 269 0
-239 -263 3 137 -269 0
-239 -263 -4 -138 -270 0
-239 -263 -4 138 270 0
-239 -263 4 -138 270 0
-239 -263 4 138 -270 0
-239 -263 -5 -139 -271 0
-239 -263 -5 139 271 0
-239 -263 5 -139 271 0
-239 -263 5 139 -271 0
-239 -263 -6 -140 -272 0
-239 -263 -6 140 272 0
-239 -263 6 -140 272 0
-239 -263 6 140 -272 0
-239 -263 -7 -141 -273 0
-239 -263 -7 141 273 0
-239 -263 7 -141 273 0
-239 -263 7 141 -273 0
-239 -263 -8 -142 -274 0
-239 -263 -8 142 274 0
-239 -263 8 -142 274 0
-239 -263 8 142 -274 0
-239 -264 -1 -165 -267 0
-239 -264 -1 165 267 0
-239 -264 1 -165 267 0
-239 -264 1 165 -267 0
-239 -264 -2 -166 -268 0
-239 -264 -2 166 268 0
-239 -264 2 -166 268 0
-239 -264 2 166 -268 0
-239 -264 -3 -167 -269 0
-239 -264 -3 167 269 0
-239 -264 3 -167 269 0
-239 -264 3 167 -269 0
-239 -264 -4 -168 -270 0
-239 -264 -4 168 270 0
-239 -264 4 -168 270 0
-239 -264 4 168 -270 0
-239 -264 -5 -169 -271 0
-239 -264 -5 169 271 0
-239 -264 5 -169 271 0
-239 -264 5 169 -271 0
-239 -264 -6 -170 -272 0
-239 -264 -6 170 272 0
-239 -264 6 -170 272 0
-239 -264 6 170 -272 0
-239 -264 -7 -171 -273 0
-239 -264 -7 171 273 0
-239 -264 7 -171 273 0
-239 -264 7 171 -273 0
-239 -264 -8 -172 -274 0
-239 -264 -8 172 274 0
-239 -264 8 -172 274 0
-239 -264 8 172 -274 0
-239 -265 -1 -197 -267 0
-239 -265 -1 197 267 0
-239 -265 1 -197 267 0
-239 -265 1 197 -267 0
-239 -265 -2 -198 -268 0
-239 -265 -2 198 268 0
-239 -265 2 -198 268 0
-239 -265 2 198 -268 0
-239 -265 -3 -199 -269 0
-239 -265 -3 199 269 0
-239 -265 3 -199 269 0
-239 -265 3 199 -269 0
-239 -265 -4 -200 -270 0
-239 -265 -4 200 270 0
-239 -265 4 -200 270 0
-239 -265 4 200 -270 0
-239 -265 -5 -201 -271 0
-239 -265 -5 201 271 0
-239 -265 5 -201 271 0
-239 -265 5 201 -271 0
-239 -265 -6 -202 -272 0
-239 -265 -6 202 272 0
-239 -265 6 -202 272 0
-239 -265 6 202 -272 0
-239 -265 -7 -203 -273 0
-239 -265 -7 203 273 0
-239 -265 7 -203 273 0
-239 -265 7 203 -273 0
-239 -265 -8 -204 -274 0
-239 -265 -8 204 274 0
-239 -265 8 -204 274 0
-239 -265 8 204 -274 0
-239 -266 -1 -231 -267 0
-239 -266 -1 231 267 0
-239 -266 1 -231 267 0
-239 -266 1 231 -267 0
-239 -266 -2 -232 -268 0
-239 -266 -2 232 268 0
-239 -266 2 -232 268 0
-239 -266 2 232 -268 0
-239 -266 -3 -233 -269 0
-239 -266 -3 233 269 0
-239 -266 3 -233 269 0
-239 -266 3 233 -269 0
-239 -266 -4 -234 -270 0
-239 -266 -4 234 270 0
-239 -266 4 -234 270 0
-239 -266 4 234 -270 0
-239 -266 -5 -235 -271 0
-239 -266 -5 235 271 0
-239 -266 5 -235 271 0
-239 -266 5 235 -271 0
-239 -266 -6 -236 -272 0
-239 -266 -6 236 272 0
-239 -266 6 -236 272 0
-239 -266 6 236 -272 0
-239 -266 -7 -237 -273 0
-239 -266 -7 237 273 0
-239 -266 7 -237 273 0
-239 -266 7 237 -273 0
-239 -266 -8 -238 -274 0
-239 -266 -8 238 274 0
-239 -266 8 -238 274 0
-239 -266 8 238 -274 0
-240 -255 -9 -17 -267 0
-240 -255 -9 17 267 0
-240 -255 9 -17 267 0
-240 -255 9 17 -267 0
-240 -255 -10 -18 -268 0
-240 -255 -10 18 268 0
-240 -255 10 -18 268 0
-240 -255 10 18 -268 0
-240 -255 -11 -19 -269 0
-240 -255 -11 19 269 0
-240 -255 11 -19 269 0
-240 -255 11 19 -269 0
-240 -255 -12 -20 -270 0
-240 -255 -12 20 270 0
-240 -255 12 -20 270 0
-240 -255 12 20 -270 0
-240 -255 -13 -21 -271 0
-240 -255 -13 21 271 0
-240 -255 13 -21 271 0
-240 -255 13 21 -271 0
-240 -255 -14 -22 -272 0
-240 -255 -14 22 272 0
-240 -255 14 -22 272 0
-240 -255 14 22 -272 0
-240 -255 -15 -23 -273 0
-240 -255 -15 23 273 0
-240 -255 15 -23 273 0
-240 -255 15 23 -273 0
-240 -255 -16 -24 -274 0
-240 -255 -16 24 274 0
-240 -255 16 -24 274 0
-240 -255 16 24 -274 0
-240 -256 -9 -25 -267 0
-240 -256 -9 25 267 0
-240 -256 9 -25 267 0
-240 -256 9 25 -267 0
-240 -256 -10 -26 -268 0
-240 -256 -10 26 268 0
-240 -256 10 -26 268 0
-240 -256 10 26 -268 0
-240 -256 -11 -27 -269 0
-240 -256 -11 27 269 0
-240 -256 11 -27 269 0
-240 -256 11 27 -269 0
-240 -256 -12 -28 -270 0
-240 -256 -12 28 270 0
-240 -256 12 -28 270 0
-240 -256 12 28 -270 0
-240 -256 -13 -29 -271 0
-240 -256 -13 29 271 0
-240 -256 13 -29 271 0
-240 -256 13 29 -271 0
-240 -256 -14 -30 -272 0
-240 -256 -14 30 272 0
-240 -256 14 -30 272 0
-240 -256 14 30 -272 0
-240 -256 -15 -31 -273 0
-240 -256 -15 31 273 0
-240 -256 15 -31 273 0
-240 -256 15 31 -273 0
-240 -256 -16 -32 -274 0
-240 -256 -16 32 274 0
-240 -256 16 -32 274 0
-240 -256 16 32 -274 0
-240 -257 -9 -33 -267 0
-240 -257 -9 33 267 0
-240 -257 9 -33 267 0
-240 -257 9 33 -267 0
-240 -257 -10 -34 -268 0
-240 -257 -10 34 268 0
-240 -257 10 -34 268 0
-240 -257 10 34 -268 0
-240 -257 -11 -35 -269 0
-240 -257 -11 35 269 0
-240 -257 11 -35 269 0
-240 -257 11 35 -269 0
-240 -257 -12 -36 -270 0
-240 -257 -12 36 270 0
-240 -257 12 -36 270 0
-240 -257 12 36 -270 0
-240 -257 -13 -37 -271 0
-240 -257 -13 37 271 0
-240 -257 13 -37 271 0
-240 -257 13 37 -271 0
-240 -257 -14 -38 -272 0
-240 -257 -14 38 272 0
-240 -257 14 -38 272 0
-240 -257 14 38 -272 0
-240 -257 -15 -39 -273 0
-240 -257 -15 39 273 0
-240 -257 15 -39 273 0
-240 -257 15 39 -273 0
-240 -257 -16 -40 -274 0
-240 -257 -16 40 274 0
-240 -257 16 -40 274 0
-240 -257 16 40 -274 0
-240 -258 -9 -41 -267 0
-240 -258 -9 41 267 0
-240 -258 9 -41 267 0
-240 -258 9 41 -267 0
-240 -258 -10 -42 -268 0
-240 -258 -10 42 268 0
-240 -258 10 -42 268 0
-240 -258 10 42 -268 0
-240 -258 -11 -43 -269 0
-240 -258 -11 43 269 0
-240 -258 11 -43 269 0
-240 -258 11 43 -269 0
-240 -258 -12 -44 -270 0
-240 -258 -12 44 270 0
-240 -258 12 -44 270 0
-240 -258 12 44 -270 0
-240 -258 -13 -45 -271 0
-240 -258 -13 45 271 0
-240 -258 13 -45 271 0
-240 -258 13 45 -271 0
-240 -258 -14 -46 -272 0
-240 -258 -14 46 272 0
-240 -258 14 -46 272 0
-240 -258 14 46 -272 0
-240 -258 -15 -47 -273 0
-240 -258 -15 47 273 0
-240 -258 15 -47 273 0
-240 -258 15 47 -273 0
-240 -258 -16 -48 -274 0
-240 -258 -16 48 274 0
-240 -258 16 -48 274 0
-240 -258 16 48 -274 0
-240 -259 -9 -49 -267 0
-240 -259 -9 49 267 0
-240 -259 9 -49 267 0
-240 -259 9 49 -267 0
-240 -259 -10 -50 -268 0
-240 -259 -10 50 268 0
-240 -259 10 -50 268 0
-240 -259 10 50 -268 0
-240 -259 -11 -51 -269 0
-240 -259 -11 51 269 0
-240 -259 11 -51 269 0
-240 -259 11 51 -269 0
-240 -259 -12 -52 -270 0
-240 -259 -12 52 270 0
-240 -259 12 -52 270 0
-240 -259 12 52 -270 0
-240 -259 -13 -53 -271 0
-240 -259 -13 53 271 0
-240 -259 13 -53 271 0
-240 -259 13 53 -271 0
-240 -259 -14 -54 -272 0
-240 -259 -14 54 272 0
-240 -259 14 -54 272 0
-240 -259 14 54 -272 0
-240 -259 -15 -55 -273 0
-240 -259 -15 55 273 0
-240 -259 15 -55 273 0
-240 -259 15 55 -273 0
-240 -259 -16 -56 -274 0
-240 -259 -16 56 274 0
-240 -259 16 -56 274 0
-240 -259 16 56 -274 0
-240 -260 -9 -57 -267 0
-240 -260 -9 57 267 0
-240 -260 9 -57 267 0
-240 -260 9 57 -267 0
-240 -260 -10 -58 -268 0
-240 -260 -10 58 268 0
-240 -260 10 -58 268 0
-240 -260 10 58 -268 0
-240 -260 -11 -59 -269 0
-240 -260 -11 59 269 0
-240 -260 11 -59 269 0
-240 -260 11 59 -269 0
-240 -260 -12 -60 -270 0
-240 -260 -12 60 270 0
-240 -260 12 -60 270 0
-240 -260 12 60 -270 0
-240 -260 -13 -61 -271 0
-240 -260 -13 61 271 0
-240 -260 13 -61 271 0
-240 -260 13 61 -271 0
-240 -260 -14 -62 -272 0
-240 -260 -14 62 272 0
-240 -260 14 -62 272 0
-240 -260 14 62 -272 0
-240 -260 -15 -63 -273 0
-240 -260 -15 63 273 0
-240 -260 15 -63 273 0
-240 -260 15 63 -273 0
-240 -260 -16 -64 -274 0
-240 -260 -16 64 274 0
-240 -260 16 -64 274 0
-240 -260 16 64 -274 0
-240 -261 -9 -81 -267 0
-240 -261 -9 81 267 0
-240 -261 9 -81 267 0
-240 -261 9 81 -267 0
-240 -261 -10 -82 -268 0
-240 -261 -10 82 268 0
-240 -261 10 -82 268 0
-240 -261 10 82 -268 0
-240 -261 -11 -83 -269 0
-240 -261 -11 83 269 0
-240 -261 11 -83 269 0
-240 -261 11 83 -269 0
-240 -261 -12 -84 -270 0
-240 -261 -12 84 270 0
-240 -261 12 -84 270 0
-240 -261 12 84 -270 0
-240 -261 -13 -85 -271 0
-240 -261 -13 85 271 0
-240 -261 13 -85 271 0
-240 -261 13 85 -271 0
-240 -261 -14 -86 -272 0
-240 -261 -14 86 272 0
-240 -261 14 -86 272 0
-240 -261 14 86 -272 0
-240 -261 -15 -87 -273 0
-240 -261 -15 87 273 0
-240 -261 15 -87 273 0
-240 -261 15 87 -273 0
-240 -261 -16 -88 -274 0
-240 -261 -16 88 274 0
-240 -261 16 -88 274 0
-240 -261 16 88 -274 0
-240 -262 -9 -107 -267 0
-240 -262 -9 107 267 0
-240 -262 9 -107 267 0
-240 -262 9 107 -267 0
-240 -262 -10 -108 -268 0
-240 -262 -10 108 268 0
-240 -262 10 -108 268 0
-240 -262 10 108 -268 0
-240 -262 -11 -109 -269 0
-240 -262 -11 109 269 0
-240 -262 11 -109 269 0
-240 -262 11 109 -269 0
-240 -262 -12 -110 -270 0
-240 -262 -12 110 270 0
-240 -262 12 -110 270 0
-240 -262 12 110 -270 0
-240 -262 -13 -111 -271 0
-240 -262 -13 111 271 0
-240 -262 13 -111 271 0
-240 -262 13 111 -271 0
-240 -262 -14 -112 -272 0
-240 -262 -14 112 272 0
-240 -262 14 -112 272 0
-240 -262 14 112 -272 0
-240 -262 -15 -113 -273 0
-240 -262 -15 113 273 0
-240 -262 15 -113 273 0
-240 -262 15 113 -273 0
-240 -262 -16 -114 -274 0
-240 -262 -16 114 274 0
-240 -262 16 -114 274 0
-240 -262 16 114 -274 0
-240 -263 -9 -135 -267 0
-240 -263 -9 135 267 0
-240 -263 9 -135 267 0
-240 -263 9 135 -267 0
-240 -263 -10 -136 -268 0
-240 -263 -10 136 268 0
-240 -263 10 -136 268 0
-240 -263 10 136 -268 0
-240 -263 -11 -137 -269 0
-240 -263 -11 137 269 0
-240 -263 11 -137 269 0
-240 -263 11 137 -269 0
-240 -263 -12 -138 -270 0
-240 -263 -12 138 270 0
-240 -263 12 -138 270 0
-240 -263 12 138 -270 0
-240 -263 -13 -139 -271 0
-240 -263 -13 139 271 0
-240 -263 13 -139 271 0
-240 -263 13 139 -271 0
-240 -263 -14 -140 -272 0
-240 -263 -14 140 272 0
-240 -263 14 -140 272 0
-240 -263 14 140 -272 0
-240 -263 -15 -141 -273 0
-240 -263 -15 141 273 0
-240 -263 15 -141 273 0
-240 -263 15 141 -273 0
-240 -263 -16 -142 -274 0
-240 -263 -16 142 274 0
-240 -263 16 -142 274 0
-240 -263 16 142 -274 0
-240 -264 -9 -165 -267 0
-240 -264 -9 165 267 0
-240 -264 9 -165 267 0
-240 -264 9 165 -267 0
-240 -264 -10 -166 -268 0
-240 -264 -10 166 268 0
-240 -264 10 -166 268 0
-240 -264 10 166 -268 0
-240 -264 -11 -167 -269 0
-240 -264 -11 167 269 0
-240 -264 11 -167 269 0
-240 -264 11 167 -269 0
-240 -264 -12 -168 -270 0
-240 -264 -12 168 270 0
-240 -264 12 -168 270 0
-240 -264 12 168 -270 0
-240 -264 -13 -169 -271 0
-240 -264 -13 169 271 0
-240 -264 13 -169 271 0
-240 -264 13 169 -271 0
-240 -264 -14 -170 -272 0
-240 -264 -14 170 272 0
-240 -264 14 -170 272 0
-240 -264 14 170 -272 0
-240 -264 -15 -171 -273 0
-240 -264 -15 171 273 0
-240 -264 15 -171 273 0
-240 -264 15 171 -273 0
-240 -264 -16 -172 -274 0
-240 -264 -16 172 274 0
-240 -264 16 -172 274 0
-240 -264 16 172 -274 0
-240 -265 -9 -197 -267 0
-240 -265 -9 197 267 0
-240 -265 9 -197 267 0
-240 -265 9 197 -267 0
-240 -265 -10 -198 -268 0
-240 -265 -10 198 268 0
-240 -265 10 -198 268 0
-240 -265 10 198 -268 0
-240 -265 -11 -199 -269 0
-240 -265 -11 199 269 0
-240 -265 11 -199 269 0
-240 -265 11 199 -269 0
-240 -265 -12 -200 -270 0
-240 -265 -12 200 270 0
-240 -265 12 -200 270 0
-240 -265 12 200 -270 0
-240 -265 -13 -201 -271 0
-240 -265 -13 201 271 0
-240 -265 13 -201 271 0
-240 -265 13 201 -271 0
-240 -265 -14 -202 -272 0
-240 -265 -14 202 272 0
-240 -265 14 -202 272 0
-240 -265 14 202 -272 0
-240 -265 -15 -203 -273 0
-240 -265 -15 203 273 0
-240 -265 15 -203 273 0
-240 -265 15 203 -273 0
-240 -265 -16 -204 -274 0
-240 -265 -16 204 274 0
-240 -265 16 -204 274 0
-240 -265 16 204 -274 0
-240 -266 -9 -231 -267 0
-240 -266 -9 231 267 0
-240 -266 9 -231 267 0
-240 -266 9 231 -267 0
-240 -266 -10 -232 -268 0
-240 -266 -10 232 268 0
-240 -266 10 -232 268 0
-240 -266 10 232 -268 0
-240 -266 -11 -233 -269 0
-240 -266 -11 233 269 0
-240 -266 11 -233 269 0
-240 -266 11 233 -269 0
-240 -266 -12 -234 -270 0
-240 -266 -12 234 270 0
-240 -266 12 -234 270 0
-240 -266 12 234 -270 0
-240 -266 -13 -235 -271 0
-240 -266 -13 235 271 0
-240 -266 13 -235 271 0
-240 -266 13 235 -271 0
-240 -266 -14 -236 -272 0
-240 -266 -14 236 272 0
-240 -266 14 -236 272 0
-240 -266 14 236 -272 0
-240 -266 -15 -237 -273 0
-240 -266 -15 237 273 0
-240 -266 15 -237 273 0
-240 -266 15 237 -273 0
-240 -266 -16 -238 -274 0
-240 -266 -16 238 274 0
-240 -266 16 -238 274 0
-240 -266 16 238 -274 0
-241 -256 -17 -25 -267 0
-241 -256 -17 25 267 0
-241 -256 17 -25 267 0
-241 -256 17 25 -267 0
-241 -256 -18 -26 -268 0
-241 -256 -18 26 268 0
-241 -256 18 -26 268 0
-241 -256 18 26 -268 0
-241 -256 -19 -27 -269 0
-241 -256 -19 27 269 0
-241 -256 19 -27 269 0
-241 -256 19 27 -269 0
-241 -256 -20 -28 -270 0
-241 -256 -20 28 270 0
-241 -256 20 -28 270 0
-241 -256 20 28 -270 0
-241 -256 -21 -29 -271 0
-241 -256 -21 29 271 0
-241 -256 21 -29 271 0
-241 -256 21 29 -271 0
-241 -256 -22 -30 -272 0
-241 -256 -22 30 272 0
-241 -256 22 -30 272 0
-241 -256 22 30 -272 0
-241 -256 -23 -31 -273 0
-241 -256 -23 31 273 0
-241 -256 23 -31 273 0
-241 -256 23 31 -273 0
-241 -256 -24 -32 -274 0
-241 -256 -24 32 274 0
-241 -256 24 -32 274 0
-241 -256 24 32 -274 0
-241 -257 -17 -33 -267 0
-241 -257 -17 33 267 0
-241 -257 17 -33 267 0
-241 -257 17 33 -267 0
-241 -257 -18 -34 -268 0
-241 -257 -18 34 268 0
-241 -257 18 -34 268 0
-241 -257 18 34 -268 0
-241 -257 -19 -35 -269 0
-241 -257 -19 35 269 0
-241 -257 19 -35 269 0
-241 -257 19 35 -269 0
-241 -257 -20 -36 -270 0
-241 -257 -20 36 270 0
-241 -257 20 -36 270 0
-241 -257 20 36 -270 0
-241 -257 -21 -37 -271 0
-241 -257 -21 37 271 0
-241 -257 21 -37 271 0
-241 -257 21 37 -271 0
-241 -257 -22 -38 -272 0
-241 -257 -22 38 272 0
-241 -257 22 -38 272 0
-241 -257 22 38 -272 0
-241 -257 -23 -39 -273 0
-241 -257 -23 39 273 0
-241 -257 23 -39 273 0
-241 -257 23 39 -273 0
-241 -257 -24 -40 -274 0
-241 -257 -24 40 274 0
-241 -257 24 -40 274 0
-241 -257 24 40 -274 0
-241 -258 -17 -41 -267 0
-241 -258 -17 41 267 0
-241 -258 17 -41 267 0
-241 -258 17 41 -267 0
-241 -258 -18 -42 -268 0
-241 -258 -18 42 268 0
-241 -258 18 -42 268 0
-241 -258 18 42 -268 0
-241 -258 -19 -43 -269 0
-241 -258 -19 43 269 0
-241 -258 19 -43 269 0
-241 -258 19 43 -269 0
-241 -258 -20 -44 -270 0
-241 -258 -20 44 270 0
-241 -258 20 -44 270 0
-241 -258 20 44 -270 0
-241 -258 -21 -45 -271 0
-241 -258 -21 45 271 0
-241 -258 21 -45 271 0
-241 -258 21 45 -271 0
-241 -258 -22 -46 -272 0
-241 -258 -22 46 272 0
-241 -258 22 -46 272 0
-241 -258 22 46 -272 0
-241 -258 -23 -47 -273 0
-241 -258 -23 47 273 0
-241 -258 23 -47 273 0
-241 -258 23 47 -273 0
-241 -258 -24 -48 -274 0
-241 -258 -24 48 274 0
-241 -258 24 -48 274 0
-241 -258 24 48 -274 0
-241 -259 -17 -49 -267 0
-241 -259 -17 49 267 0
-241 -259 17 -49 267 0
-241 -259 17 49 -267 0
-241 -259 -18 -50 -268 0
-241 -259 -18 50 268 0
-241 -259 18 -50 268 0
-241 -259 18 50 -268 0
-241 -259 -19 -51 -269 0
-241 -259 -19 51 269 0
-241 -259 19 -51 269 0
-241 -259 19 51 -269 0
-241 -259 -20 -52 -270 0
-241 -259 -20 52 270 0
-241 -259 20 -52 270 0
-241 -259 20 52 -270 0
-241 -259 -21 -53 -271 0
-241 -259 -21 53 271 0
-241 -259 21 -53 271 0
-241 -259 21 53 -271 0
-241 -259 -22 -54 -272 0
-241 -259 -22 54 272 0
-241 -259 22 -54 272 0
-241 -259 22 54 -272 0
-241 -259 -23 -55 -273 0
-241 -259 -23 55 273 0
-241 -259 23 -55 273 0
-241 -259 23 55 -273 0
-241 -259 -24 -56 -274 0
-241 -259 -24 56 274 0
-241 -259 24 -56 274 0
-241 -259 24 56 -274 0
-241 -260 -17 -57 -267 0
-241 -260 -17 57 267 0
-241 -260 17 -57 267 0
-241 -260 17 57 -267 0
-241 -260 -18 -58 -268 0
-241 -260 -18 58 268 0
-241 -260 18 -58 268 0
-241 -260 18 58 -268 0
-241 -260 -19 -59 -269 0
-241 -260 -19 59 269 0
-241 -260 19 -59 269 0
-241 -260 19 59 -269 0
-241 -260 -20 -60 -270 0
-241 -260 -20 60 270 0
-241 -260 20 -60 270 0
-241 -260 20 60 -270 0
-241 -260 -21 -61 -271 0
-241 -260 -21 61 271 0
-241 -260 21 -61 271 0
-241 -260 21 61 -271 0
-241 -260 -22 -62 -272 0
-241 -260 -22 62 272 0
-241 -260 22 -62 272 0
-241 -260 22 62 -272 0
-241 -260 -23 -63 -273 0
-241 -260 -23 63 273 0
-241 -260 23 -63 273 0
-241 -260 23 63 -273 0
-241 -260 -24 -64 -274 0
-241 -260 -24 64 274 0
-241 -260 24 -64 274 0
-241 -260 24 64 -274 0
-241 -261 -17 -81 -267 0
-241 -261 -17 81 267 0
-241 -261 17 -81 267 0
-241 -261 17 81 -267 0
-241 -261 -18 -82 -268 0
-241 -261 -18 82 268 0
-241 -261 18 -82 268 0
-241 -261 18 82 -268 0
-241 -261 -19 -83 -269 0
-241 -261 -19 83 269 0
-241 -261 19 -83 269 0
-241 -261 19 83 -269 0
-241 -261 -20 -84 -270 0
-241 -261 -20 84 270 0
-241 -261 20 -84 270 0
-241 -261 20 84 -270 0
-241 -261 -21 -85 -271 0
-241 -261 -21 85 271 0
-241 -261 21 -85 271 0
-241 -261 21 85 -271 0
-241 -261 -22 -86 -272 0
-241 -261 -22 86 272 0
-241 -261 22 -86 272 0
-241 -261 22 86 -272 0
-241 -261 -23 -87 -273 0
-241 -261 -23 87 273 0
-241 -261 23 -87 273 0
-241 -261 23 87 -273 0
-241 -261 -24 -88 -274 0
-241 -261 -24 88 274 0
-241 -261 24 -88 274 0
-241 -261 24 88 -274 0
-241 -262 -17 -107 -267 0
-241 -262 -17 107 267 0
-241 -262 17 -107 267 0
-241 -262 17 107 -267 0
-241 -262 -18 -108 -268 0
-241 -262 -18 108 268 0
-241 -262 18 -108 268 0
-241 -262 18 108 -268 0
-241 -262 -19 -109 -269 0
-241 -262 -19 109 269 0
-241 -262 19 -109 269 0
-241 -262 19 109 -269 0
-241 -262 -20 -110 -270 0
-241 -262 -20 110 270 0
-241 -262 20 -110 270 0
-241 -262 20 110 -270 0
-241 -262 -21 -111 -271 0
-241 -262 -21 111 271 0
-241 -262 21 -111 271 0
-241 -262 21 111 -271 0
-241 -262 -22 -112 -272 0
-241 -262 -22 112 272 0
-241 -262 22 -112 272 0
-241 -262 22 112 -272 0
-241 -262 -23 -113 -273 0
-241 -262 -23 113 273 0
-241 -262 23 -113 273 0
-241 -262 23 113 -273 0
-241 -262 -24 -114 -274 0
-241 -262 -24 114 274 0
-241 -262 24 -114 274 0
-241 -262 24 114 -274 0
-241 -263 -17 -135 -267 0
-241 -263 -17 135 267 0
-241 -263 17 -135 267 0
-241 -263 17 135 -267 0
-241 -263 -18 -136 -268 0
-241 -263 -18 136 268 0
-241 -263 18 -136 268 0
-241 -263 18 136 -268 0
-241 -263 -19 -137 -269 0
-241 -263 -19 137 269 0
-241 -263 19 -137 269 0
-241 -263 19 137 -269 0
-241 -263 -20 -138 -270 0
-241 -263 -20 138 270 0
-241 -263 20 -138 270 0
-241 -263 20 138 -270 0
-241 -263 -21 -139 -271 0
-241 -263 -21 139 271 0
-241 -263 21 -139 271 0
-241 -263 21 139 -271 0
-241 -263 -22 -140 -272 0
-241 -263 -22 140 272 0
-241 -263 22 -140 272 0
-241 -263 22 140 -272 0
-241 -263 -23 -141 -273 0
-241 -263 -23 141 273 0
-241 -263 23 -141 273 0
-241 -263 23 141 -273 0
-241 -263 -24 -142 -274 0
-241 -263 -24 142 274 0
-241 -263 24 -142 274 0
-241 -263 24 142 -274 0
-241 -264 -17 -165 -267 0
-241 -264 -17 165 267 0
-241 -264 17 -165 267 0
-241 -264 17 165 -267 0
-241 -264 -18 -166 -268 0
-241 -264 -18 166 268 0
-241 -264 18 -166 268 0
-241 -264 18 166 -268 0
-241 -264 -19 -167 -269 0
-241 -264 -19 167 269 0
-241 -264 19 -167 269 0
-241 -264 19 167 -269 0
-241 -264 -20 -168 -270 0
-241 -264 -20 168 270 0
-241 -264 20 -168 270 0
-241 -264 20 168 -270 0
-241 -264 -21 -169 -271 0
-241 -264 -21 169 271 0
-241 -264 21 -169 271 0
-241 -264 21 169 -271 0
-241 -264 -22 -170 -272 0
-241 -264 -22 170 272 0
-241 -264 22 -170 272 0
-241 -264 22 170 -272 0
-241 -264 -23 -171 -273 0
-241 -264 -23 171 273 0
-241 -264 23 -171 273 0
-241 -264 23 171 -273 0
-241 -264 -24 -172 -274 0
-241 -264 -24 172 274 0
-241 -264 24 -172 274 0
-241 -264 24 172 -274 0
-241 -265 -17 -197 -267 0
-241 -265 -17 197 267 0
-241 -265 17 -197 267 0
-241 -265 17 197 -267 0
-241 -265 -18 -198 -268 0
-241 -265 -18 198 268 0
-241 -265 18 -198 268 0
-241 -265 18 198 -268 0
-241 -265 -19 -199 -269 0
-241 -265 -19 199 269 0
-241 -265 19 -199 269 0
-241 -265 19 199 -269 0
-241 -265 -20 -200 -270 0
-241 -265 -20 200 270 0
-241 -265 20 -200 270 0
-241 -265 20 200 -270 0
-241 -265 -21 -201 -271 0
-241 -265 -21 201 271 0
-241 -265 21 -201 271 0
-241 -265 21 201 -271 0
-241 -265 -22 -202 -272 0
-241 -265 -22 202 272 0
-241 -265 22 -202 272 0
-241 -265 22 202 -272 0
-241 -265 -23 -203 -273 0
-241 -265 -23 203 273 0
-241 -265 23 -203 273 0
-241 -265 23 203 -273 0
-241 -265 -24 -204 -274 0
-241 -265 -24 204 274 0
-241 -265 24 -204 274 0
-241 -265 24 204 -274 0
-241 -266 -17 -231 -267 0
-241 -266 -17 231 267 0
-241 -266 17 -231 267 0
-241 -266 17 231 -267 0
-241 -266 -18 -232 -268 0
-241 -266 -18 232 268 0
-241 -266 18 -232 268 0
-241 -266 18 232 -268 0
-241 -266 -19 -233 -269 0
-241 -266 -19 233 269 0
-241 -266 19 -233 269 0
-241 -266 19 233 -269 0
-241 -266 -20 -234 -270 0
-241 -266 -20 234 270 0
-241 -266 20 -234 270 0
-241 -266 20 234 -270 0
-241 -266 -21 -235 -271 0
-241 -266 -21 235 271 0
-241 -266 21 -235 271 0
-241 -266 21 235 -271 0
-241 -266 -22 -236 -272 0
-241 -266 -22 236 272 0
-241 -266 22 -236 272 0
-241 -266 22 236 -272 0
-241 -266 -23 -237 -273 0
-241 -266 -23 237 273 0
-241 -266 23 -237 273 0
-241 -266 23 237 -273 0
-241 -266 -24 -238 -274 0
-241 -266 -24 238 274 0
-241 -266 24 -238 274 0
-241 -266 24 238 -274 0
-242 -257 -25 -33 -267 0
-242 -257 -25 33 267 0
-242 -257 25 -33 267 0
-242 -257 25 33 -267 0
-242 -257 -26 -34 -268 0
-242 -257 -26 34 268 0
-242 -257 26 -34 268 0
-242 -257 26 34 -268 0
-242 -257 -27 -35 -269 0
-242 -257 -27 35 269 0
-242 -257 27 -35 269 0
-242 -257 27 35 -269 0
-242 -257 -28 -36 -270 0
-242 -257 -28 36 270 0
-242 -257 28 -36 270 0
-242 -257 28 36 -270 0
-242 -257 -29 -37 -271 0
-242 -257 -29 37 271 0
-242 -257 29 -37 271 0
-242 -257 29 37 -271 0
-242 -257 -30 -38 -272 0
-242 -257 -30 38 272 0
-242 -257 30 -38 272 0
-242 -257 30 38 -272 0
-242 -257 -31 -39 -273 0
-242 -257 -31 39 273 0
-242 -257 31 -39 273 0
-242 -257 31 39 -273 0
-242 -257 -32 -40 -274 0
-242 -257 -32 40 274 0
-242 -257 32 -40 274 0
-242 -257 32 40 -274 0
-242 -258 -25 -41 -267 0
-242 -258 -25 41 267 0
-242 -258 25 -41 267 0
-242 -258 25 41 -267 0
-242 -258 -26 -42 -268 0
-242 -258 -26 42 268 0
-242 -258 26 -42 268 0
-242 -258 26 42 -268 0
-242 -258 -27 -43 -269 0
-242 -258 -27 43 269 0
-242 -258 27 -43 269 0
-242 -258 27 43 -269 0
-242 -258 -28 -44 -270 0
-242 -258 -28 44 270 0
-242 -258 28 -44 270 0
-242 -258 28 44 -270 0
-242 -258 -29 -45 -271 0
-242 -258 -29 45 271 0
-242 -258 29 -45 271 0
-242 -258 29 45 -271 0
-242 -258 -30 -46 -272 0
-242 -258 -30 46 272 0
-242 -258 30 -46 272 0
-242 -258 30 46 -272 0
-242 -258 -31 -47 -273 0
-242 -258 -31 47 273 0
-242 -258 31 -47 273 0
-242 -258 31 47 -273 0
-242 -258 -32 -48 -274 0
-242 -258 -32 48 274 0
-242 -258 32 -48 274 0
-242 -258 32 48 -274 0
-242 -259 -25 -49 -267 0
-242 -259 -25 49 267 0
-242 -259 25 -49 267 0
-242 -259 25 49 -267 0
-242 -259 -26 -50 -268 0
-242 -259 -26 50 268 0
-242 -259 26 -50 268 0
-242 -259 26 50 -268 0
-242 -259 -27 -51 -269 0
-242 -259 -27 51 269 0
-242 -259 27 -51 269 0
-242 -259 27 51 -269 0
-242 -259 -28 -52 -270 0
-242 -259 -28 52 270 0
-242 -259 28 -52 270 0
-242 -259 28 52 -270 0
-242 -259 -29 -53 -271 0
-242 -259 -29 53 271 0
-242 -259 29 -53 271 0
-242 -259 29 53 -271 0
-242 -259 -30 -54 -272 0
-242 -259 -30 54 272 0
-242 -259 30 -54 272 0
-242 -259 30 54 -272 0
-242 -259 -31 -55 -273 0
-242 -259 -31 55 273 0
-242 -259 31 -55 273 0
-242 -259 31 55 -273 0
-242 -259 -32 -56 -274 0
-242 -259 -32 56 274 0
-242 -259 32 -56 274 0
-242 -259 32 56 -274 0
-242 -260 -25 -57 -267 0
-242 -260 -25 57 267 0
-242 -260 25 -57 267 0
-242 -260 25 57 -267 0
-242 -260 -26 -58 -268 0
-242 -260 -26 58 268 0
-242 -260 26 -58 268 0
-242 -260 26 58 -268 0
-242 -260 -27 -59 -269 0
-242 -260 -27 59 269 0
-242 -260 27 -59 269 0
-242 -260 27 59 -269 0
-242 -260 -28 -60 -270 0
-242 -260 -28 60 270 0
-242 -260 28 -60 270 0
-242 -260 28 60 -270 0
-242 -260 -29 -61 -271 0
-242 -260 -29 61 271 0
-242 -260 29 -61 271 0
-242 -260 29 61 -271 0
-242 -260 -30 -62 -272 0
-242 -260 -30 62 272 0
-242 -260 30 -62 272 0
-242 -260 30 62 -272 0
-242 -260 -31 -63 -273 0
-242 -260 -31 63 273 0
-242 -260 31 -63 273 0
-242 -260 31 63 -273 0
-242 -260 -32 -64 -274 0
-242 -260 -32 64 274 0
-242 -260 32 -64 274 0
-242 -260 32 64 -274 0
-242 -261 -25 -81 -267 0
-242 -261 -25 81 267 0
-242 -261 25 -81 267 0
-242 -261 25 81 -267 0
-242 -261 -26 -82 -268 0
-242 -261 -26 82 268 0
-242 -261 26 -82 268 0
-242 -261 26 82 -268 0
-242 -261 -27 -83 -269 0
-242 -261 -27 83 269 0
-242 -261 27 -83 269 0
-242 -261 27 83 -269 0
-242 -261 -28 -84 -270 0
-242 -261 -28 84 270 0
-242 -261 28 -84 270 0
-242 -261 28 84 -270 0
-242 -261 -29 -85 -271 0
-242 -261 -29 85 271 0
-242 -261 29 -85 271 0
-242 -261 29 85 -271 0
-242 -261 -30 -86 -272 0
-242 -261 -30 86 272 0
-242 -261 30 -86 272 0
-242 -261 30 86 -272 0
-242 -261 -31 -87 -273 0
-242 -261 -31 87 273 0
-242 -261 31 -87 273 0
-242 -261 31 87 -273 0
-242 -261 -32 -88 -274 0
-242 -261 -32 88 274 0
-242 -261 32 -88 274 0
-242 -261 32 88 -274 0
-242 -262 -25 -107 -267 0
-242 -262 -25 107 267 0
-242 -262 25 -107 267 0
-242 -262 25 107 -267 0
-242 -262 -26 -108 -268 0
-242 -262 -26 108 268 0
-242 -262 26 -108 268 0
-242 -262 26 108 -268 0
-242 -262 -27 -109 -269 0
-242 -262 -27 109 269 0
-242 -262 27 -109 269 0
-242 -262 27 109 -269 0
-242 -262 -28 -110 -270 0
-242 -262 -28 110 270 0
-242 -262 28 -110 270 0
-242 -262 28 110 -270 0
-242 -262 -29 -111 -271 0
-242 -262 -29 111 271 0
-242 -262 29 -111 271 0
-242 -262 29 111 -271 0
-242 -262 -30 -112 -272 0
-242 -262 -30 112 272 0
-242 -262 30 -112 272 0
-242 -262 30 112 -272 0
-242 -262 -31 -113 -273 0
-242 -262 -31 113 273 0
-242 -262 31 -113 273 0
-242 -262 31 113 -273 0
-242 -262 -32 -114 -274 0
-242 -262 -32 114 274 0
-242 -262 32 -114 274 0
-242 -262 32 114 -274 0
-242 -263 -25 -135 -267 0
-242 -263 -25 135 267 0
-242 -263 25 -135 267 0
-242 -263 25 135 -267 0
-242 -263 -26 -136 -268 0
-242 -263 -26 136 268 0
-242 -263 26 -136 268 0
-242 -263 26 136 -268 0
-242 -263 -27 -137 -269 0
-242 -263 -27 137 269 0
-242 -263 27 -137 269 0
-242 -263 27 137 -269 0
-242 -263 -28 -138 -270 0
-242 -263 -28 138 270 0
-242 -263 28 -138 270 0
-242 -263 28 138 -270 0
-242 -263 -29 -139 -271 0
-242 -263 -29 139 271 0
-242 -263 29 -139 271 0
-242 -263 29 139 -271 0
-242 -263 -30 -140 -272 0
-242 -263 -30 140 272 0
-242 -263 30 -140 272 0
-242 -263 30 140 -272 0
-242 -263 -31 -141 -273 0
-242 -263 -31 141 273 0
-242 -263 31 -141 273 0
-242 -263 31 141 -273 0
-242 -263 -32 -142 -274 0
-242 -263 -32 142 274 0
-242 -263 32 -142 274 0
-242 -263 32 142 -274 0
-242 -264 -25 -165 -267 0
-242 -264 -25 165 267 0
-242 -264 25 -165 267 0
-242 -264 25 165 -267 0
-242 -264 -26 -166 -268 0
-242 -264 -26 166 268 0
-242 -264 26 -166 268 0
-242 -264 26 166 -268 0
-242 -264 -27 -167 -269 0
-242 -264 -27 167 269 0
-242 -264 27 -167 269 0
-242 -264 27 167 -269 0
-242 -264 -28 -168 -270 0
-242 -264 -28 168 270 0
-242 -264 28 -168 270 0
-242 -264 28 168 -270 0
-242 -264 -29 -169 -271 0
-242 -264 -29 169 271 0
-242 -264 29 -169 271 0
-242 -264 29 169 -271 0
-242 -264 -30 -170 -272 0
-242 -264 -30 170 272 0
-242 -264 30 -170 272 0
-242 -264 30 170 -272 0
-242 -264 -31 -171 -273 0
-242 -264 -31 171 273 0
-242 -264 31 -171 273 0
-242 -264 31 171 -273 0
-242 -264 -32 -172 -274 0
-242 -264 -32 172 274 0
-242 -264 32 -172 274 0
-242 -264 32 172 -274 0
-242 -265 -25 -197 -267 0
-242 -265 -25 197 267 0
-242 -265 25 -197 267 0
-242 -265 25 197 -267 0
-242 -265 -26 -198 -268 0
-242 -265 -26 198 268 0
-242 -265 26 -198 268 0
-242 -265 26 198 -268 0
-242 -265 -27 -199 -269 0
-242 -265 -27 199 269 0
-242 -265 27 -199 269 0
-242 -265 27 199 -269 0
-242 -265 -28 -200 -270 0
-242 -265 -28 200 270 0
-242 -265 28 -200 270 0
-242 -265 28 200 -270 0
-242 -265 -29 -201 -271 0
-242 -265 -29 201 271 0
-242 -265 29 -201 271 0
-242 -265 29 201 -271 0
-242 -265 -30 -202 -272 0
-242 -265 -30 202 272 0
-242 -265 30 -202 272 0
-242 -265 30 202 -272 0
-242 -265 -31 -203 -273 0
-242 -265 -31 203 273 0
-242 -265 31 -203 273 0
-242 -265 31 203 -273 0
-242 -265 -32 -204 -274 0
-242 -265 -32 204 274 0
-242 -265 32 -204 274 0
-242 -265 32 204 -274 0
-242 -266 -25 -231 -267 0
-242 -266 -25 231 267 0
-242 -266 25 -231 267 0
-242 -266 25 231 -267 0
-242 -266 -26 -232 -268 0
-242 -266 -26 232 268 0
-242 -266 26 -232 268 0
-242 -266 26 232 -268 0
-242 -266 -27 -233 -269 0
-242 -266 -27 233 269 0
-242 -266 27 -233 269 0
-242 -266 27 233 -269 0
-242 -266 -28 -234 -270 0
-242 -266 -28 234 270 0
-242 -266 28 -234 270 0
-242 -266 28 234 -270 0
-242 -266 -29 -235 -271 0
-242 -266 -29 235 271 0
-242 -266 29 -235 271 0
-242 -266 29 235 -271 0
-242 -266 -30 -236 -272 0
-242 -266 -30 236 272 0
-242 -266 30 -236 272 0
-242 -266 30 236 -272 0
-242 -266 -31 -237 -273 0
-242 -266 -31 237 273 0
-242 -266 31 -237 273 0
-242 -266 31 237 -273 0
-242 -266 -32 -238 -274 0
-242 -266 -32 238 274 0
-242 -266 32 -238 274 0
-242 -266 32 238 -274 0
-243 -258 -33 -41 -267 0
-243 -258 -33 41 267 0
-243 -258 33 -41 267 0
-243 -258 33 41 -267 0
-243 -258 -34 -42 -268 0
-243 -258 -34 42 268 0
-243 -258 34 -42 268 0
-243 -258 34 42 -268 0
-243 -258 -35 -43 -269 0
-243 -258 -35 43 269 0
-243 -258 35 -43 269 0
-243 -258 35 43 -269 0
-243 -258 -36 -44 -270 0
-243 -258 -36 44 270 0
-243 -258 36 -44 270 0
-243 -258 36 44 -270 0
-243 -258 -37 -45 -271 0
-243 -258 -37 45 271 0
-243 -258 37 -45 271 0
-243 -258 37 45 -271 0
-243 -258 -38 -46 -272 0
-243 -258 -38 46 272 0
-243 -258 38 -46 272 0
-243 -258 38 46 -272 0
-243 -258 -39 -47 -273 0
-243 -258 -39 47 273 0
-243 -258 39 -47 273 0
-243 -258 39 47 -273 0
-243 -258 -40 -48 -274 0
-243 -258 -40 48 274 0
-243 -258 40 -48 274 0
-243 -258 40 48 -274 0
-243 -259 -33 -49 -267 0
-243 -259 -33 49 267 0
-243 -259 33 -49 267 0
-243 -259 33 49 -267 0
-243 -259 -34 -50 -268 0
-243 -259 -34 50 268 0
-243 -259 34 -50 268 0
-243 -259 34 50 -268 0
-243 -259 -35 -51 -269 0
-243 -259 -35 51 269 0
-243 -259 35 -51 269 0
-243 -259 35 51 -269 0
-243 -259 -36 -52 -270 0
-243 -259 -36 52 270 0
-243 -259 36 -52 270 0
-243 -259 36 52 -270 0
-243 -259 -37 -53 -271 0
-243 -259 -37 53 271 0
-243 -259 37 -53 271 0
-243 -259 37 53 -271 0
-243 -259 -38 -54 -272 0
-243 -259 -38 54 272 0
-243 -259 38 -54 272 0
-243 -259 38 54 -272 0
-243 -259 -39 -55 -273 0
-243 -259 -39 55 273 0
-243 -259 39 -55 273 0
-243 -259 39 55 -273 0
-243 -259 -40 -56 -274 0
-243 -259 -40 56 274 0
-243 -259 40 -56 274 0
-243 -259 40 56 -274 0
-243 -260 -33 -57 -267 0
-243 -260 -33 57 267 0
-243 -260 33 -57 267 0
-243 -260 33 57 -267 0
-243 -260 -34 -58 -268 0
-243 -260 -34 58 268 0
-243 -260 34 -58 268 0
-243 -260 34 58 -268 0
-243 -260 -35 -59 -269 0
-243 -260 -35 59 269 0
-243 -260 35 -59 269 0
-243 -260 35 59 -269 0
-243 -260 -36 -60 -270 0
-243 -260 -36 60 270 0
-243 -260 36 -60 270 0
-243 -260 36 60 -270 0
-243 -260 -37 -61 -271 0
-243 -260 -37 61 271 0
-243 -260 37 -61 271 0
-243 -260 37 61 -271 0
-243 -260 -38 -62 -272 0
-243 -260 -38 62 272 0
-243 -260 38 -62 272 0
-243 -260 38 62 -272 0
-243 -260 -39 -63 -273 0
-243 -260 -39 63 273 0
-243 -260 39 -63 273 0
-243 -260 39 63 -273 0
-243 -260 -40 -64 -274 0
-243 -260 -40 64 274 0
-243 -260 40 -64 274 0
-243 -260 40 64 -274 0
-243 -261 -33 -81 -267 0
-243 -261 -33 81 267 0
-243 -261 33 -81 267 0
-243 -261 33 81 -267 0
-243 -261 -34 -82 -268 0
-243 -261 -34 82 268 0
-243 -261 34 -82 268 0
-243 -261 34 82 -268 0
-243 -261 -35 -83 -269 0
-243 -261 -35 83 269 0
-243 -261 35 -83 269 0
-243 -261 35 83 -269 0
-243 -261 -36 -84 -270 0
-243 -261 -36 84 270 0
-243 -261 36 -84 270 0
-243 -261 36 84 -270 0
-243 -261 -37 -85 -271 0
-243 -261 -37 85 271 0
-243 -261 37 -85 271 0
-243 -261 37 85 -271 0
-243 -261 -38 -86 -272 0
-243 -261 -38 86 272 0
-243 -261 38 -86 272 0
-243 -261 38 86 -272 0
-243 -261 -39 -87 -273 0
-243 -261 -39 87 273 0
-243 -261 39 -87 273 0
-243 -261 39 87 -273 0
-243 -261 -40 -88 -274 0
-243 -261 -40 88 274 0
-243 -261 40 -88 274 0
-243 -261 40 88 -274 0
-243 -262 -33 -107 -267 0
-243 -262 -33 107 267 0
-243 -262 33 -107 267 0
-243 -262 33 107 -267 0
-243 -262 -34 -108 -268 0
-243 -262 -34 108 268 0
-243 -262 34 -108 268 0
-243 -262 34 108 -268 0
-243 -262 -35 -109 -269 0
-243 -262 -35 109 269 0
-243 -262 35 -109 269 0
-243 -262 35 109 -269 0
-243 -262 -36 -110 -270 0
-243 -262 -36 110 270 0
-243 -262 36 -110 270 0
-243 -262 36 110 -270 0
-243 -262 -37 -111 -271 0
-243 -262 -37 111 271 0
-243 -262 37 -111 271 0
-243 -262 37 111 -271 0
-243 -262 -38 -112 -272 0
-243 -262 -38 112 272 0
-243 -262 38 -112 272 0
-243 -262 38 112 -272 0
-243 -262 -39 -113 -273 0
-243 -262 -39 113 273 0
-243 -262 39 -113 273 0
-243 -262 39 113 -273 0
-243 -262 -40 -114 -274 0
-243 -262 -40 114 274 0
-243 -262 40 -114 274 0
-243 -262 40 114 -274 0
-243 -263 -33 -135 -267 0
-243 -263 -33 135 267 0
-243 -263 33 -135 267 0
-243 -263 33 135 -267 0
-243 -263 -34 -136 -268 0
-243 -263 -34 136 268 0
-243 -263 34 -136 268 0
-243 -263 34 136 -268 0
-243 -263 -35 -137 -269 0
-243 -263 -35 137 269 0
-243 -263 35 -137 269 0
-243 -263 35 137 -269 0
-243 -263 -36 -138 -270 0
-243 -263 -36 138 270 0
-243 -263 36 -138 270 0
-243 -263 36 138 -270 0
-243 -263 -37 -139 -271 0
-243 -263 -37 139 271 0
-243 -263 37 -139 271 0
-243 -263 37 139 -271 0
-243 -263 -38 -140 -272 0
-243 -263 -38 140 272 0
-243 -263 38 -140 272 0
-243 -263 38 140 -272 0
-243 -263 -39 -141 -273 0
-243 -263 -39 141 273 0
-243 -263 39 -141 273 0
-243 -263 39 141 -273 0
-243 -263 -40 -142 -274 0
-243 -263 -40 142 274 0
-243 -263 40 -142 274 0
-243 -263 40 142 -274 0
-243 -264 -33 -165 -267 0
-243 -264 -33 165 267 0
-243 -264 33 -165 267 0
-243 -264 33 165 -267 0
-243 -264 -34 -166 -268 0
-243 -264 -34 166 268 0
-243 -264 34 -166 268 0
-243 -264 34 166 -268 0
-243 -264 -35 -167 -269 0
-243 -264 -35 167 269 0
-243 -264 35 -167 269 0
-243 -264 35 167 -269 0
-243 -264 -36 -168 -270 0
-243 -264 -36 168 270 0
-243 -264 36 -168 270 0
-243 -264 36 168 -270 0
-243 -264 -37 -169 -271 0
-243 -264 -37 169 271 0
-243 -264 37 -169 271 0
-243 -264 37 169 -271 0
-243 -264 -38 -170 -272 0
-243 -264 -38 170 272 0
-243 -264 38 -170 272 0
-243 -264 38 170 -272 0
-243 -264 -39 -171 -273 0
-243 -264 -39 171 273 0
-243 -264 39 -171 273 0
-243 -264 39 171 -273 0
-243 -264 -40 -172 -274 0
-243 -264 -40 172 274 0
-243 -264 40 -172 274 0
-243 -264 40 172 -274 0
-243 -265 -33 -197 -267 0
-243 -265 -33 197 267 0
-243 -265 33 -197 267 0
-243 -265 33 197 -267 0
-243 -265 -34 -198 -268 0
-243 -265 -34 198 268 0
-243 -265 34 -198 268 0
-243 -265 34 198 -268 0
-243 -265 -35 -199 -269 0
-243 -265 -35 199 269 0
-243 -265 35 -199 269 0
-243 -265 35 199 -269 0
-243 -265 -36 -200 -270 0
-243 -265 -36 200 270 0
-243 -265 36 -200 270 0
-243 -265 36 200 -270 0
-243 -265 -37 -201 -271 0
-243 -265 -37 201 271 0
-243 -265 37 -201 271 0
-243 -265 37 201 -271 0
-243 -265 -38 -202 -272 0
-243 -265 -38 202 272 0
-243 -265 38 -202 272 0
-243 -265 38 202 -272 0
-243 -265 -39 -203 -273 0
-243 -265 -39 203 273 0
-243 -265 39 -203 273 0
-243 -265 39 203 -273 0
-243 -265 -40 -204 -274 0
-243 -265 -40 204 274 0
-243 -265 40 -204 274 0
-243 -265 40 204 -274 0
-243 -266 -33 -231 -267 0
-243 -266 -33 231 267 0
-243 -266 33 -231 267 0
-243 -266 33 231 -267 0
-243 -266 -34 -232 -268 0
-243 -266 -34 232 268 0
-243 -266 34 -232 268 0
-243 -266 34 232 -268 0
-243 -266 -35 -233 -269 0
-243 -266 -35 233 269 0
-243 -266 35 -233 269 0
-243 -266 35 233 -269 0
-243 -266 -36 -234 -270 0
-243 -266 -36 234 270 0
-243 -266 36 -234 270 0
-243 -266 36 234 -270 0
-243 -266 -37 -235 -271 0
-243 -266 -37 235 271 0
-243 -266 37 -235 271 0
-243 -266 37 235 -271 0
-243 -266 -38 -236 -272 0
-243 -266 -38 236 272 0
-243 -266 38 -236 272 0
-243 -266 38 236 -272 0
-243 -266 -39 -237 -273 0
-243 -266 -39 237 273 0
-243 -266 39 -237 273 0
-243 -266 39 237 -273 0
-243 -266 -40 -238 -274 0
-243 -266 -40 238 274 0
-243 -266 40 -238 274 0
-243 -266 40 238 -274 0
-244 -259 -41 -49 -267 0
-244 -259 -41 49 267 0
-244 -259 41 -49 267 0
-244 -259 41 49 -267 0
-244 -259 -42 -50 -268 0
-244 -259 -42 50 268 0
-244 -259 42 -50 268 0
-244 -259 42 50 -268 0
-244 -259 -43 -51 -269 0
-244 -259 -43 51 269 0
-244 -259 43 -51 269 0
-244 -259 43 51 -269 0
-244 -259 -44 -52 -270 0
-244 -259 -44 52 270 0
-244 -259 44 -52 270 0
-244 -259 44 52 -270 0
-244 -259 -45 -53 -271 0
-244 -259 -45 53 271 0
-244 -259 45 -53 271 0
-244 -259 45 53 -271 0
-244 -259 -46 -54 -272 0
-244 -259 -46 54 272 0
-244 -259 46 -54 272 0
-244 -259 46 54 -272 0
-244 -259 -47 -55 -273 0
-244 -259 -47 55 273 0
-244 -259 47 -55 273 0
-244 -259 47 55 -273 0
-244 -259 -48 -56 -274 0
-244 -259 -48 56 274 0
-244 -259 48 -56 274 0
-244 -259 48 56 -274 0
-244 -260 -41 -57 -267 0
-244 -260 -41 57 267 0
-244 -260 41 -57 267 0
-244 -260 41 57 -267 0
-244 -260 -42 -58 -268 0
-244 -260 -42 58 268 0
-244 -260 42 -58 268 0
-244 -260 42 58 -268 0
-244 -260 -43 -59 -269 0
-244 -260 -43 59 269 0
-244 -260 43 -59 269 0
-244 -260 43 59 -269 0
-244 -260 -44 -60 -270 0
-244 -260 -44 60 270 0
-244 -260 44 -60 270 0
-244 -260 44 60 -270 0
-244 -260 -45 -61 -271 0
-244 -260 -45 61 271 0
-244 -260 45 -61 271 0
-244 -260 45 61 -271 0
-244 -260 -46 -62 -272 0
-244 -260 -46 62 272 0
-244 -260 46 -62 272 0
-244 -260 46 62 -272 0
-244 -260 -47 -63 -273 0
-244 -260 -47 63 273 0
-244 -260 47 -63 273 0
-244 -260 47 63 -273 0
-244 -260 -48 -64 -274 0
-244 -260 -48 64 274 0
-244 -260 48 -64 274 0
-244 -260 48 64 -274 0
-244 -261 -41 -81 -267 0
-244 -261 -41 81 267 0
-244 -261 41 -81 267 0
-244 -261 41 81 -267 0
-244 -261 -42 -82 -268 0
-244 -261 -42 82 268 0
-244 -261 42 -82 268 0
-244 -261 42 82 -268 0
-244 -261 -43 -83 -269 0
-244 -261 -43 83 269 0
-244 -261 43 -83 269 0
-244 -261 43 83 -269 0
-244 -261 -44 -84 -270 0
-244 -261 -44 84 270 0
-244 -261 44 -84 270 0
-244 -261 44 84 -270 0
-244 -261 -45 -85 -271 0
-244 -261 -45 85 271 0
-244 -261 45 -85 271 0
-244 -261 45 85 -271 0
-244 -261 -46 -86 -272 0
-244 -261 -46 86 272 0
-244 -261 46 -86 272 0
-244 -261 46 86 -272 0
-244 -261 -47 -87 -273 0
-244 -261 -47 87 273 0
-244 -261 47 -87 273 0
-244 -261 47 87 -273 0
-244 -261 -48 -88 -274 0
-244 -261 -48 88 274 0
-244 -261 48 -88 274 0
-244 -261 48 88 -274 0
-244 -262 -41 -107 -267 0
-244 -262 -41 107 267 0
-244 -262 41 -107 267 0
-244 -262 41 107 -267 0
-244 -262 -42 -108 -268 0
-244 -262 -42 108 268 0
-244 -262 42 -108 268 0
-244 -262 42 108 -268 0
-244 -262 -43 -109 -269 0
-244 -262 -43 109 269 0
-244 -262 43 -109 269 0
-244 -262 43 109 -269 0
-244 -262 -44 -110 -270 0
-244 -262 -44 110 270 0
-244 -262 44 -110 270 0
-244 -262 44 110 -270 0
-244 -262 -45 -111 -271 0
-244 -262 -45 111 271 0
-244 -262 45 -111 271 0
-244 -262 45 111 -271 0
-244 -262 -46 -112 -272 0
-244 -262 -46 112 272 0
-244 -262 46 -112 272 0
-244 -262 46 112 -272 0
-244 -262 -47 -113 -273 0
-244 -262 -47 113 273 0
-244 -262 47 -113 273 0
-244 -262 47 113 -273 0
-244 -262 -48 -114 -274 0
-244 -262 -48 114 274 0
-244 -262 48 -114 274 0
-244 -262 48 114 -274 0
-244 -263 -41 -135 -267 0
-244 -263 -41 135 267 0
-244 -263 41 -135 267 0
-244 -263 41 135 -267 0
-244 -263 -42 -136 -268 0
-244 -263 -42 136 268 0
-244 -263 42 -136 268 0
-244 -263 42 136 -268 0
-244 -263 -43 -137 -269 0
-244 -263 -43 137 269 0
-244 -263 43 -137 269 0
-244 -263 43 137 -269 0
-244 -263 -44 -138 -270 0
-244 -263 -44 138 270 0
-244 -263 44 -138 270 0
-244 -263 44 138 -270 0
-244 -263 -45 -139 -271 0
-244 -263 -45 139 271 0
-244 -263 45 -139 271 0
-244 -263 45 139 -271 0
-244 -263 -46 -140 -272 0
-244 -263 -46 140 272 0
-244 -263 46 -140 272 0
-244 -263 46 140 -272 0
-244 -263 -47 -141 -273 0
-244 -263 -47 141 273 0
-244 -263 47 -141 273 0
-244 -263 47 141 -273 0
-244 -263 -48 -142 -274 0
-244 -263 -48 142 274 0
-244 -263 48 -142 274 0
-244 -263 48 142 -274 0
-244 -264 -41 -165 -267 0
-244 -264 -41 165 267 0
-244 -264 41 -165 267 0
-244 -264 41 165 -267 0
-244 -264 -42 -166 -268 0
-244 -264 -42 166 268 0
-244 -264 42 -166 268 0
-244 -264 42 166 -268 0
-244 -264 -43 -167 -269 0
-244 -264 -43 167 269 0
-244 -264 43 -167 269 0
-244 -264 43 167 -269 0
-244 -264 -44 -168 -270 0
-244 -264 -44 168 270 0
-244 -264 44 -168 270 0
-244 -264 44 168 -270 0
-244 -264 -45 -169 -271 0
-244 -264 -45 169 271 0
-244 -264 45 -169 271 0
-244 -264 45 169 -271 0
-244 -264 -46 -170 -272 0
-244 -264 -46 170 272 0
-244 -264 46 -170 272 0
-244 -264 46 170 -272 0
-244 -264 -47 -171 -273 0
-244 -264 -47 171 273 0
-244 -264 47 -171 273 0
-244 -264 47 171 -273 0
-244 -264 -48 -172 -274 0
-244 -264 -48 172 274 0
-244 -264 48 -172 274 0
-244 -264 48 172 -274 0
-244 -265 -41 -197 -267 0
-244 -265 -41 197 267 0
-244 -265 41 -197 267 0
-244 -265 41 197 -267 0
-244 -265 -42 -198 -268 0
-244 -265 -42 198 268 0
-244 -265 42 -198 268 0
-244 -265 42 198 -268 0
-244 -265 -43 -199 -269 0
-244 -265 -43 199 269 0
-244 -265 43 -199 269 0
-244 -265 43 199 -269 0
-244 -265 -44 -200 -270 0
-244 -265 -44 200 270 0
-244 -265 44 -200 270 0
-244 -265 44 200 -270 0
-244 -265 -45 -201 -271 0
-244 -265 -45 201 271 0
-244 -265 45 -201 271 0
-244 -265 45 201 -271 0
-244 -265 -46 -202 -272 0
-244 -265 -46 202 272 0
-244 -265 46 -202 272 0
-244 -265 46 202 -272 0
-244 -265 -47 -203 -273 0
-244 -265 -47 203 273 0
-244 -265 47 -203 273 0
-244 -265 47 203 -273 0
-244 -265 -48 -204 -274 0
-244 -265 -48 204 274 0
-244 -265 48 -204 274 0
-244 -265 48 204 -274 0
-244 -266 -41 -231 -267 0
-244 -266 -41 231 267 0
-244 -266 41 -231 267 0
-244 -266 41 231 -267 0
-244 -266 -42 -232 -268 0
-244 -266 -42 232 268 0
-244 -266 42 -232 268 0
-244 -266 42 232 -268 0
-244 -266 -43 -233 -269 0
-244 -266 -43 233 269 0
-244 -266 43 -233 269 0
-244 -266 43 233 -269 0
-244 -266 -44 -234 -270 0
-244 -266 -44 234 270 0
-244 -266 44 -234 270 0
-244 -266 44 234 -270 0
-244 -266 -45 -235 -271 0
-244 -266 -45 235 271 0
-244 -266 45 -235 271 0
-244 -266 45 235 -271 0
-244 -266 -46 -236 -272 0
-244 -266 -46 236 272 0
-244 -266 46 -236 272 0
-244 -266 46 236 -272 0
-244 -266 -47 -237 -273 0
-244 -266 -47 237 273 0
-244 -266 47 -237 273 0
-244 -266 47 237 -273 0
-244 -266 -48 -238 -274 0
-244 -266 -48 238 274 0
-244 -266 48 -238 274 0
-244 -266 48 238 -274 0
-245 -260 -49 -57 -267 0
-245 -260 -49 57 267 0
-245 -260 49 -57 267 0
-245 -260 49 57 -267 0
-245 -260 -50 -58 -268 0
-245 -260 -50 58 268 0
-245 -260 50 -58 268 0
-245 -260 50 58 -268 0
-245 -260 -51 -59 -269 0
-245 -260 -51 59 269 0
-245 -260 51 -59 269 0
-245 -260 51 59 -269 0
-245 -260 -52 -60 -270 0
-245 -260 -52 60 270 0
-245 -260 52 -60 270 0
-245 -260 52 60 -270 0
-245 -260 -53 -61 -271 0
-245 -260 -53 61 271 0
-245 -260 53 -61 271 0
-245 -260 53 61 -271 0
-245 -260 -54 -62 -272 0
-245 -260 -54 62 272 0
-245 -260 54 -62 272 0
-245 -260 54 62 -272 0
-245 -260 -55 -63 -273 0
-245 -260 -55 63 273 0
-245 -260 55 -63 273 0
-245 -260 55 63 -273 0
-245 -260 -56 -64 -274 0
-245 -260 -56 64 274 0
-245 -260 56 -64 274 0
-245 -260 56 64 -274 0
-245 -261 -49 -81 -267 0
-245 -261 -49 81 267 0
-245 -261 49 -81 267 0
-245 -261 49 81 -267 0
-245 -261 -50 -82 -268 0
-245 -261 -50 82 268 0
-245 -261 50 -82 268 0
-245 -261 50 82 -268 0
-245 -261 -51 -83 -269 0
-245 -261 -51 83 269 0
-245 -261 51 -83 269 0
-245 -261 51 83 -269 0
-245 -261 -52 -84 -270 0
-245 -261 -52 84 270 0
-245 -261 52 -84 270 0
-245 -261 52 84 -270 0
-245 -261 -53 -85 -271 0
-245 -261 -53 85 271 0
-245 -261 53 -85 271 0
-245 -261 53 85 -271 0
-245 -261 -54 -86 -272 0
-245 -261 -54 86 272 0
-245 -261 54 -86 272 0
-245 -261 54 86 -272 0
-245 -261 -55 -87 -273 0
-245 -261 -55 87 273 0
-245 -261 55 -87 273 0
-245 -261 55 87 -273 0
-245 -261 -56 -88 -274 0
-245 -261 -56 88 274 0
-245 -261 56 -88 274 0
-245 -261 56 88 -274 0
-245 -262 -49 -107 -267 0
-245 -262 -49 107 267 0
-245 -262 49 -107 267 0
-245 -262 49 107 -267 0
-245 -262 -50 -108 -268 0
-245 -262 -50 108 268 0
-245 -262 50 -108 268 0
-245 -262 50 108 -268 0
-245 -262 -51 -109 -269 0
-245 -262 -51 109 269 0
-245 -262 51 -109 269 0
-245 -262 51 109 -269 0
-245 -262 -52 -110 -270 0
-245 -262 -52 110 270 0
-245 -262 52 -110 270 0
-245 -262 52 110 -270 0
-245 -262 -53 -111 -271 0
-245 -262 -53 111 271 0
-245 -262 53 -111 271 0
-245 -262 53 111 -271 0
-245 -262 -54 -112 -272 0
-245 -262 -54 112 272 0
-245 -262 54 -112 272 0
-245 -262 54 112 -272 0
-245 -262 -55 -113 -273 0
-245 -262 -55 113 273 0
-245 -262 55 -113 273 0
-245 -262 55 113 -273 0
-245 -262 -56 -114 -274 0
-245 -262 -56 114 274 0
-245 -262 56 -114 274 0
-245 -262 56 114 -274 0
-245 -263 -49 -135 -267 0
-245 -263 -49 135 267 0
-245 -263 49 -135 267 0
-245 -263 49 135 -267 0
-245 -263 -50 -136 -268 0
-245 -263 -50 136 268 0
-245 -263 50 -136 268 0
-245 -263 50 136 -268 0
-245 -263 -51 -137 -269 0
-245 -263 -51 137 269 0
-245 -263 51 -137 269 0
-245 -263 51 137 -269 0
-245 -263 -52 -138 -270 0
-245 -263 -52 138 270 0
-245 -263 52 -138 270 0
-245 -263 52 138 -270 0
-245 -263 -53 -139 -271 0
-245 -263 -53 139 271 0
-245 -263 53 -139 271 0
-245 -263 53 139 -271 0
-245 -263 -54 -140 -272 0
-245 -263 -54 140 272 0
-245 -263 54 -140 272 0
-245 -263 54 140 -272 0
-245 -263 -55 -141 -273 0
-245 -263 -55 141 273 0
-245 -263 55 -141 273 0
-245 -263 55 141 -273 0
-245 -263 -56 -142 -274 0
-245 -263 -56 142 274 0
-245 -263 56 -142 274 0
-245 -263 56 142 -274 0
-245 -264 -49 -165 -267 0
-245 -264 -49 165 267 0
-245 -264 49 -165 267 0
-245 -264 49 165 -267 0
-245 -264 -50 -166 -268 0
-245 -264 -50 166 268 0
-245 -264 50 -166 268 0
-245 -264 50 166 -268 0
-245 -264 -51 -167 -269 0
-245 -264 -51 167 269 0
-245 -264 51 -167 269 0
-245 -264 51 167 -269 0
-245 -264 -52 -168 -270 0
-245 -264 -52 168 270 0
-245 -264 52 -168 270 0
-245 -264 52 168 -270 0
-245 -264 -53 -169 -271 0
-245 -264 -53 169 271 0
-245 -264 53 -169 271 0
-245 -264 53 169 -271 0
-245 -264 -54 -170 -272 0
-245 -264 -54 170 272 0
-245 -264 54 -170 272 0
-245 -264 54 170 -272 0
-245 -264 -55 -171 -273 0
-245 -264 -55 171 273 0
-245 -264 55 -171 273 0
-245 -264 55 171 -273 0
-245 -264 -56 -172 -274 0
-245 -264 -56 172 274 0
-245 -264 56 -172 274 0
-245 -264 56 172 -274 0
-245 -265 -49 -197 -267 0
-245 -265 -49 197 267 0
-245 -265 49 -197 267 0
-245 -265 49 197 -267 0
-245 -265 -50 -198 -268 0
-245 -265 -50 198 268 0
-245 -265 50 -198 268 0
-245 -265 50 198 -268 0
-245 -265 -51 -199 -269 0
-245 -265 -51 199 269 0
-245 -265 51 -199 269 0
-245 -265 51 199 -269 0
-245 -265 -52 -200 -270 0
-245 -265 -52 200 270 0
-245 -265 52 -200 270 0
-245 -265 52 200 -270 0
-245 -265 -53 -201 -271 0
-245 -265 -53 201 271 0
-245 -265 53 -201 271 0
-245 -265 53 201 -271 0
-245 -265 -54 -202 -272 0
-245 -265 -54 202 272 0
-245 -265 54 -202 272 0
-245 -265 54 202 -272 0
-245 -265 -55 -203 -273 0
-245 -265 -55 203 273 0
-245 -265 55 -203 273 0
-245 -265 55 203 -273 0
-245 -265 -56 -204 -274 0
-245 -265 -56 204 274 0
-245 -265 56 -204 274 0
-245 -265 56 204 -274 0
-245 -266 -49 -231 -267 0
-245 -266 -49 231 267 0
-245 -266 49 -231 267 0
-245 -266 49 231 -267 0
-245 -266 -50 -232 -268 0
-245 -266 -50 232 268 0
-245 -266 50 -232 268 0
-245 -266 50 232 -268 0
-245 -266 -51 -233 -269 0
-245 -266 -51 233 269 0
-245 -266 51 -233 269 0
-245 -266 51 233 -269 0
-245 -266 -52 -234 -270 0
-245 -266 -52 234 270 0
-245 -266 52 -234 270 0
-245 -266 52 234 -270 0
-245 -266 -53 -235 -271 0
-245 -266 -53 235 271 0
-245 -266 53 -235 271 0
-245 -266 53 235 -271 0
-245 -266 -54 -236 -272 0
-245 -266 -54 236 272 0
-245 -266 54 -236 272 0
-245 -266 54 236 -272 0
-245 -266 -55 -237 -273 0
-245 -266 -55 237 273 0
-245 -266 55 -237 273 0
-245 -266 55 237 -273 0
-245 -266 -56 -238 -274 0
-245 -266 -56 238 274 0
-245 -266 56 -238 274 0
-245 -266 56 238 -274 0
-246 -261 -57 -81 -267 0
-246 -261 -57 81 267 0
-246 -261 57 -81 267 0
-246 -261 57 81 -267 0
-246 -261 -58 -82 -268 0
-246 -261 -58 82 268 0
-246 -261 58 -82 268 0
-246 -261 58 82 -268 0
-246 -261 -59 -83 -269 0
-246 -261 -59 83 269 0
-246 -261 59 -83 269 0
-246 -261 59 83 -269 0
-246 -261 -60 -84 -270 0
-246 -261 -60 84 270 0
-246 -261 60 -84 270 0
-246 -261 60 84 -270 0
-246 -261 -61 -85 -271 0
-246 -261 -61 85 271 0
-246 -261 61 -85 271 0
-246 -261 61 85 -271 0
-246 -261 -62 -86 -272 0
-246 -261 -62 86 272 0
-246 -261 62 -86 272 0
-246 -261 62 86 -272 0
-246 -261 -63 -87 -273 0
-246 -261 -63 87 273 0
-246 -261 63 -87 273 0
-246 -261 63 87 -273 0
-246 -261 -64 -88 -274 0
-246 -261 -64 88 274 0
-246 -261 64 -88 274 0
-246 -261 64 88 -274 0
-246 -262 -57 -107 -267 0
-246 -262 -57 107 267 0
-246 -262 57 -107 267 0
-246 -262 57 107 -267 0
-246 -262 -58 -108 -268 0
-246 -262 -58 108 268 0
-246 -262 58 -108 268 0
-246 -262 58 108 -268 0
-246 -262 -59 -109 -269 0
-246 -262 -59 109 269 0
-246 -262 59 -109 269 0
-246 -262 59 109 -269 0
-246 -262 -60 -110 -270 0
-246 -262 -60 110 270 0
-246 -262 60 -110 270 0
-246 -262 60 110 -270 0
-246 -262 -61 -111 -271 0
-246 -262 -61 111 271 0
-246 -262 61 -111 271 0
-246 -262 61 111 -271 0
-246 -262 -62 -112 -272 0
-246 -262 -62 112 272 0
-246 -262 62 -112 272 0
-246 -262 62 112 -272 0
-246 -262 -63 -113 -273 0
-246 -262 -63 113 273 0
-246 -262 63 -113 273 0
-246 -262 63 113 -273 0
-246 -262 -64 -114 -274 0
-246 -262 -64 114 274 0
-246 -262 64 -114 274 0
-246 -262 64 114 -274 0
-246 -263 -57 -135 -267 0
-246 -263 -57 135 267 0
-246 -263 57 -135 267 0
-246 -263 57 135 -267 0
-246 -263 -58 -136 -268 0
-246 -263 -58 136 268 0
-246 -263 58 -136 268 0
-246 -263 58 136 -268 0
-246 -263 -59 -137 -269 0
-246 -263 -59 137 269 0
-246 -263 59 -137 269 0
-246 -263 59 137 -269 0
-246 -263 -60 -138 -270 0
-246 -263 -60 138 270 0
-246 -263 60 -138 270 0
-246 -263 60 138 -270 0
-246 -263 -61 -139 -271 0
-246 -263 -61 139 271 0
-246 -263 61 -139 271 0
-246 -263 61 139 -271 0
-246 -263 -62 -140 -272 0
-246 -263 -62 140 272 0
-246 -263 62 -140 272 0
-246 -263 62 140 -272 0
-246 -263 -63 -141 -273 0
-246 -263 -63 141 273 0
-246 -263 63 -141 273 0
-246 -263 63 141 -273 0
-246 -263 -64 -142 -274 0
-246 -263 -64 142 274 0
-246 -263 64 -142 274 0
-246 -263 64 142 -274 0
-246 -264 -57 -165 -267 0
-246 -264 -57 165 267 0
-246 -264 57 -165 267 0
-246 -264 57 165 -267 0
-246 -264 -58 -166 -268 0
-246 -264 -58 166 268 0
-246 -264 58 -166 268 0
-246 -264 58 166 -268 0
-246 -264 -59 -167 -269 0
-246 -264 -59 167 269 0
-246 -264 59 -167 269 0
-246 -264 59 167 -269 0
-246 -264 -60 -168 -270 0
-246 -264 -60 168 270 0
-246 -264 60 -168 270 0
-246 -264 60 168 -270 0
-246 -264 -61 -169 -271 0
-246 -264 -61 169 271 0
-246 -264 61 -169 271 0
-246 -264 61 169 -271 0
-246 -264 -62 -170 -272 0
-246 -264 -62 170 272 0
-246 -264 62 -170 272 0
-246 -264 62 170 -272 0
-246 -264 -63 -171 -273 0
-246 -264 -63 171 273 0
-246 -264 63 -171 273 0
-246 -264 63 171 -273 0
-246 -264 -64 -172 -274 0
-246 -264 -64 172 274 0
-246 -264 64 -172 274 0
-246 -264 64 172 -274 0
-246 -265 -57 -197 -267 0
-246 -265 -57 197 267 0
-246 -265 57 -197 267 0
-246 -265 57 197 -267 0
-246 -265 -58 -198 -268 0
-246 -265 -58 198 268 0
-246 -265 58 -198 268 0
-246 -265 58 198 -268 0
-246 -265 -59 -199 -269 0
-246 -265 -59 199 269 0
-246 -265 59 -199 269 0
-246 -265 59 199 -269 0
-246 -265 -60 -200 -270 0
-246 -265 -60 200 270 0
-246 -265 60 -200 270 0
-246 -265 60 200 -270 0
-246 -265 -61 -201 -271 0
-246 -265 -61 201 271 0
-246 -265 61 -201 271 0
-246 -265 61 201 -271 0
-246 -265 -62 -202 -272 0
-246 -265 -62 202 272 0
-246 -265 62 -202 272 0
-246 -265 62 202 -272 0
-246 -265 -63 -203 -273 0
-246 -265 -63 203 273 0
-246 -265 63 -203 273 0
-246 -265 63 203 -273 0
-246 -265 -64 -204 -274 0
-246 -265 -64 204 274 0
-246 -265 64 -204 274 0
-246 -265 64 204 -274 0
-246 -266 -57 -231 -267 0
-246 -266 -57 231 267 0
-246 -266 57 -231 267 0
-246 -266 57 231 -267 0
-246 -266 -58 -232 -268 0
-246 -266 -58 232 268 0
-246 -266 58 -232 268 0
-246 -266 58 232 -268 0
-246 -266 -59 -233 -269 0
-246 -266 -59 233 269 0
-246 -266 59 -233 269 0
-246 -266 59 233 -269 0
-246 -266 -60 -234 -270 0
-246 -266 -60 234 270 0
-246 -266 60 -234 270 0
-246 -266 60 234 -270 0
-246 -266 -61 -235 -271 0
-246 -266 -61 235 271 0
-246 -266 61 -235 271 0
-246 -266 61 235 -271 0
-246 -266 -62 -236 -272 0
-246 -266 -62 236 272 0
-246 -266 62 -236 272 0
-246 -266 62 236 -272 0
-246 -266 -63 -237 -273 0
-246 -266 -63 237 273 0
-246 -266 63 -237 273 0
-246 -266 63 237 -273 0
-246 -266 -64 -238 -274 0
-246 -266 -64 238 274 0
-246 -266 64 -238 274 0
-246 -266 64 238 -274 0
-247 -262 -81 -107 -267 0
-247 -262 -81 107 267 0
-247 -262 81 -107 267 0
-247 -262 81 107 -267 0
-247 -262 -82 -108 -268 0
-247 -262 -82 108 268 0
-247 -262 82 -108 268 0
-247 -262 82 108 -268 0
-247 -262 -83 -109 -269 0
-247 -262 -83 109 269 0
-247 -262 83 -109 269 0
-247 -262 83 109 -269 0
-247 -262 -84 -110 -270 0
-247 -262 -84 110 270 0
-247 -262 84 -110 270 0
-247 -262 84 110 -270 0
-247 -262 -85 -111 -271 0
-247 -262 -85 111 271 0
-247 -262 85 -111 271 0
-247 -262 85 111 -271 0
-247 -262 -86 -112 -272 0
-247 -262 -86 112 272 0
-247 -262 86 -112 272 0
-247 -262 86 112 -272 0
-247 -262 -87 -113 -273 0
-247 -262 -87 113 273 0
-247 -262 87 -113 273 0
-247 -262 87 113 -273 0
-247 -262 -88 -114 -274 0
-247 -262 -88 114 274 0
-247 -262 88 -114 274 0
-247 -262 88 114 -274 0
-247 -263 -81 -135 -267 0
-247 -263 -81 135 267 0
-247 -263 81 -135 267 0
-247 -263 81 135 -267 0
-247 -263 -82 -136 -268 0
-247 -263 -82 136 268 0
-247 -263 82 -136 268 0
-247 -263 82 136 -268 0
-247 -263 -83 -137 -269 0
-247 -263 -83 137 269 0
-247 -263 83 -137 269 0
-247 -263 83 137 -269 0
-247 -263 -84 -138 -270 0
-247 -263 -84 138 270 0
-247 -263 84 -138 270 0
-247 -263 84 138 -270 0
-247 -263 -85 -139 -271 0
-247 -263 -85 139 271 0
-247 -263 85 -139 271 0
-247 -263 85 139 -271 0
-247 -263 -86 -140 -272 0
-247 -263 -86 140 272 0
-247 -263 86 -140 272 0
-247 -263 86 140 -272 0
-247 -263 -87 -141 -273 0
-247 -263 -87 141 273 0
-247 -263 87 -141 273 0
-247 -263 87 141 -273 0
-247 -263 -88 -142 -274 0
-247 -263 -88 142 274 0
-247 -263 88 -142 274 0
-247 -263 88 142 -274 0
-247 -264 -81 -165 -267 0
-247 -264 -81 165 267 0
-247 -264 81 -165 267 0
-247 -264 81 165 -267 0
-247 -264 -82 -166 -268 0
-247 -264 -82 166 268 0
-247 -264 82 -166 268 0
-247 -264 82 166 -268 0
-247 -264 -83 -167 -269 0
-247 -264 -83 167 269 0
-247 -264 83 -167 269 0
-247 -264 83 167 -269 0
-247 -264 -84 -168 -270 0
-247 -264 -84 168 270 0
-247 -264 84 -168 270 0
-247 -264 84 168 -270 0
-247 -264 -85 -169 -271 0
-247 -264 -85 169 271 0
-247 -264 85 -169 271 0
-247 -264 85 169 -271 0
-247 -264 -86 -170 -272 0
-247 -264 -86 170 272 0
-247 -264 86 -170 272 0
-247 -264 86 170 -272 0
-247 -264 -87 -171 -273 0
-247 -264 -87 171 273 0
-247 -264 87 -171 273 0
-247 -264 87 171 -273 0
-247 -264 -88 -172 -274 0
-247 -264 -88 172 274 0
-247 -264 88 -172 274 0
-247 -264 88 172 -274 0
-247 -265 -81 -197 -267 0
-247 -265 -81 197 267 0
-247 -265 81 -197 267 0
-247 -265 81 197 -267 0
-247 -265 -82 -198 -268 0
-247 -265 -82 198 268 0
-247 -265 82 -198 268 0
-247 -265 82 198 -268 0
-247 -265 -83 -199 -269 0
-247 -265 -83 199 269 0
-247 -265 83 -199 269 0
-247 -265 83 199 -269 0
-247 -265 -84 -200 -270 0
-247 -265 -84 200 270 0
-247 -265 84 -200 270 0
-247 -265 84 200 -270 0
-247 -265 -85 -201 -271 0
-247 -265 -85 201 271 0
-247 -265 85 -201 271 0
-247 -265 85 201 -271 0
-247 -265 -86 -202 -272 0
-247 -265 -86 202 272 0
-247 -265 86 -202 272 0
-247 -265 86 202 -272 0
-247 -265 -87 -203 -273 0
-247 -265 -87 203 273 0
-247 -265 87 -203 273 0
-247 -265 87 203 -273 0
-247 -265 -88 -204 -274 0
-247 -265 -88 204 274 0
-247 -265 88 -204 274 0
-247 -265 88 204 -274 0
-247 -266 -81 -231 -267 0
-247 -266 -81 231 267 0
-247 -266 81 -231 267 0
-247 -266 81 231 -267 0
-247 -266 -82 -232 -268 0
-247 -266 -82 232 268 0
-247 -266 82 -232 268 0
-247 -266 82 232 -268 0
-247 -266 -83 -233 -269 0
-247 -266 -83 233 269 0
-247 -266 83 -233 269 0
-247 -266 83 233 -269 0
-247 -266 -84 -234 -270 0
-247 -266 -84 234 270 0
-247 -266 84 -234 270 0
-247 -266 84 234 -270 0
-247 -266 -85 -235 -271 0
-247 -266 -85 235 271 0
-247 -266 85 -235 271 0
-247 -266 85 235 -271 0
-247 -266 -86 -236 -272 0
-247 -266 -86 236 272 0
-247 -266 86 -236 272 0
-247 -266 86 236 -272 0
-247 -266 -87 -237 -273 0
-247 -266 -87 237 273 0
-247 -266 87 -237 273 0
-247 -266 87 237 -273 0
-247 -266 -88 -238 -274 0
-247 -266 -88 238 274 0
-247 -266 88 -238 274 0
-247 -266 88 238 -274 0
-248 -263 -107 -135 -267 0
-248 -263 -107 135 267 0
-248 -263 107 -135 267 0
-248 -263 107 135 -267 0
-248 -263 -108 -136 -268 0
-248 -263 -108 136 268 0
-248 -263 108 -136 268 0
-248 -263 108 136 -268 0
-248 -263 -109 -137 -269 0
-248 -263 -109 137 269 0
-248 -263 109 -137 269 0
-248 -263 109 137 -269 0
-248 -263 -110 -138 -270 0
-248 -263 -110 138 270 0
-248 -263 110 -138 270 0
-248 -263 110 138 -270 0
-248 -263 -111 -139 -271 0
-248 -263 -111 139 271 0
-248 -263 111 -139 271 0
-248 -263 111 139 -271 0
-248 -263 -112 -140 -272 0
-248 -263 -112 140 272 0
-248 -263 112 -140 272 0
-248 -263 112 140 -272 0
-248 -263 -113 -141 -273 0
-248 -263 -113 141 273 0
-248 -263 113 -141 273 0
-248 -263 113 141 -273 0
-248 -263 -114 -142 -274 0
-248 -263 -114 142 274 0
-248 -263 114 -142 274 0
-248 -263 114 142 -274 0
-248 -264 -107 -165 -267 0
-248 -264 -107 165 267 0
-248 -264 107 -165 267 0
-248 -264 107 165 -267 0
-248 -264 -108 -166 -268 0
-248 -264 -108 166 268 0
-248 -264 108 -166 268 0
-248 -264 108 166 -268 0
-248 -264 -109 -167 -269 0
-248 -264 -109 167 269 0
-248 -264 109 -167 269 0
-248 -264 109 167 -269 0
-248 -264 -110 -168 -270 0
-248 -264 -110 168 270 0
-248 -264 110 -168 270 0
-248 -264 110 168 -270 0
-248 -264 -111 -169 -271 0
-248 -264 -111 169 271 0
-248 -264 111 -169 271 0
-248 -264 111 169 -271 0
-248 -264 -112 -170 -272 0
-248 -264 -112 170 272 0
-248 -264 112 -170 272 0
-248 -264 112 170 -272 0
-248 -264 -113 -171 -273 0
-248 -264 -113 171 273 0
-248 -264 113 -171 273 0
-248 -264 113 171 -273 0
-248 -264 -114 -172 -274 0
-248 -264 -114 172 274 0
-248 -264 114 -172 274 0
-248 -264 114 172 -274 0
-248 -265 -107 -197 -267 0
-248 -265 -107 197 267 0
-248 -265 107 -197 267 0
-248 -265 107 197 -267 0
-248 -265 -108 -198 -268 0
-248 -265 -108 198 268 0
-248 -265 108 -198 268 0
-248 -265 108 198 -268 0
-248 -265 -109 -199 -269 0
-248 -265 -109 199 269 0
-248 -265 109 -199 269 0
-248 -265 109 199 -269 0
-248 -265 -110 -200 -270 0
-248 -265 -110 200 270 0
-248 -265 110 -200 270 0
-248 -265 110 200 -270 0
-248 -265 -111 -201 -271 0
-248 -265 -111 201 271 0
-248 -265 111 -201 271 0
-248 -265 111 201 -271 0
-248 -265 -112 -202 -272 0
-248 -265 -112 202 272 0
-248 -265 112 -202 272 0
-248 -265 112 202 -272 0
-248 -265 -113 -203 -273 0
-248 -265 -113 203 273 0
-248 -265 113 -203 273 0
-248 -265 113 203 -273 0
-248 -265 -114 -204 -274 0
-248 -265 -114 204 274 0
-248 -265 114 -204 274 0
-248 -265 114 204 -274 0
-248 -266 -107 -231 -267 0
-248 -266 -107 231 267 0
-248 -266 107 -231 267 0
-248 -266 107 231 -267 0
-248 -266 -108 -232 -268 0
-248 -266 -108 232 268 0
-248 -266 108 -232 268 0
-248 -266 108 232 -268 0
-248 -266 -109 -233 -269 0
-248 -266 -109 233 269 0
-248 -266 109 -233 269 0
-248 -266 109 233 -269 0
-248 -266 -110 -234 -270 0
-248 -266 -110 234 270 0
-248 -266 110 -234 270 0
-248 -266 110 234 -270 0
-248 -266 -111 -235 -271 0
-248 -266 -111 235 271 0
-248 -266 111 -235 271 0
-248 -266 111 235 -271 0
-248 -266 -112 -236 -272 0
-248 -266 -112 236 272 0
-248 -266 112 -236 272 0
-248 -266 112 236 -272 0
-248 -266 -113 -237 -273 0
-248 -266 -113 237 273 0
-248 -266 113 -237 273 0
-248 -266 113 237 -273 0
-248 -266 -114 -238 -274 0
-248 -266 -114 238 274 0
-248 -266 114 -238 274 0
-248 -266 114 238 -274 0
-249 -264 -135 -165 -267 0
-249 -264 -135 165 267 0
-249 -264 135 -165 267 0
-249 -264 135 165 -267 0
-249 -264 -136 -166 -268 0
-249 -264 -136 166 268 0
-249 -264 136 -166 268 0
-249 -264 136 166 -268 0
-249 -264 -137 -167 -269 0
-249 -264 -137 167 269 0
-249 -264 137 -167 269 0
-249 -264 137 167 -269 0
-249 -264 -138 -168 -270 0
-249 -264 -138 168 270 0
-249 -264 138 -168 270 0
-249 -264 138 168 -270 0
-249 -264 -139 -169 -271 0
-249 -264 -139 169 271 0
-249 -264 139 -169 271 0
-249 -264 139 169 -271 0
-249 -264 -140 -170 -272 0
-249 -264 -140 170 272 0
-249 -264 140 -170 272 0
-249 -264 140 170 -272 0
-249 -264 -141 -171 -273 0
-249 -264 -141 171 273 0
-249 -264 141 -171 273 0
-249 -264 141 171 -273 0
-249 -264 -142 -172 -274 0
-249 -264 -142 172 274 0
-249 -264 142 -172 274 0
-249 -264 142 172 -274 0
-249 -265 -135 -197 -267 0
-249 -265 -135 197 267 0
-249 -265 135 -197 267 0
-249 -265 135 197 -267 0
-249 -265 -136 -198 -268 0
-249 -265 -136 198 268 0
-249 -265 136 -198 268 0
-249 -265 136 198 -268 0
-249 -265 -137 -199 -269 0
-249 -265 -137 199 269 0
-249 -265 137 -199 269 0
-249 -265 137 199 -269 0
-249 -265 -138 -200 -270 0
-249 -265 -138 200 270 0
-249 -265 138 -200 270 0
-249 -265 138 200 -270 0
-249 -265 -139 -201 -271 0
-249 -265 -139 201 271 0
-249 -265 139 -201 271 0
-249 -265 139 201 -271 0
-249 -265 -140 -202 -272 0
-249 -265 -140 202 272 0
-249 -265 140 -202 272 0
-249 -265 140 202 -272 0
-249 -265 -141 -203 -273 0
-249 -265 -141 203 273 0
-249 -265 141 -203 273 0
-249 -265 141 203 -273 0
-249 -265 -142 -204 -274 0
-249 -265 -142 204 274 0
-249 -265 142 -204 274 0
-249 -265 142 204 -274 0
-249 -266 -135 -231 -267 0
-249 -266 -135 231 267 0
-249 -266 135 -231 267 0
-249 -266 135 231 -267 0
-249 -266 -136 -232 -268 0
-249 -266 -136 232 268 0
-249 -266 136 -232 268 0
-249 -266 136 232 -268 0
-249 -266 -137 -233 -269 0
-249 -266 -137 233 269 0
-249 -266 137 -233 269 0
-249 -266 137 233 -269 0
-249 -266 -138 -234 -270 0
-249 -266 -138 234 270 0
-249 -266 138 -234 270 0
-249 -266 138 234 -270 0
-249 -266 -139 -235 -271 0
-249 -266 -139 235 271 0
-249 -266 139 -235 271 0
-249 -266 139 235 -271 0
-249 -266 -140 -236 -272 0
-249 -266 -140 236 272 0
-249 -266 140 -236 272 0
-249 -266 140 236 -272 0
-249 -266 -141 -237 -273 0
-249 -266 -141 237 273 0
-249 -266 141 -237 273 0
-249 -266 141 237 -273 0
-249 -266 -142 -238 -274 0
-249 -266 -142 238 274 0
-249 -266 142 -238 274 0
-249 -266 142 238 -274 0
-250 -265 -165 -197 -267 0
-250 -265 -165 197 267 0
-250 -265 165 -197 267 0
-250 -265 165 197 -267 0
-250 -265 -166 -198 -268 0
-250 -265 -166 198 268 0
-250 -265 166 -198 268 0
-250 -265 166 198 -268 0
-250 -265 -167 -199 -269 0
-250 -265 -167 199 269 0
-250 -265 167 -199 269 0
-250 -265 167 199 -269 0
-250 -265 -168 -200 -270 0
-250 -265 -168 200 270 0
-250 -265 168 -200 270 0
-250 -265 168 200 -270 0
-250 -265 -169 -201 -271 0
-250 -265 -169 201 271 0
-250 -265 169 -201 271 0
-250 -265 169 201 -271 0
-250 -265 -170 -202 -272 0
-250 -265 -170 202 272 0
-250 -265 170 -202 272 0
-250 -265 170 202 -272 0
-250 -265 -171 -203 -273 0
-250 -265 -171 203 273 0
-250 -265 171 -203 273 0
-250 -265 171 203 -273 0
-250 -265 -172 -204 -274 0
-250 -265 -172 204 274 0
-250 -265 172 -204 274 0
-250 -265 172 204 -274 0
-250 -266 -165 -231 -267 0
-250 -266 -165 231 267 0
-250 -266 165 -231 267 0
-250 -266 165 231 -267 0
-250 -266 -166 -232 -268 0
-250 -266 -166 232 268 0
-250 -266 166 -232 268 0
-250 -266 166 232 -268 0
-250 -266 -167 -233 -269 0
-250 -266 -167 233 269 0
-250 -266 167 -233 269 0
-250 -266 167 233 -269 0
-250 -266 -168 -234 -270 0
-250 -266 -168 234 270 0
-250 -266 168 -234 270 0
-250 -266 168 234 -270 0
-250 -266 -169 -235 -271 0
-250 -266 -169 235 271 0
-250 -266 169 -235 271 0
-250 -266 169 235 -271 0
-250 -266 -170 -236 -272 0
-250 -266 -170 236 272 0
-250 -266 170 -236 272 0
-250 -266 170 236 -272 0
-250 -266 -171 -237 -273 0
-250 -266 -171 237 273 0
-250 -266 171 -237 273 0
-250 -266 171 237 -273 0
-250 -266 -172 -238 -274 0
-250 -266 -172 238 274 0
-250 -266 172 -238 274 0
-250 -266 172 238 -274 0
-251 -266 -197 -231 -267 0
-251 -266 -197 231 267 0
-251 -266 197 -231 267 0
-251 -266 197 231 -267 0
-251 -266 -198 -232 -268 0
-251 -266 -198 232 268 0
-251 -266 198 -232 268 0
-251 -266 198 232 -268 0
-251 -266 -199 -233 -269 0
-251 -266 -199 233 269 0
-251 -266 199 -233 269 0
-251 -266 199 233 -269 0
-251 -266 -200 -234 -270 0
-251 -266 -200 234 270 0
-251 -266 200 -234 270 0
-251 -266 200 234 -270 0
-251 -266 -201 -235 -271 0
-251 -266 -201 235 271 0
-251 -266 201 -235 271 0
-251 -266 201 235 -271 0
-251 -266 -202 -236 -272 0
-251 -266 -202 236 272 0
-251 -266 202 -236 272 0
-251 -266 202 236 -272 0
-251 -266 -203 -237 -273 0
-251 -266 -203 237 273 0
-251 -266 203 -237 273 0
-251 -266 203 237 -273 0
-251 -266 -204 -238 -274 0
-251 -266 -204 238 274 0
-251 -266 204 -238 274 0
-251 -266 204 238 -274 0
267 268 269 270 271 272 273 274 0
275 276 277 278 279 280 281 282 283 284 285 286 287 288 289 0
-275 -276 0
-275 -277 0
-275 -278 0
-275 -279 0
-275 -280 0
-275 -281 0
-275 -282 0
-275 -283 0
-275 -284 0
-275 -285 0
-275 -286 0
-275 -287 0
-275 -288 0
-275 -289 0
-276 -277 0
-276 -278 0
-276 -279 0
-276 -280 0
-276 -281 0
-276 -282 0
-276 -283 0
-276 -284 0
-276 -285 0
-276 -286 0
-276 -287 0
-276 -288 0
-276 -289 0
-277 -278 0
-277 -279 0
-277 -280 0
-277 -281 0
-277 -282 0
-277 -283 0
-277 -284 0
-277 -285 0
-277 -286 0
-277 -287 0
-277 -288 0
-277 -289 0
-278 -279 0
-278 -280 0
-278 -281 0
-278 -282 0
-278 -283 0
-278 -284 0
-278 -285 0
-278 -286 0
-278 -287 0
-278 -288 0
-278 -289 0
-279 -280 0
-279 -281 0
-279 -282 0
-279 -283 0
-279 -284 0
-279 -285 0
-279 -286 0
-279 -287 0
-279 -288 0
-279 -289 0
-280 -281 0
-280 -282 0
-280 -283 0
-280 -284 0
-280 -285 0
-280 -286 0
-280 -287 0
-280 -288 0
-280 -289 0
-281 -282 0
-281 -283 0
-281 -284 0
-281 -285 0
-281 -286 0
-281 -287 0
-281 -288 0
-281 -289 0
-282 -283 0
-282 -284 0
-282 -285 0
-282 -286 0
-282 -287 0
-282 -288 0
-282 -289 0
-283 -284 0
-283 -285 0
-283 -286 0
-283 -287 0
-283 -288 0
-283 -289 0
-284 -285 0
-284 -286 0
-284 -287 0
-284 -288 0
-284 -289 0
-285 -286 0
-285 -287 0
-285 -288 0
-285 -289 0
-286 -287 0
-286 -288 0
-286 -289 0
-287 -288 0
-287 -289 0
-288 -289 0
290 291 292 293 294 295 296 297 298 299 300 301 302 303 304 0
-290 -291 0
-290 -292 0
-290 -293 0
-290 -294 0
-290 -295 0
-290 -296 0
-290 -297 0
-290 -298 0
-290 -299 0
-290 -300 0
-290 -301 0
-290 -302 0
-290 -303 0
-290 -304 0
-291 -292 0
-291 -293 0
-291 -294 0
-291 -295 0
-291 -296 0
-291 -297 0
-291 -298 0
-291 -299 0
-291 -300 0
-291 -301 0
-291 -302 0
-291 -303 0
-291 -304 0
-292 -293 0
-292 -294 0
-292 -295 0
-292 -296 0
-292 -297 0
-292 -298 0
-292 -299 0
-292 -300 0
-292 -301 0
-292 -302 0
-292 -303 0
-292 -304 0
-293 -294 0
-293 -295 0
-293 -296 0
-293 -297 0
-293 -298 0
-293 -299 0
-293 -300 0
-293 -301 0
-293 -302 0
-293 -303 0
-293 -304 0
-294 -295 0
-294 -296 0
-294 -297 0
-294 -298 0
-294 -299 0
-294 -300 0
-294 -301 0
-294 -302 0
-294 -303 0
-294 -304 0
-295 -296 0
-295 -297 0
-295 -298 0
-295 -299 0
-295 -300 0
-295 -301 0
-295 -302 0
-295 -303 0
-295 -304 0
-296 -297 0
-296 -298 0
-296 -299 0
-296 -300 0
-296 -301 0
-296 -302 0
-296 -303 0
-296 -304 0
-297 -298 0
-297 -299 0
-297 -300 0
-297 -301 0
-297 -302 0
-297 -303 0
-297 -304 0
-298 -299 0
-298 -300 0
-298 -301 0
-298 -302 0
-298 -303 0
-298 -304 0
-299 -300 0
-299 -301 0
-299 -302 0
-299 -303 0
-299 -304 0
-300 -301 0
-300 -302 0
-300 -303 0
-300 -304 0
-301 -302 0
-301 -303 0
-301 -304 0
-302 -303 0
-302 -304 0
-303 -304 0
-275 -290 0
-276 -290 0
-276 -291 0
-277 -290 0
-277 -291 0
-277 -292 0
-278 -290 0
-278 -291 0
-278 -292 0
-278 -293 0
-279 -290 0
-279 -291 0
-279 -292 0
-279 -293 0
-279 -294 0
-280 -290 0
-280 -291 0
-280 -292 0
-280 -293 0
-280 -294 0
-280 -295 0
-281 -290 0
-281 -291 0
-281 -292 0
-281 -293 0
-281 -294 0
-281 -295 0
-281 -296 0
-282 -290 0
-282 -291 0
-282 -292 0
-282 -293 0
-282 -294 0
-282 -295 0
-282 -296 0
-282 -297 0
-283 -290 0
-283 -291 0
-283 -292 0
-283 -293 0
-283 -294 0
-283 -295 0
-283 -296 0
-283 -297 0
-283 -298 0
-284 -290 0
-284 -291 0
-284 -292 0
-284 -293 0
-284 -294 0
-284 -295 0
-284 -296 0
-284 -297 0
-284 -298 0
-284 -299 0
-285 -290 0
-285 -291 0
-285 -292 0
-285 -293 0
-285 -294 0
-285 -295 0
-285 -296 0
-285 -297 0
-285 -298 0
-285 -299 0
-285 -300 0
-286 -290 0
-286 -291 0
-286 -292 0
-286 -293 0
-286 -294 0
-286 -295 0
-286 -296 0
-286 -297 0
-286 -298 0
-286 -299 0
-286 -300 0
-286 -301 0
-287 -290 0
-287 -291 0
-287 -292 0
-287 -293 0
-287 -294 0
-287 -295 0
-287 -296 0
-287 -297 0
-287 -298 0
-287 -299 0
-287 -300 0
-287 -301 0
-287 -302 0
-288 -290 0
-288 -291 0
-288 -292 0
-288 -293 0
-288 -294 0
-288 -295 0
-288 -296 0
-288 -297 0
-288 -298 0
-288 -299 0
-288 -300 0
-288 -301 0
-288 -302 0
-288 -303 0
-289 -290 0
-289 -291 0
-289 -292 0
-289 -293 0
-289 -294 0
-289 -295 0
-289 -296 0
-289 -297 0
-289 -298 0
-289 -299 0
-289 -300 0
-289 -301 0
-289 -302 0
-289 -303 0
-289 -304 0
-275 -291 -1 -9 -305 0
-275 -291 -1 9 305 0
-275 -291 1 -9 305 0
-275 -291 1 9 -305 0
-275 -291 -2 -10 -306 0
-275 -291 -2 10 306 0
-275 -291 2 -10 306 0
-275 -291 2 10 -306 0
-275 -291 -3 -11 -307 0
-275 -291 -3 11 307 0
-275 -291 3 -11 307 0
-275 -291 3 11 -307 0
-275 -291 -4 -12 -308 0
-275 -291 -4 12 308 0
-275 -291 4 -12 308 0
-275 -291 4 12 -308 0
-275 -291 -5 -13 -309 0
-275 -291 -5 13 309 0
-275 -291 5 -13 309 0
-275 -291 5 13 -309 0
-275 -291 -6 -14 -310 0
-275 -291 -6 14 310 0
-275 -291 6 -14 310 0
-275 -291 6 14 -310 0
-275 -291 -7 -15 -311 0
-275 -291 -7 15 311 0
-275 -291 7 -15 311 0
-275 -291 7 15 -311 0
-275 -291 -8 -16 -312 0
-275 -291 -8 16 312 0
-275 -291 8 -16 312 0
-275 -291 8 16 -312 0
-275 -292 -1 -17 -305 0
-275 -292 -1 17 305 0
-275 -292 1 -17 305 0
-275 -292 1 17 -305 0
-275 -292 -2 -18 -306 0
-275 -292 -2 18 306 0
-275 -292 2 -18 306 0
-275 -292 2 18 -306 0
-275 -292 -3 -19 -307 0
-275 -292 -3 19 307 0
-275 -292 3 -19 307 0
-275 -292 3 19 -307 0
-275 -292 -4 -20 -308 0
-275 -292 -4 20 308 0
-275 -292 4 -20 308 0
-275 -292 4 20 -308 0
-275 -292 -5 -21 -309 0
-275 -292 -5 21 309 0
-275 -292 5 -21 309 0
-275 -292 5 21 -309 0
-275 -292 -6 -22 -310 0
-275 -292 -6 22 310 0
-275 -292 6 -22 310 0
-275 -292 6 22 -310 0
-275 -292 -7 -23 -311 0
-275 -292 -7 23 311 0
-275 -292 7 -23 311 0
-275 -292 7 23 -311 0
-275 -292 -8 -24 -312 0
-275 -292 -8 24 312 0
-275 -292 8 -24 312 0
-275 -292 8 24 -312 0
-275 -293 -1 -25 -305 0
-275 -293 -1 25 305 0
-275 -293 1 -25 305 0
-275 -293 1 25 -305 0
-275 -293 -2 -26 -306 0
-275 -293 -2 26 306 0
-275 -293 2 -26 306 0
-275 -293 2 26 -306 0
-275 -293 -3 -27 -307 0
-275 -293 -3 27 307 0
-275 -293 3 -27 307 0
-275 -293 3 27 -307 0
-275 -293 -4 -28 -308 0
-275 -293 -4 28 308 0
-275 -293 4 -28 308 0
-275 -293 4 28 -308 0
-275 -293 -5 -29 -309 0
-275 -293 -5 29 309 0
-275 -293 5 -29 309 0
-275 -293 5 29 -309 0
-275 -293 -6 -30 -310 0
-275 -293 -6 30 310 0
-275 -293 6 -30 310 0
-275 -293 6 30 -310 0
-275 -293 -7 -31 -311 0
-275 -293 -7 31 311 0
-275 -293 7 -31 311 0
-275 -293 7 31 -311 0
-275 -293 -8 -32 -312 0
-275 -293 -8 32 312 0
-275 -293 8 -32 312 0
-275 -293 8 32 -312 0
-275 -294 -1 -33 -305 0
-275 -294 -1 33 305 0
-275 -294 1 -33 305 0
-275 -294 1 33 -305 0
-275 -294 -2 -34 -306 0
-275 -294 -2 34 306 0
-275 -294 2 -34 306 0
-275 -294 2 34 -306 0
-275 -294 -3 -35 -307 0
-275 -294 -3 35 307 0
-275 -294 3 -35 307 0
-275 -294 3 35 -307 0
-275 -294 -4 -36 -308 0
-275 -294 -4 36 308 0
-275 -294 4 -36 308 0
-275 -294 4 36 -308 0
-275 -294 -5 -37 -309 0
-275 -294 -5 37 309 0
-275 -294 5 -37 309 0
-275 -294 5 37 -309 0
-275 -294 -6 -38 -310 0
-275 -294 -6 38 310 0
-275 -294 6 -38 310 0
-275 -294 6 38 -310 0
-275 -294 -7 -39 -311 0
-275 -294 -7 39 311 0
-275 -294 7 -39 311 0
-275 -294 7 39 -311 0
-275 -294 -8 -40 -312 0
-275 -294 -8 40 312 0
-275 -294 8 -40 312 0
-275 -294 8 40 -312 0
-275 -295 -1 -41 -305 0
-275 -295 -1 41 305 0
-275 -295 1 -41 305 0
-275 -295 1 41 -305 0
-275 -295 -2 -42 -306 0
-275 -295 -2 42 306 0
-275 -295 2 -42 306 0
-275 -295 2 42 -306 0
-275 -295 -3 -43 -307 0
-275 -295 -3 43 307 0
-275 -295 3 -43 307 0
-275 -295 3 43 -307 0
-275 -295 -4 -44 -308 0
-275 -295 -4 44 308 0
-275 -295 4 -44 308 0
-275 -295 4 44 -308 0
-275 -295 -5 -45 -309 0
-275 -295 -5 45 309 0
-275 -295 5 -45 309 0
-275 -295 5 45 -309 0
-275 -295 -6 -46 -310 0
-275 -295 -6 46 310 0
-275 -295 6 -46 310 0
-275 -295 6 46 -310 0
-275 -295 -7 -47 -311 0
-275 -295 -7 47 311 0
-275 -295 7 -47 311 0
-275 -295 7 47 -311 0
-275 -295 -8 -48 -312 0
-275 -295 -8 48 312 0
-275 -295 8 -48 312 0
-275 -295 8 48 -312 0
-275 -296 -1 -49 -305 0
-275 -296 -1 49 305 0
-275 -296 1 -49 305 0
-275 -296 1 49 -305 0
-275 -296 -2 -50 -306 0
-275 -296 -2 50 306 0
-275 -296 2 -50 306 0
-275 -296 2 50 -306 0
-275 -296 -3 -51 -307 0
-275 -296 -3 51 307 0
-275 -296 3 -51 307 0
-275 -296 3 51 -307 0
-275 -296 -4 -52 -308 0
-275 -296 -4 52 308 0
-275 -296 4 -52 308 0
-275 -296 4 52 -308 0
-275 -296 -5 -53 -309 0
-275 -296 -5 53 309 0
-275 -296 5 -53 309 0
-275 -296 5 53 -309 0
-275 -296 -6 -54 -310 0
-275 -296 -6 54 310 0
-275 -296 6 -54 310 0
-275 -296 6 54 -310 0
-275 -296 -7 -55 -311 0
-275 -296 -7 55 311 0
-275 -296 7 -55 311 0
-275 -296 7 55 -311 0
-275 -296 -8 -56 -312 0
-275 -296 -8 56 312 0
-275 -296 8 -56 312 0
-275 -296 8 56 -312 0
-275 -297 -1 -57 -305 0
-275 -297 -1 57 305 0
-275 -297 1 -57 305 0
-275 -297 1 57 -305 0
-275 -297 -2 -58 -306 0
-275 -297 -2 58 306 0
-275 -297 2 -58 306 0
-275 -297 2 58 -306 0
-275 -297 -3 -59 -307 0
-275 -297 -3 59 307 0
-275 -297 3 -59 307 0
-275 -297 3 59 -307 0
-275 -297 -4 -60 -308 0
-275 -297 -4 60 308 0
-275 -297 4 -60 308 0
-275 -297 4 60 -308 0
-275 -297 -5 -61 -309 0
-275 -297 -5 61 309 0
-275 -297 5 -61 309 0
-275 -297 5 61 -309 0
-275 -297 -6 -62 -310 0
-275 -297 -6 62 310 0
-275 -297 6 -62 310 0
-275 -297 6 62 -310 0
-275 -297 -7 -63 -311 0
-275 -297 -7 63 311 0
-275 -297 7 -63 311 0
-275 -297 7 63 -311 0
-275 -297 -8 -64 -312 0
-275 -297 -8 64 312 0
-275 -297 8 -64 312 0
-275 -297 8 64 -312 0
-275 -298 -1 -81 -305 0
-275 -298 -1 81 305 0
-275 -298 1 -81 305 0
-275 -298 1 81 -305 0
-275 -298 -2 -82 -306 0
-275 -298 -2 82 306 0
-275 -298 2 -82 306 0
-275 -298 2 82 -306 0
-275 -298 -3 -83 -307 0
-275 -298 -3 83 307 0
-275 -298 3 -83 307 0
-275 -298 3 83 -307 0
-275 -298 -4 -84 -308 0
-275 -298 -4 84 308 0
-275 -298 4 -84 308 0
-275 -298 4 84 -308 0
-275 -298 -5 -85 -309 0
-275 -298 -5 85 309 0
-275 -298 5 -85 309 0
-275 -298 5 85 -309 0
-275 -298 -6 -86 -310 0
-275 -298 -6 86 310 0
-275 -298 6 -86 310 0
-275 -298 6 86 -310 0
-275 -298 -7 -87 -311 0
-275 -298 -7 87 311 0
-275 -298 7 -87 311 0
-275 -298 7 87 -311 0
-275 -298 -8 -88 -312 0
-275 -298 -8 88 312 0
-275 -298 8 -88 312 0
-275 -298 8 88 -312 0
-275 -299 -1 -107 -305 0
-275 -299 -1 107 305 0
-275 -299 1 -107 305 0
-275 -299 1 107 -305 0
-275 -299 -2 -108 -306 0
-275 -299 -2 108 306 0
-275 -299 2 -108 306 0
-275 -299 2 108 -306 0
-275 -299 -3 -109 -307 0
-275 -299 -3 109 307 0
-275 -299 3 -109 307 0
-275 -299 3 109 -307 0
-275 -299 -4 -110 -308 0
-275 -299 -4 110 308 0
-275 -299 4 -110 308 0
-275 -299 4 110 -308 0
-275 -299 -5 -111 -309 0
-275 -299 -5 111 309 0
-275 -299 5 -111 309 0
-275 -299 5 111 -309 0
-275 -299 -6 -112 -310 0
-275 -299 -6 112 310 0
-275 -299 6 -112 310 0
-275 -299 6 112 -310 0
-275 -299 -7 -113 -311 0
-275 -299 -7 113 311 0
-275 -299 7 -113 311 0
-275 -299 7 113 -311 0
-275 -299 -8 -114 -312 0
-275 -299 -8 114 312 0
-275 -299 8 -114 312 0
-275 -299 8 114 -312 0
-275 -300 -1 -135 -305 0
-275 -300 -1 135 305 0
-275 -300 1 -135 305 0
-275 -300 1 135 -305 0
-275 -300 -2 -136 -306 0
-275 -300 -2 136 306 0
-275 -300 2 -136 306 0
-275 -300 2 136 -306 0
-275 -300 -3 -137 -307 0
-275 -300 -3 137 307 0
-275 -300 3 -137 307 0
-275 -300 3 137 -307 0
-275 -300 -4 -138 -308 0
-275 -300 -4 138 308 0
-275 -300 4 -138 308 0
-275 -300 4 138 -308 0
-275 -300 -5 -139 -309 0
-275 -300 -5 139 309 0
-275 -300 5 -139 309 0
-275 -300 5 139 -309 0
-275 -300 -6 -140 -310 0
-275 -300 -6 140 310 0
-275 -300 6 -140 310 0
-275 -300 6 140 -310 0
-275 -300 -7 -141 -311 0
-275 -300 -7 141 311 0
-275 -300 7 -141 311 0
-275 -300 7 141 -311 0
-275 -300 -8 -142 -312 0
-275 -300 -8 142 312 0
-275 -300 8 -142 312 0
-275 -300 8 142 -312 0
-275 -301 -1 -165 -305 0
-275 -301 -1 165 305 0
-275 -301 1 -165 305 0
-275 -301 1 165 -305 0
-275 -301 -2 -166 -306 0
-275 -301 -2 166 306 0
-275 -301 2 -166 306 0
-275 -301 2 166 -306 0
-275 -301 -3 -167 -307 0
-275 -301 -3 167 307 0
-275 -301 3 -167 307 0
-275 -301 3 167 -307 0
-275 -301 -4 -168 -308 0
-275 -301 -4 168 308 0
-275 -301 4 -168 308 0
-275 -301 4 168 -308 0
-275 -301 -5 -169 -309 0
-275 -301 -5 169 309 0
-275 -301 5 -169 309 0
-275 -301 5 169 -309 0
-275 -301 -6 -170 -310 0
-275 -301 -6 170 310 0
-275 -301 6 -170 310 0
-275 -301 6 170 -310 0
-275 -301 -7 -171 -311 0
-275 -301 -7 171 311 0
-275 -301 7 -171 311 0
-275 -301 7 171 -311 0
-275 -301 -8 -172 -312 0
-275 -301 -8 172 312 0
-275 -301 8 -172 312 0
-275 -301 8 172 -312 0
-275 -302 -1 -197 -305 0
-275 -302 -1 197 305 0
-275 -302 1 -197 305 0
-275 -302 1 197 -305 0
-275 -302 -2 -198 -306 0
-275 -302 -2 198 306 0
-275 -302 2 -198 306 0
-275 -302 2 198 -306 0
-275 -302 -3 -199 -307 0
-275 -302 -3 199 307 0
-275 -302 3 -199 307 0
-275 -302 3 199 -307 0
-275 -302 -4 -200 -308 0
-275 -302 -4 200 308 0
-275 -302 4 -200 308 0
-275 -302 4 200 -308 0
-275 -302 -5 -201 -309 0
-275 -302 -5 201 309 0
-275 -302 5 -201 309 0
-275 -302 5 201 -309 0
-275 -302 -6 -202 -310 0
-275 -302 -6 202 310 0
-275 -302 6 -202 310 0
-275 -302 6 202 -310 0
-275 -302 -7 -203 -311 0
-275 -302 -7 203 311 0
-275 -302 7 -203 311 0
-275 -302 7 203 -311 0
-275 -302 -8 -204 -312 0
-275 -302 -8 204 312 0
-275 -302 8 -204 312 0
-275 -302 8 204 -312 0
-275 -303 -1 -231 -305 0
-275 -303 -1 231 305 0
-275 -303 1 -231 305 0
-275 -303 1 231 -305 0
-275 -303 -2 -232 -306 0
-275 -303 -2 232 306 0
-275 -303 2 -232 306 0
-275 -303 2 232 -306 0
-275 -303 -3 -233 -307 0
-275 -303 -3 233 307 0
-275 -303 3 -233 307 0
-275 -303 3 233 -307 0
-275 -303 -4 -234 -308 0
-275 -303 -4 234 308 0
-275 -303 4 -234 308 0
-275 -303 4 234 -308 0
-275 -303 -5 -235 -309 0
-275 -303 -5 235 309 0
-275 -303 5 -235 309 0
-275 -303 5 235 -309 0
-275 -303 -6 -236 -310 0
-275 -303 -6 236 310 0
-275 -303 6 -236 310 0
-275 -303 6 236 -310 0
-275 -303 -7 -237 -311 0
-275 -303 -7 237 311 0
-275 -303 7 -237 311 0
-275 -303 7 237 -311 0
-275 -303 -8 -238 -312 0
-275 -303 -8 238 312 0
-275 -303 8 -238 312 0
-275 -303 8 238 -312 0
-275 -304 -1 -267 -305 0
-275 -304 -1 267 305 0
-275 -304 1 -267 305 0
-275 -304 1 267 -305 0
-275 -304 -2 -268 -306 0
-275 -304 -2 268 306 0
-275 -304 2 -268 306 0
-275 -304 2 268 -306 0
-275 -304 -3 -269 -307 0
-275 -304 -3 269 307 0
-275 -304 3 -269 307 0
-275 -304 3 269 -307 0
-275 -304 -4 -270 -308 0
-275 -304 -4 270 308 0
-275 -304 4 -270 308 0
-275 -304 4 270 -308 0
-275 -304 -5 -271 -309 0
-275 -304 -5 271 309 0
-275 -304 5 -271 309 0
-275 -304 5 271 -309 0
-275 -304 -6 -272 -310 0
-275 -304 -6 272 310 0
-275 -304 6 -272 310 0
-275 -304 6 272 -310 0
-275 -304 -7 -273 -311 0
-275 -304 -7 273 311 0
-275 -304 7 -273 311 0
-275 -304 7 273 -311 0
-275 -304 -8 -274 -312 0
-275 -304 -8 274 312 0
-275 -304 8 -274 312 0
-275 -304 8 274 -312 0
-276 -292 -9 -17 -305 0
-276 -292 -9 17 305 0
-276 -292 9 -17 305 0
-276 -292 9 17 -305 0
-276 -292 -10 -18 -306 0
-276 -292 -10 18 306 0
-276 -292 10 -18 306 0
-276 -292 10 18 -306 0
-276 -292 -11 -19 -307 0
-276 -292 -11 19 307 0
-276 -292 11 -19 307 0
-276 -292 11 19 -307 0
-276 -292 -12 -20 -308 0
-276 -292 -12 20 308 0
-276 -292 12 -20 308 0
-276 -292 12 20 -308 0
-276 -292 -13 -21 -309 0
-276 -292 -13 21 309 0
-276 -292 13 -21 309 0
-276 -292 13 21 -309 0
-276 -292 -14 -22 -310 0
-276 -292 -14 22 310 0
-276 -292 14 -22 310 0
-276 -292 14 22 -310 0
-276 -292 -15 -23 -311 0
-276 -292 -15 23 311 0
-276 -292 15 -23 311 0
-276 -292 15 23 -311 0
-276 -292 -16 -24 -312 0
-276 -292 -16 24 312 0
-276 -292 16 -24 312 0
-276 -292 16 24 -312 0
-276 -293 -9 -25 -305 0
-276 -293 -9 25 305 0
-276 -293 9 -25 305 0
-276 -293 9 25 -305 0
-276 -293 -10 -26 -306 0
-276 -293 -10 26 306 0
-276 -293 10 -26 306 0
-276 -293 10 26 -306 0
-276 -293 -11 -27 -307 0
-276 -293 -11 27 307 0
-276 -293 11 -27 307 0
-276 -293 11 27 -307 0
-276 -293 -12 -28 -308 0
-276 -293 -12 28 308 0
-276 -293 12 -28 308 0
-276 -293 12 28 -308 0
-276 -293 -13 -29 -309 0
-276 -293 -13 29 309 0
-276 -293 13 -29 309 0
-276 -293 13 29 -309 0
-276 -293 -14 -30 -310 0
-276 -293 -14 30 310 0
-276 -293 14 -30 310 0
-276 -293 14 30 -310 0
-276 -293 -15 -31 -311 0
-276 -293 -15 31 311 0
-276 -293 15 -31 311 0
-276 -293 15 31 -311 0
-276 -293 -16 -32 -312 0
-276 -293 -16 32 312 0
-276 -293 16 -32 312 0
-276 -293 16 32 -312 0
-276 -294 -9 -33 -305 0
-276 -294 -9 33 305 0
-276 -294 9 -33 305 0
-276 -294 9 33 -305 0
-276 -294 -10 -34 -306 0
-276 -294 -10 34 306 0
-276 -294 10 -34 306 0
-276 -294 10 34 -306 0
-276 -294 -11 -35 -307 0
-276 -294 -11 35 307 0
-276 -294 11 -35 307 0
-276 -294 11 35 -307 0
-276 -294 -12 -36 -308 0
-276 -294 -12 36 308 0
-276 -294 12 -36 308 0
-276 -294 12 36 -308 0
-276 -294 -13 -37 -309 0
-276 -294 -13 37 309 0
-276 -294 13 -37 309 0
-276 -294 13 37 -309 0
-276 -294 -14 -38 -310 0
-276 -294 -14 38 310 0
-276 -294 14 -38 310 0
-276 -294 14 38 -310 0
-276 -294 -15 -39 -311 0
-276 -294 -15 39 311 0
-276 -294 15 -39 311 0
-276 -294 15 39 -311 0
-276 -294 -16 -40 -312 0
-276 -294 -16 40 312 0
-276 -294 16 -40 312 0
-276 -294 16 40 -312 0
-276 -295 -9 -41 -305 0
-276 -295 -9 41 305 0
-276 -295 9 -41 305 0
-276 -295 9 41 -305 0
-276 -295 -10 -42 -306 0
-276 -295 -10 42 306 0
-276 -295 10 -42 306 0
-276 -295 10 42 -306 0
-276 -295 -11 -43 -307 0
-276 -295 -11 43 307 0
-276 -295 11 -43 307 0
-276 -295 11 43 -307 0
-276 -295 -12 -44 -308 0
-276 -295 -12 44 308 0
-276 -295 12 -44 308 0
-276 -295 12 44 -308 0
-276 -295 -13 -45 -309 0
-276 -295 -13 45 309 0
-276 -295 13 -45 309 0
-276 -295 13 45 -309 0
-276 -295 -14 -46 -310 0
-276 -295 -14 46 310 0
-276 -295 14 -46 310 0
-276 -295 14 46 -310 0
-276 -295 -15 -47 -311 0
-276 -295 -15 47 311 0
-276 -295 15 -47 311 0
-276 -295 15 47 -311 0
-276 -295 -16 -48 -312 0
-276 -295 -16 48 312 0
-276 -295 16 -48 312 0
-276 -295 16 48 -312 0
-276 -296 -9 -49 -305 0
-276 -296 -9 49 305 0
-276 -296 9 -49 305 0
-276 -296 9 49 -305 0
-276 -296 -10 -50 -306 0
-276 -296 -10 50 306 0
-276 -296 10 -50 306 0
-276 -296 10 50 -306 0
-276 -296 -11 -51 -307 0
-276 -296 -11 51 307 0
-276 -296 11 -51 307 0
-276 -296 11 51 -307 0
-276 -296 -12 -52 -308 0
-276 -296 -12 52 308 0
-276 -296 12 -52 308 0
-276 -296 12 52 -308 0
-276 -296 -13 -53 -309 0
-276 -296 -13 53 309 0
-276 -296 13 -53 309 0
-276 -296 13 53 -309 0
-276 -296 -14 -54 -310 0
-276 -296 -14 54 310 0
-276 -296 14 -54 310 0
-276 -296 14 54 -310 0
-276 -296 -15 -55 -311 0
-276 -296 -15 55 311 0
-276 -296 15 -55 311 0
-276 -296 15 55 -311 0
-276 -296 -16 -56 -312 0
-276 -296 -16 56 312 0
-276 -296 16 -56 312 0
-276 -296 16 56 -312 0
-276 -297 -9 -57 -305 0
-276 -297 -9 57 305 0
-276 -297 9 -57 305 0
-276 -297 9 57 -305 0
-276 -297 -10 -58 -306 0
-276 -297 -10 58 306 0
-276 -297 10 -58 306 0
-276 -297 10 58 -306 0
-276 -297 -11 -59 -307 0
-276 -297 -11 59 307 0
-276 -297 11 -59 307 0
-276 -297 11 59 -307 0
-276 -297 -12 -60 -308 0
-276 -297 -12 60 308 0
-276 -297 12 -60 308 0
-276 -297 12 60 -308 0
-276 -297 -13 -61 -309 0
-276 -297 -13 61 309 0
-276 -297 13 -61 309 0
-276 -297 13 61 -309 0
-276 -297 -14 -62 -310 0
-276 -297 -14 62 310 0
-276 -297 14 -62 310 0
-276 -297 14 62 -310 0
-276 -297 -15 -63 -311 0
-276 -297 -15 63 311 0
-276 -297 15 -63 311 0
-276 -297 15 63 -311 0
-276 -297 -16 -64 -312 0
-276 -297 -16 64 312 0
-276 -297 16 -64 312 0
-276 -297 16 64 -312 0
-276 -298 -9 -81 -305 0
-276 -298 -9 81 305 0
-276 -298 9 -81 305 0
-276 -298 9 81 -305 0
-276 -298 -10 -82 -306 0
-276 -298 -10 82 306 0
-276 -298 10 -82 306 0
-276 -298 10 82 -306 0
-276 -298 -11 -83 -307 0
-276 -298 -11 83 307 0
-276 -298 11 -83 307 0
-276 -298 11 83 -307 0
-276 -298 -12 -84 -308 0
-276 -298 -12 84 308 0
-276 -298 12 -84 308 0
-276 -298 12 84 -308 0
-276 -298 -13 -85 -309 0
-276 -298 -13 85 309 0
-276 -298 13 -85 309 0
-276 -298 13 85 -309 0
-276 -298 -14 -86 -310 0
-276 -298 -14 86 310 0
-276 -298 14 -86 310 0
-276 -298 14 86 -310 0
-276 -298 -15 -87 -311 0
-276 -298 -15 87 311 0
-276 -298 15 -87 311 0
-276 -298 15 87 -311 0
-276 -298 -16 -88 -312 0
-276 -298 -16 88 312 0
-276 -298 16 -88 312 0
-276 -298 16 88 -312 0
-276 -299 -9 -107 -305 0
-276 -299 -9 107 305 0
-276 -299 9 -107 305 0
-276 -299 9 107 -305 0
-276 -299 -10 -108 -306 0
-276 -299 -10 108 306 0
-276 -299 10 -108 306 0
-276 -299 10 108 -306 0
-276 -299 -11 -109 -307 0
-276 -299 -11 109 307 0
-276 -299 11 -109 307 0
-276 -299 11 109 -307 0
-276 -299 -12 -110 -308 0
-276 -299 -12 110 308 0
-276 -299 12 -110 308 0
-276 -299 12 110 -308 0
-276 -299 -13 -111 -309 0
-276 -299 -13 111 309 0
-276 -299 13 -111 309 0
-276 -299 13 111 -309 0
-276 -299 -14 -112 -310 0
-276 -299 -14 112 310 0
-276 -299 14 -112 310 0
-276 -299 14 112 -310 0
-276 -299 -15 -113 -311 0
-276 -299 -15 113 311 0
-276 -299 15 -113 311 0
-276 -299 15 113 -311 0
-276 -299 -16 -114 -312 0
-276 -299 -16 114 312 0
-276 -299 16 -114 312 0
-276 -299 16 114 -312 0
-276 -300 -9 -135 -305 0
-276 -300 -9 135 305 0
-276 -300 9 -135 305 0
-276 -300 9 135 -305 0
-276 -300 -10 -136 -306 0
-276 -300 -10 136 306 0
-276 -300 10 -136 306 0
-276 -300 10 136 -306 0
-276 -300 -11 -137 -307 0
-276 -300 -11 137 307 0
-276 -300 11 -137 307 0
-276 -300 11 137 -307 0
-276 -300 -12 -138 -308 0
-276 -300 -12 138 308 0
-276 -300 12 -138 308 0
-276 -300 12 138 -308 0
-276 -300 -13 -139 -309 0
-276 -300 -13 139 309 0
-276 -300 13 -139 309 0
-276 -300 13 139 -309 0
-276 -300 -14 -140 -310 0
-276 -300 -14 140 310 0
-276 -300 14 -140 310 0
-276 -300 14 140 -310 0
-276 -300 -15 -141 -311 0
-276 -300 -15 141 311 0
-276 -300 15 -141 311 0
-276 -300 15 141 -311 0
-276 -300 -16 -142 -312 0
-276 -300 -16 142 312 0
-276 -300 16 -142 312 0
-276 -300 16 142 -312 0
-276 -301 -9 -165 -305 0
-276 -301 -9 165 305 0
-276 -301 9 -165 305 0
-276 -301 9 165 -305 0
-276 -301 -10 -166 -306 0
-276 -301 -10 166 306 0
-276 -301 10 -166 306 0
-276 -301 10 166 -306 0
-276 -301 -11 -167 -307 0
-276 -301 -11 167 307 0
-276 -301 11 -167 307 0
-276 -301 11 167 -307 0
-276 -301 -12 -168 -308 0
-276 -301 -12 168 308 0
-276 -301 12 -168 308 0
-276 -301 12 168 -308 0
-276 -301 -13 -169 -309 0
-276 -301 -13 169 309 0
-276 -301 13 -169 309 0
-276 -301 13 169 -309 0
-276 -301 -14 -170 -310 0
-276 -301 -14 170 310 0
-276 -301 14 -170 310 0
-276 -301 14 170 -310 0
-276 -301 -15 -171 -311 0
-276 -301 -15 171 311 0
-276 -301 15 -171 311 0
-276 -301 15 171 -311 0
-276 -301 -16 -172 -312 0
-276 -301 -16 172 312 0
-276 -301 16 -172 312 0
-276 -301 16 172 -312 0
-276 -302 -9 -197 -305 0
-276 -302 -9 197 305 0
-276 -302 9 -197 305 0
-276 -302 9 197 -305 0
-276 -302 -10 -198 -306 0
-276 -302 -10 198 306 0
-276 -302 10 -198 306 0
-276 -302 10 198 -306 0
-276 -302 -11 -199 -307 0
-276 -302 -11 199 307 0
-276 -302 11 -199 307 0
-276 -302 11 199 -307 0
-276 -302 -12 -200 -308 0
-276 -302 -12 200 308 0
-276 -302 12 -200 308 0
-276 -302 12 200 -308 0
-276 -302 -13 -201 -309 0
-276 -302 -13 201 309 0
-276 -302 13 -201 309 0
-276 -302 13 201 -309 0
-276 -302 -14 -202 -310 0
-276 -302 -14 202 310 0
-276 -302 14 -202 310 0
-276 -302 14 202 -310 0
-276 -302 -15 -203 -311 0
-276 -302 -15 203 311 0
-276 -302 15 -203 311 0
-276 -302 15 203 -311 0
-276 -302 -16 -204 -312 0
-276 -302 -16 204 312 0
-276 -302 16 -204 312 0
-276 -302 16 204 -312 0
-276 -303 -9 -231 -305 0
-276 -303 -9 231 305 0
-276 -303 9 -231 305 0
-276 -303 9 231 -305 0
-276 -303 -10 -232 -306 0
-276 -303 -10 232 306 0
-276 -303 10 -232 306 0
-276 -303 10 232 -306 0
-276 -303 -11 -233 -307 0
-276 -303 -11 233 307 0
-276 -303 11 -233 307 0
-276 -303 11 233 -307 0
-276 -303 -12 -234 -308 0
-276 -303 -12 234 308 0
-276 -303 12 -234 308 0
-276 -303 12 234 -308 0
-276 -303 -13 -235 -309 0
-276 -303 -13 235 309 0
-276 -303 13 -235 309 0
-276 -303 13 235 -309 0
-276 -303 -14 -236 -310 0
-276 -303 -14 236 310 0
-276 -303 14 -236 310 0
-276 -303 14 236 -310 0
-276 -303 -15 -237 -311 0
-276 -303 -15 237 311 0
-276 -303 15 -237 311 0
-276 -303 15 237 -311 0
-276 -303 -16 -238 -312 0
-276 -303 -16 238 312 0
-276 -303 16 -238 312 0
-276 -303 16 238 -312 0
-276 -304 -9 -267 -305 0
-276 -304 -9 267 305 0
-276 -304 9 -267 305 0
-276 -304 9 267 -305 0
-276 -304 -10 -268 -306 0
-276 -304 -10 268 306 0
-276 -304 10 -268 306 0
-276 -304 10 268 -306 0
-276 -304 -11 -269 -307 0
-276 -304 -11 269 307 0
-276 -304 11 -269 307 0
-276 -304 11 269 -307 0
-276 -304 -12 -270 -308 0
-276 -304 -12 270 308 0
-276 -304 12 -270 308 0
-276 -304 12 270 -308 0
-276 -304 -13 -271 -309 0
-276 -304 -13 271 309 0
-276 -304 13 -271 309 0
-276 -304 13 271 -309 0
-276 -304 -14 -272 -310 0
-276 -304 -14 272 310 0
-276 -304 14 -272 310 0
-276 -304 14 272 -310 0
-276 -304 -15 -273 -311 0
-276 -304 -15 273 311 0
-276 -304 15 -273 311 0
-276 -304 15 273 -311 0
-276 -304 -16 -274 -312 0
-276 -304 -16 274 312 0
-276 -304 16 -274 312 0
-276 -304 16 274 -312 0
-277 -293 -17 -25 -305 0
-277 -293 -17 25 305 0
-277 -293 17 -25 305 0
-277 -293 17 25 -305 0
-277 -293 -18 -26 -306 0
-277 -293 -18 26 306 0
-277 -293 18 -26 306 0
-277 -293 18 26 -306 0
-277 -293 -19 -27 -307 0
-277 -293 -19 27 307 0
-277 -293 19 -27 307 0
-277 -293 19 27 -307 0
-277 -293 -20 -28 -308 0
-277 -293 -20 28 308 0
-277 -293 20 -28 308 0
-277 -293 20 28 -308 0
-277 -293 -21 -29 -309 0
-277 -293 -21 29 309 0
-277 -293 21 -29 309 0
-277 -293 21 29 -309 0
-277 -293 -22 -30 -310 0
-277 -293 -22 30 310 0
-277 -293 22 -30 310 0
-277 -293 22 30 -310 0
-277 -293 -23 -31 -311 0
-277 -293 -23 31 311 0
-277 -293 23 -31 311 0
-277 -293 23 31 -311 0
-277 -293 -24 -32 -312 0
-277 -293 -24 32 312 0
-277 -293 24 -32 312 0
-277 -293 24 32 -312 0
-277 -294 -17 -33 -305 0
-277 -294 -17 33 305 0
-277 -294 17 -33 305 0
-277 -294 17 33 -305 0
-277 -294 -18 -34 -306 0
-277 -294 -18 34 306 0
-277 -294 18 -34 306 0
-277 -294 18 34 -306 0
-277 -294 -19 -35 -307 0
-277 -294 -19 35 307 0
-277 -294 19 -35 307 0
-277 -294 19 35 -307 0
-277 -294 -20 -36 -308 0
-277 -294 -20 36 308 0
-277 -294 20 -36 308 0
-277 -294 20 36 -308 0
-277 -294 -21 -37 -309 0
-277 -294 -21 37 309 0
-277 -294 21 -37 309 0
-277 -294 21 37 -309 0
-277 -294 -22 -38 -310 0
-277 -294 -22 38 310 0
-277 -294 22 -38 310 0
-277 -294 22 38 -310 0
-277 -294 -23 -39 -311 0
-277 -294 -23 39 311 0
-277 -294 23 -39 311 0
-277 -294 23 39 -311 0
-277 -294 -24 -40 -312 0
-277 -294 -24 40 312 0
-277 -294 24 -40 312 0
-277 -294 24 40 -312 0
-277 -295 -17 -41 -305 0
-277 -295 -17 41 305 0
-277 -295 17 -41 305 0
-277 -295 17 41 -305 0
-277 -295 -18 -42 -306 0
-277 -295 -18 42 306 0
-277 -295 18 -42 306 0
-277 -295 18 42 -306 0
-277 -295 -19 -43 -307 0
-277 -295 -19 43 307 0
-277 -295 19 -43 307 0
-277 -295 19 43 -307 0
-277 -295 -20 -44 -308 0
-277 -295 -20 44 308 0
-277 -295 20 -44 308 0
-277 -295 20 44 -308 0
-277 -295 -21 -45 -309 0
-277 -295 -21 45 309 0
-277 -295 21 -45 309 0
-277 -295 21 45 -309 0
-277 -295 -22 -46 -310 0
-277 -295 -22 46 310 0
-277 -295 22 -46 310 0
-277 -295 22 46 -310 0
-277 -295 -23 -47 -311 0
-277 -295 -23 47 311 0
-277 -295 23 -47 311 0
-277 -295 23 47 -311 0
-277 -295 -24 -48 -312 0
-277 -295 -24 48 312 0
-277 -295 24 -48 312 0
-277 -295 24 48 -312 0
-277 -296 -17 -49 -305 0
-277 -296 -17 49 305 0
-277 -296 17 -49 305 0
-277 -296 17 49 -305 0
-277 -296 -18 -50 -306 0
-277 -296 -18 50 306 0
-277 -296 18 -50 306 0
-277 -296 18 50 -306 0
-277 -296 -19 -51 -307 0
-277 -296 -19 51 307 0
-277 -296 19 -51 307 0
-277 -296 19 51 -307 0
-277 -296 -20 -52 -308 0
-277 -296 -20 52 308 0
-277 -296 20 -52 308 0
-277 -296 20 52 -308 0
-277 -296 -21 -53 -309 0
-277 -296 -21 53 309 0
-277 -296 21 -53 309 0
-277 -296 21 53 -309 0
-277 -296 -22 -54 -310 0
-277 -296 -22 54 310 0
-277 -296 22 -54 310 0
-277 -296 22 54 -310 0
-277 -296 -23 -55 -311 0
-277 -296 -23 55 311 0
-277 -296 23 -55 311 0
-277 -296 23 55 -311 0
-277 -296 -24 -56 -312 0
-277 -296 -24 56 312 0
-277 -296 24 -56 312 0
-277 -296 24 56 -312 0
-277 -297 -17 -57 -305 0
-277 -297 -17 57 305 0
-277 -297 17 -57 305 0
-277 -297 17 57 -305 0
-277 -297 -18 -58 -306 0
-277 -297 -18 58 306 0
-277 -297 18 -58 306 0
-277 -297 18 58 -306 0
-277 -297 -19 -59 -307 0
-277 -297 -19 59 307 0
-277 -297 19 -59 307 0
-277 -297 19 59 -307 0
-277 -297 -20 -60 -308 0
-277 -297 -20 60 308 0
-277 -297 20 -60 308 0
-277 -297 20 60 -308 0
-277 -297 -21 -61 -309 0
-277 -297 -21 61 309 0
-277 -297 21 -61 309 0
-277 -297 21 61 -309 0
-277 -297 -22 -62 -310 0
-277 -297 -22 62 310 0
-277 -297 22 -62 310 0
-277 -297 22 62 -310 0
-277 -297 -23 -63 -311 0
-277 -297 -23 63 311 0
-277 -297 23 -63 311 0
-277 -297 23 63 -311 0
-277 -297 -24 -64 -312 0
-277 -297 -24 64 312 0
-277 -297 24 -64 312 0
-277 -297 24 64 -312 0
-277 -298 -17 -81 -305 0
-277 -298 -17 81 305 0
-277 -298 17 -81 305 0
-277 -298 17 81 -305 0
-277 -298 -18 -82 -306 0
-277 -298 -18 82 306 0
-277 -298 18 -82 306 0
-277 -298 18 82 -306 0
-277 -298 -19 -83 -307 0
-277 -298 -19 83 307 0
-277 -298 19 -83 307 0
-277 -298 19 83 -307 0
-277 -298 -20 -84 -308 0
-277 -298 -20 84 308 0
-277 -298 20 -84 308 0
-277 -298 20 84 -308 0
-277 -298 -21 -85 -309 0
-277 -298 -21 85 309 0
-277 -298 21 -85 309 0
-277 -298 21 85 -309 0
-277 -298 -22 -86 -310 0
-277 -298 -22 86 310 0
-277 -298 22 -86 310 0
-277 -298 22 86 -310 0
-277 -298 -23 -87 -311 0
-277 -298 -23 87 311 0
-277 -298 23 -87 311 0
-277 -298 23 87 -311 0
-277 -298 -24 -88 -312 0
-277 -298 -24 88 312 0
-277 -298 24 -88 312 0
-277 -298 24 88 -312 0
-277 -299 -17 -107 -305 0
-277 -299 -17 107 305 0
-277 -299 17 -107 305 0
-277 -299 17 107 -305 0
-277 -299 -18 -108 -306 0
-277 -299 -18 108 306 0
-277 -299 18 -108 306 0
-277 -299 18 108 -306 0
-277 -299 -19 -109 -307 0
-277 -299 -19 109 307 0
-277 -299 19 -109 307 0
-277 -299 19 109 -307 0
-277 -299 -20 -110 -308 0
-277 -299 -20 110 308 0
-277 -299 20 -110 308 0
-277 -299 20 110 -308 0
-277 -299 -21 -111 -309 0
-277 -299 -21 111 309 0
-277 -299 21 -111 309 0
-277 -299 21 111 -309 0
-277 -299 -22 -112 -310 0
-277 -299 -22 112 310 0
-277 -299 22 -112 310 0
-277 -299 22 112 -310 0
-277 -299 -23 -113 -311 0
-277 -299 -23 113 311 0
-277 -299 23 -113 311 0
-277 -299 23 113 -311 0
-277 -299 -24 -114 -312 0
-277 -299 -24 114 312 0
-277 -299 24 -114 312 0
-277 -299 24 114 -312 0
-277 -300 -17 -135 -305 0
-277 -300 -17 135 305 0
-277 -300 17 -135 305 0
-277 -300 17 135 -305 0
-277 -300 -18 -136 -306 0
-277 -300 -18 136 306 0
-277 -300 18 -136 306 0
-277 -300 18 136 -306 0
-277 -300 -19 -137 -307 0
-277 -300 -19 137 307 0
-277 -300 19 -137 307 0
-277 -300 19 137 -307 0
-277 -300 -20 -138 -308 0
-277 -300 -20 138 308 0
-277 -300 20 -138 308 0
-277 -300 20 138 -308 0
-277 -300 -21 -139 -309 0
-277 -300 -21 139 309 0
-277 -300 21 -139 309 0
-277 -300 21 139 -309 0
-277 -300 -22 -140 -310 0
-277 -300 -22 140 310 0
-277 -300 22 -140 310 0
-277 -300 22 140 -310 0
-277 -300 -23 -141 -311 0
-277 -300 -23 141 311 0
-277 -300 23 -141 311 0
-277 -300 23 141 -311 0
-277 -300 -24 -142 -312 0
-277 -300 -24 142 312 0
-277 -300 24 -142 312 0
-277 -300 24 142 -312 0
-277 -301 -17 -165 -305 0
-277 -301 -17 165 305 0
-277 -301 17 -165 305 0
-277 -301 17 165 -305 0
-277 -301 -18 -166 -306 0
-277 -301 -18 166 306 0
-277 -301 18 -166 306 0
-277 -301 18 166 -306 0
-277 -301 -19 -167 -307 0
-277 -301 -19 167 307 0
-277 -301 19 -167 307 0
-277 -301 19 167 -307 0
-277 -301 -20 -168 -308 0
-277 -301 -20 168 308 0
-277 -301 20 -168 308 0
-277 -301 20 168 -308 0
-277 -301 -21 -169 -309 0
-277 -301 -21 169 309 0
-277 -301 21 -169 309 0
-277 -301 21 169 -309 0
-277 -301 -22 -170 -310 0
-277 -301 -22 170 310 0
-277 -301 22 -170 310 0
-277 -301 22 170 -310 0
-277 -301 -23 -171 -311 0
-277 -301 -23 171 311 0
-277 -301 23 -171 311 0
-277 -301 23 171 -311 0
-277 -301 -24 -172 -312 0
-277 -301 -24 172 312 0
-277 -301 24 -172 312 0
-277 -301 24 172 -312 0
-277 -302 -17 -197 -305 0
-277 -302 -17 197 305 0
-277 -302 17 -197 305 0
-277 -302 17 197 -305 0
-277 -302 -18 -198 -306 0
-277 -302 -18 198 306 0
-277 -302 18 -198 306 0
-277 -302 18 198 -306 0
-277 -302 -19 -199 -307 0
-277 -302 -19 199 307 0
-277 -302 19 -199 307 0
-277 -302 19 199 -307 0
-277 -302 -20 -200 -308 0
-277 -302 -20 200 308 0
-277 -302 20 -200 308 0
-277 -302 20 200 -308 0
-277 -302 -21 -201 -309 0
-277 -302 -21 201 309 0
-277 -302 21 -201 309 0
-277 -302 21 201 -309 0
-277 -302 -22 -202 -310 0
-277 -302 -22 202 310 0
-277 -302 22 -202 310 0
-277 -302 22 202 -310 0
-277 -302 -23 -203 -311 0
-277 -302 -23 203 311 0
-277 -302 23 -203 311 0
-277 -302 23 203 -311 0
-277 -302 -24 -204 -312 0
-277 -302 -24 204 312 0
-277 -302 24 -204 312 0
-277 -302 24 204 -312 0
-277 -303 -17 -231 -305 0
-277 -303 -17 231 305 0
-277 -303 17 -231 305 0
-277 -303 17 231 -305 0
-277 -303 -18 -232 -306 0
-277 -303 -18 232 306 0
-277 -303 18 -232 306 0
-277 -303 18 232 -306 0
-277 -303 -19 -233 -307 0
-277 -303 -19 233 307 0
-277 -303 19 -233 307 0
-277 -303 19 233 -307 0
-277 -303 -20 -234 -308 0
-277 -303 -20 234 308 0
-277 -303 20 -234 308 0
-277 -303 20 234 -308 0
-277 -303 -21 -235 -309 0
-277 -303 -21 235 309 0
-277 -303 21 -235 309 0
-277 -303 21 235 -309 0
-277 -303 -22 -236 -310 0
-277 -303 -22 236 310 0
-277 -303 22 -236 310 0
-277 -303 22 236 -310 0
-277 -303 -23 -237 -311 0
-277 -303 -23 237 311 0
-277 -303 23 -237 311 0
-277 -303 23 237 -311 0
-277 -303 -24 -238 -312 0
-277 -303 -24 238 312 0
-277 -303 24 -238 312 0
-277 -303 24 238 -312 0
-277 -304 -17 -267 -305 0
-277 -304 -17 267 305 0
-277 -304 17 -267 305 0
-277 -304 17 267 -305 0
-277 -304 -18 -268 -306 0
-277 -304 -18 268 306 0
-277 -304 18 -268 306 0
-277 -304 18 268 -306 0
-277 -304 -19 -269 -307 0
-277 -304 -19 269 307 0
-277 -304 19 -269 307 0
-277 -304 19 269 -307 0
-277 -304 -20 -270 -308 0
-277 -304 -20 270 308 0
-277 -304 20 -270 308 0
-277 -304 20 270 -308 0
-277 -304 -21 -271 -309 0
-277 -304 -21 271 309 0
-277 -304 21 -271 309 0
-277 -304 21 271 -309 0
-277 -304 -22 -272 -310 0
-277 -304 -22 272 310 0
-277 -304 22 -272 310 0
-277 -304 22 272 -310 0
-277 -304 -23 -273 -311 0
-277 -304 -23 273 311 0
-277 -304 23 -273 311 0
-277 -304 23 273 -311 0
-277 -304 -24 -274 -312 0
-277 -304 -24 274 312 0
-277 -304 24 -274 312 0
-277 -304 24 274 -312 0
-278 -294 -25 -33 -305 0
-278 -294 -25 33 305 0
-278 -294 25 -33 305 0
-278 -294 25 33 -305 0
-278 -294 -26 -34 -306 0
-278 -294 -26 34 306 0
-278 -294 26 -34 306 0
-278 -294 26 34 -306 0
-278 -294 -27 -35 -307 0
-278 -294 -27 35 307 0
-278 -294 27 -35 307 0
-278 -294 27 35 -307 0
-278 -294 -28 -36 -308 0
-278 -294 -28 36 308 0
-278 -294 28 -36 308 0
-278 -294 28 36 -308 0
-278 -294 -29 -37 -309 0
-278 -294 -29 37 309 0
-278 -294 29 -37 309 0
-278 -294 29 37 -309 0
-278 -294 -30 -38 -310 0
-278 -294 -30 38 310 0
-278 -294 30 -38 310 0
-278 -294 30 38 -310 0
-278 -294 -31 -39 -311 0
-278 -294 -31 39 311 0
-278 -294 31 -39 311 0
-278 -294 31 39 -311 0
-278 -294 -32 -40 -312 0
-278 -294 -32 40 312 0
-278 -294 32 -40 312 0
-278 -294 32 40 -312 0
-278 -295 -25 -41 -305 0
-278 -295 -25 41 305 0
-278 -295 25 -41 305 0
-278 -295 25 41 -305 0
-278 -295 -26 -42 -306 0
-278 -295 -26 42 306 0
-278 -295 26 -42 306 0
-278 -295 26 42 -306 0
-278 -295 -27 -43 -307 0
-278 -295 -27 43 307 0
-278 -295 27 -43 307 0
-278 -295 27 43 -307 0
-278 -295 -28 -44 -308 0
-278 -295 -28 44 308 0
-278 -295 28 -44 308 0
-278 -295 28 44 -308 0
-278 -295 -29 -45 -309 0
-278 -295 -29 45 309 0
-278 -295 29 -45 309 0
-278 -295 29 45 -309 0
-278 -295 -30 -46 -310 0
-278 -295 -30 46 310 0
-278 -295 30 -46 310 0
-278 -295 30 46 -310 0
-278 -295 -31 -47 -311 0
-278 -295 -31 47 311 0
-278 -295 31 -47 311 0
-278 -295 31 47 -311 0
-278 -295 -32 -48 -312 0
-278 -295 -32 48 312 0
-278 -295 32 -48 312 0
-278 -295 32 48 -312 0
-278 -296 -25 -49 -305 0
-278 -296 -25 49 305 0
-278 -296 25 -49 305 0
-278 -296 25 49 -305 0
-278 -296 -26 -50 -306 0
-278 -296 -26 50 306 0
-278 -296 26 -50 306 0
-278 -296 26 50 -306 0
-278 -296 -27 -51 -307 0
-278 -296 -27 51 307 0
-278 -296 27 -51 307 0
-278 -296 27 51 -307 0
-278 -296 -28 -52 -308 0
-278 -296 -28 52 308 0
-278 -296 28 -52 308 0
-278 -296 28 52 -308 0
-278 -296 -29 -53 -309 0
-278 -296 -29 53 309 0
-278 -296 29 -53 309 0
-278 -296 29 53 -309 0
-278 -296 -30 -54 -310 0
-278 -296 -30 54 310 0
-278 -296 30 -54 310 0
-278 -296 30 54 -310 0
-278 -296 -31 -55 -311 0
-278 -296 -31 55 311 0
-278 -296 31 -55 311 0
-278 -296 31 55 -311 0
-278 -296 -32 -56 -312 0
-278 -296 -32 56 312 0
-278 -296 32 -56 312 0
-278 -296 32 56 -312 0
-278 -297 -25 -57 -305 0
-278 -297 -25 57 305 0
-278 -297 25 -57 305 0
-278 -297 25 57 -305 0
-278 -297 -26 -58 -306 0
-278 -297 -26 58 306 0
-278 -297 26 -58 306 0
-278 -297 26 58 -306 0
-278 -297 -27 -59 -307 0
-278 -297 -27 59 307 0
-278 -297 27 -59 307 0
-278 -297 27 59 -307 0
-278 -297 -28 -60 -308 0
-278 -297 -28 60 308 0
-278 -297 28 -60 308 0
-278 -297 28 60 -308 0
-278 -297 -29 -61 -309 0
-278 -297 -29 61 309 0
-278 -297 29 -61 309 0
-278 -297 29 61 -309 0
-278 -297 -30 -62 -310 0
-278 -297 -30 62 310 0
-278 -297 30 -62 310 0
-278 -297 30 62 -310 0
-278 -297 -31 -63 -311 0
-278 -297 -31 63 311 0
-278 -297 31 -63 311 0
-278 -297 31 63 -311 0
-278 -297 -32 -64 -312 0
-278 -297 -32 64 312 0
-278 -297 32 -64 312 0
-278 -297 32 64 -312 0
-278 -298 -25 -81 -305 0
-278 -298 -25 81 305 0
-278 -298 25 -81 305 0
-278 -298 25 81 -305 0
-278 -298 -26 -82 -306 0
-278 -298 -26 82 306 0
-278 -298 26 -82 306 0
-278 -298 26 82 -306 0
-278 -298 -27 -83 -307 0
-278 -298 -27 83 307 0
-278 -298 27 -83 307 0
-278 -298 27 83 -307 0
-278 -298 -28 -84 -308 0
-278 -298 -28 84 308 0
-278 -298 28 -84 308 0
-278 -298 28 84 -308 0
-278 -298 -29 -85 -309 0
-278 -298 -29 85 309 0
-278 -298 29 -85 309 0
-278 -298 29 85 -309 0
-278 -298 -30 -86 -310 0
-278 -298 -30 86 310 0
-278 -298 30 -86 310 0
-278 -298 30 86 -310 0
-278 -298 -31 -87 -311 0
-278 -298 -31 87 311 0
-278 -298 31 -87 311 0
-278 -298 31 87 -311 0
-278 -298 -32 -88 -312 0
-278 -298 -32 88 312 0
-278 -298 32 -88 312 0
-278 -298 32 88 -312 0
-278 -299 -25 -107 -305 0
-278 -299 -25 107 305 0
-278 -299 25 -107 305 0
-278 -299 25 107 -305 0
-278 -299 -26 -108 -306 0
-278 -299 -26 108 306 0
-278 -299 26 -108 306 0
-278 -299 26 108 -306 0
-278 -299 -27 -109 -307 0
-278 -299 -27 109 307 0
-278 -299 27 -109 307 0
-278 -299 27 109 -307 0
-278 -299 -28 -110 -308 0
-278 -299 -28 110 308 0
-278 -299 28 -110 308 0
-278 -299 28 110 -308 0
-278 -299 -29 -111 -309 0
-278 -299 -29 111 309 0
-278 -299 29 -111 309 0
-278 -299 29 111 -309 0
-278 -299 -30 -112 -310 0
-278 -299 -30 112 310 0
-278 -299 30 -112 310 0
-278 -299 30 112 -310 0
-278 -299 -31 -113 -311 0
-278 -299 -31 113 311 0
-278 -299 31 -113 311 0
-278 -299 31 113 -311 0
-278 -299 -32 -114 -312 0
-278 -299 -32 114 312 0
-278 -299 32 -114 312 0
-278 -299 32 114 -312 0
-278 -300 -25 -135 -305 0
-278 -300 -25 135 305 0
-278 -300 25 -135 305 0
-278 -300 25 135 -305 0
-278 -300 -26 -136 -306 0
-278 -300 -26 136 306 0
-278 -300 26 -136 306 0
-278 -300 26 136 -306 0
-278 -300 -27 -137 -307 0
-278 -300 -27 137 307 0
-278 -300 27 -137 307 0
-278 -300 27 137 -307 0
-278 -300 -28 -138 -308 0
-278 -300 -28 138 308 0
-278 -300 28 -138 308 0
-278 -300 28 138 -308 0
-278 -300 -29 -139 -309 0
-278 -300 -29 139 309 0
-278 -300 29 -139 309 0
-278 -300 29 139 -309 0
-278 -300 -30 -140 -310 0
-278 -300 -30 140 310 0
-278 -300 30 -140 310 0
-278 -300 30 140 -310 0
-278 -300 -31 -141 -311 0
-278 -300 -31 141 311 0
-278 -300 31 -141 311 0
-278 -300 31 141 -311 0
-278 -300 -32 -142 -312 0
-278 -300 -32 142 312 0
-278 -300 32 -142 312 0
-278 -300 32 142 -312 0
-278 -301 -25 -165 -305 0
-278 -301 -25 165 305 0
-278 -301 25 -165 305 0
-278 -301 25 165 -305 0
-278 -301 -26 -166 -306 0
-278 -301 -26 166 306 0
-278 -301 26 -166 306 0
-278 -301 26 166 -306 0
-278 -301 -27 -167 -307 0
-278 -301 -27 167 307 0
-278 -301 27 -167 307 0
-278 -301 27 167 -307 0
-278 -301 -28 -168 -308 0
-278 -301 -28 168 308 0
-278 -301 28 -168 308 0
-278 -301 28 168 -308 0
-278 -301 -29 -169 -309 0
-278 -301 -29 169 309 0
-278 -301 29 -169 309 0
-278 -301 29 169 -309 0
-278 -301 -30 -170 -310 0
-278 -301 -30 170 310 0
-278 -301 30 -170 310 0
-278 -301 30 170 -310 0
-278 -301 -31 -171 -311 0
-278 -301 -31 171 311 0
-278 -301 31 -171 311 0
-278 -301 31 171 -311 0
-278 -301 -32 -172 -312 0
-278 -301 -32 172 312 0
-278 -301 32 -172 312 0
-278 -301 32 172 -312 0
-278 -302 -25 -197 -305 0
-278 -302 -25 197 305 0
-278 -302 25 -197 305 0
-278 -302 25 197 -305 0
-278 -302 -26 -198 -306 0
-278 -302 -26 198 306 0
-278 -302 26 -198 306 0
-278 -302 26 198 -306 0
-278 -302 -27 -199 -307 0
-278 -302 -27 199 307 0
-278 -302 27 -199 307 0
-278 -302 27 199 -307 0
-278 -302 -28 -200 -308 0
-278 -302 -28 200 308 0
-278 -302 28 -200 308 0
-278 -302 28 200 -308 0
-278 -302 -29 -201 -309 0
-278 -302 -29 201 309 0
-278 -302 29 -201 309 0
-278 -302 29 201 -309 0
-278 -302 -30 -202 -310 0
-278 -302 -30 202 310 0
-278 -302 30 -202 310 0
-278 -302 30 202 -310 0
-278 -302 -31 -203 -311 0
-278 -302 -31 203 311 0
-278 -302 31 -203 311 0
-278 -302 31 203 -311 0
-278 -302 -32 -204 -312 0
-278 -302 -32 204 312 0
-278 -302 32 -204 312 0
-278 -302 32 204 -312 0
-278 -303 -25 -231 -305 0
-278 -303 -25 231 305 0
-278 -303 25 -231 305 0
-278 -303 25 231 -305 0
-278 -303 -26 -232 -306 0
-278 -303 -26 232 306 0
-278 -303 26 -232 306 0
-278 -303 26 232 -306 0
-278 -303 -27 -233 -307 0
-278 -303 -27 233 307 0
-278 -303 27 -233 307 0
-278 -303 27 233 -307 0
-278 -303 -28 -234 -308 0
-278 -303 -28 234 308 0
-278 -303 28 -234 308 0
-278 -303 28 234 -308 0
-278 -303 -29 -235 -309 0
-278 -303 -29 235 309 0
-278 -303 29 -235 309 0
-278 -303 29 235 -309 0
-278 -303 -30 -236 -310 0
-278 -303 -30 236 310 0
-278 -303 30 -236 310 0
-278 -303 30 236 -310 0
-278 -303 -31 -237 -311 0
-278 -303 -31 237 311 0
-278 -303 31 -237 311 0
-278 -303 31 237 -311 0
-278 -303 -32 -238 -312 0
-278 -303 -32 238 312 0
-278 -303 32 -238 312 0
-278 -303 32 238 -312 0
-278 -304 -25 -267 -305 0
-278 -304 -25 267 305 0
-278 -304 25 -267 305 0
-278 -304 25 267 -305 0
-278 -304 -26 -268 -306 0
-278 -304 -26 268 306 0
-278 -304 26 -268 306 0
-278 -304 26 268 -306 0
-278 -304 -27 -269 -307 0
-278 -304 -27 269 307 0
-278 -304 27 -269 307 0
-278 -304 27 269 -307 0
-278 -304 -28 -270 -308 0
-278 -304 -28 270 308 0
-278 -304 28 -270 308 0
-278 -304 28 270 -308 0
-278 -304 -29 -271 -309 0
-278 -304 -29 271 309 0
-278 -304 29 -271 309 0
-278 -304 29 271 -309 0
-278 -304 -30 -272 -310 0
-278 -304 -30 272 310 0
-278 -304 30 -272 310 0
-278 -304 30 272 -310 0
-278 -304 -31 -273 -311 0
-278 -304 -31 273 311 0
-278 -304 31 -273 311 0
-278 -304 31 273 -311 0
-278 -304 -32 -274 -312 0
-278 -304 -32 274 312 0
-278 -304 32 -274 312 0
-278 -304 32 274 -312 0
-279 -295 -33 -41 -305 0
-279 -295 -33 41 305 0
-279 -295 33 -41 305 0
-279 -295 33 41 -305 0
-279 -295 -34 -42 -306 0
-279 -295 -34 42 306 0
-279 -295 34 -42 306 0
-279 -295 34 42 -306 0
-279 -295 -35 -43 -307 0
-279 -295 -35 43 307 0
-279 -295 35 -43 307 0
-279 -295 35 43 -307 0
-279 -295 -36 -44 -308 0
-279 -295 -36 44 308 0
-279 -295 36 -44 308 0
-279 -295 36 44 -308 0
-279 -295 -37 -45 -309 0
-279 -295 -37 45 309 0
-279 -295 37 -45 309 0
-279 -295 37 45 -309 0
-279 -295 -38 -46 -310 0
-279 -295 -38 46 310 0
-279 -295 38 -46 310 0
-279 -295 38 46 -310 0
-279 -295 -39 -47 -311 0
-279 -295 -39 47 311 0
-279 -295 39 -47 311 0
-279 -295 39 47 -311 0
-279 -295 -40 -48 -312 0
-279 -295 -40 48 312 0
-279 -295 40 -48 312 0
-279 -295 40 48 -312 0
-279 -296 -33 -49 -305 0
-279 -296 -33 49 305 0
-279 -296 33 -49 305 0
-279 -296 33 49 -305 0
-279 -296 -34 -50 -306 0
-279 -296 -34 50 306 0
-279 -296 34 -50 306 0
-279 -296 34 50 -306 0
-279 -296 -35 -51 -307 0
-279 -296 -35 51 307 0
-279 -296 35 -51 307 0
-279 -296 35 51 -307 0
-279 -296 -36 -52 -308 0
-279 -296 -36 52 308 0
-279 -296 36 -52 308 0
-279 -296 36 52 -308 0
-279 -296 -37 -53 -309 0
-279 -296 -37 53 309 0
-279 -296 37 -53 309 0
-279 -296 37 53 -309 0
-279 -296 -38 -54 -310 0
-279 -296 -38 54 310 0
-279 -296 38 -54 310 0
-279 -296 38 54 -310 0
-279 -296 -39 -55 -311 0
-279 -296 -39 55 311 0
-279 -296 39 -55 311 0
-279 -296 39 55 -311 0
-279 -296 -40 -56 -312 0
-279 -296 -40 56 312 0
-279 -296 40 -56 312 0
-279 -296 40 56 -312 0
-279 -297 -33 -57 -305 0
-279 -297 -33 57 305 0
-279 -297 33 -57 305 0
-279 -297 33 57 -305 0
-279 -297 -34 -58 -306 0
-279 -297 -34 58 306 0
-279 -297 34 -58 306 0
-279 -297 34 58 -306 0
-279 -297 -35 -59 -307 0
-279 -297 -35 59 307 0
-279 -297 35 -59 307 0
-279 -297 35 59 -307 0
-279 -297 -36 -60 -308 0
-279 -297 -36 60 308 0
-279 -297 36 -60 308 0
-279 -297 36 60 -308 0
-279 -297 -37 -61 -309 0
-279 -297 -37 61 309 0
-279 -297 37 -61 309 0
-279 -297 37 61 -309 0
-279 -297 -38 -62 -310 0
-279 -297 -38 62 310 0
-279 -297 38 -62 310 0
-279 -297 38 62 -310 0
-279 -297 -39 -63 -311 0
-279 -297 -39 63 311 0
-279 -297 39 -63 311 0
-279 -297 39 63 -311 0
-279 -297 -40 -64 -312 0
-279 -297 -40 64 312 0
-279 -297 40 -64 312 0
-279 -297 40 64 -312 0
-279 -298 -33 -81 -305 0
-279 -298 -33 81 305 0
-279 -298 33 -81 305 0
-279 -298 33 81 -305 0
-279 -298 -34 -82 -306 0
-279 -298 -34 82 306 0
-279 -298 34 -82 306 0
-279 -298 34 82 -306 0
-279 -298 -35 -83 -307 0
-279 -298 -35 83 307 0
-279 -298 35 -83 307 0
-279 -298 35 83 -307 0
-279 -298 -36 -84 -308 0
-279 -298 -36 84 308 0
-279 -298 36 -84 308 0
-279 -298 36 84 -308 0
-279 -298 -37 -85 -309 0
-279 -298 -37 85 309 0
-279 -298 37 -85 309 0
-279 -298 37 85 -309 0
-279 -298 -38 -86 -310 0
-279 -298 -38 86 310 0
-279 -298 38 -86 310 0
-279 -298 38 86 -310 0
-279 -298 -39 -87 -311 0
-279 -298 -39 87 311 0
-279 -298 39 -87 311 0
-279 -298 39 87 -311 0
-279 -298 -40 -88 -312 0
-279 -298 -40 88 312 0
-279 -298 40 -88 312 0
-279 -298 40 88 -312 0
-279 -299 -33 -107 -305 0
-279 -299 -33 107 305 0
-279 -299 33 -107 305 0
-279 -299 33 107 -305 0
-279 -299 -34 -108 -306 0
-279 -299 -34 108 306 0
-279 -299 34 -108 306 0
-279 -299 34 108 -306 0
-279 -299 -35 -109 -307 0
-279 -299 -35 109 307 0
-279 -299 35 -109 307 0
-279 -299 35 109 -307 0
-279 -299 -36 -110 -308 0
-279 -299 -36 110 308 0
-279 -299 36 -110 308 0
-279 -299 36 110 -308 0
-279 -299 -37 -111 -309 0
-279 -299 -37 111 309 0
-279 -299 37 -111 309 0
-279 -299 37 111 -309 0
-279 -299 -38 -112 -310 0
-279 -299 -38 112 310 0
-279 -299 38 -112 310 0
-279 -299 38 112 -310 0
-279 -299 -39 -113 -311 0
-279 -299 -39 113 311 0
-279 -299 39 -113 311 0
-279 -299 39 113 -311 0
-279 -299 -40 -114 -312 0
-279 -299 -40 114 312 0
-279 -299 40 -114 312 0
-279 -299 40 114 -312 0
-279 -300 -33 -135 -305 0
-279 -300 -33 135 305 0
-279 -300 33 -135 305 0
-279 -300 33 135 -305 0
-279 -300 -34 -136 -306 0
-279 -300 -34 136 306 0
-279 -300 34 -136 306 0
-279 -300 34 136 -306 0
-279 -300 -35 -137 -307 0
-279 -300 -35 137 307 0
-279 -300 35 -137 307 0
-279 -300 35 137 -307 0
-279 -300 -36 -138 -308 0
-279 -300 -36 138 308 0
-279 -300 36 -138 308 0
-279 -300 36 138 -308 0
-279 -300 -37 -139 -309 0
-279 -300 -37 139 309 0
-279 -300 37 -139 309 0
-279 -300 37 139 -309 0
-279 -300 -38 -140 -310 0
-279 -300 -38 140 310 0
-279 -300 38 -140 310 0
-279 -300 38 140 -310 0
-279 -300 -39 -141 -311 0
-279 -300 -39 141 311 0
-279 -300 39 -141 311 0
-279 -300 39 141 -311 0
-279 -300 -40 -142 -312 0
-279 -300 -40 142 312 0
-279 -300 40 -142 312 0
-279 -300 40 142 -312 0
-279 -301 -33 -165 -305 0
-279 -301 -33 165 305 0
-279 -301 33 -165 305 0
-279 -301 33 165 -305 0
-279 -301 -34 -166 -306 0
-279 -301 -34 166 306 0
-279 -301 34 -166 306 0
-279 -301 34 166 -306 0
-279 -301 -35 -167 -307 0
-279 -301 -35 167 307 0
-279 -301 35 -167 307 0
-279 -301 35 167 -307 0
-279 -301 -36 -168 -308 0
-279 -301 -36 168 308 0
-279 -301 36 -168 308 0
-279 -301 36 168 -308 0
-279 -301 -37 -169 -309 0
-279 -301 -37 169 309 0
-279 -301 37 -169 309 0
-279 -301 37 169 -309 0
-279 -301 -38 -170 -310 0
-279 -301 -38 170 310 0
-279 -301 38 -170 310 0
-279 -301 38 170 -310 0
-279 -301 -39 -171 -311 0
-279 -301 -39 171 311 0
-279 -301 39 -171 311 0
-279 -301 39 171 -311 0
-279 -301 -40 -172 -312 0
-279 -301 -40 172 312 0
-279 -301 40 -172 312 0
-279 -301 40 172 -312 0
-279 -302 -33 -197 -305 0
-279 -302 -33 197 305 0
-279 -302 33 -197 305 0
-279 -302 33 197 -305 0
-279 -302 -34 -198 -306 0
-279 -302 -34 198 306 0
-279 -302 34 -198 306 0
-279 -302 34 198 -306 0
-279 -302 -35 -199 -307 0
-279 -302 -35 199 307 0
-279 -302 35 -199 307 0
-279 -302 35 199 -307 0
-279 -302 -36 -200 -308 0
-279 -302 -36 200 308 0
-279 -302 36 -200 308 0
-279 -302 36 200 -308 0
-279 -302 -37 -201 -309 0
-279 -302 -37 201 309 0
-279 -302 37 -201 309 0
-279 -302 37 201 -309 0
-279 -302 -38 -202 -310 0
-279 -302 -38 202 310 0
-279 -302 38 -202 310 0
-279 -302 38 202 -310 0
-279 -302 -39 -203 -311 0
-279 -302 -39 203 311 0
-279 -302 39 -203 311 0
-279 -302 39 203 -311 0
-279 -302 -40 -204 -312 0
-279 -302 -40 204 312 0
-279 -302 40 -204 312 0
-279 -302 40 204 -312 0
-279 -303 -33 -231 -305 0
-279 -303 -33 231 305 0
-279 -303 33 -231 305 0
-279 -303 33 231 -305 0
-279 -303 -34 -232 -306 0
-279 -303 -34 232 306 0
-279 -303 34 -232 306 0
-279 -303 34 232 -306 0
-279 -303 -35 -233 -307 0
-279 -303 -35 233 307 0
-279 -303 35 -233 307 0
-279 -303 35 233 -307 0
-279 -303 -36 -234 -308 0
-279 -303 -36 234 308 0
-279 -303 36 -234 308 0
-279 -303 36 234 -308 0
-279 -303 -37 -235 -309 0
-279 -303 -37 235 309 0
-279 -303 37 -235 309 0
-279 -303 37 235 -309 0
-279 -303 -38 -236 -310 0
-279 -303 -38 236 310 0
-279 -303 38 -236 310 0
-279 -303 38 236 -310 0
-279 -303 -39 -237 -311 0
-279 -303 -39 237 311 0
-279 -303 39 -237 311 0
-279 -303 39 237 -311 0
-279 -303 -40 -238 -312 0
-279 -303 -40 238 312 0
-279 -303 40 -238 312 0
-279 -303 40 238 -312 0
-279 -304 -33 -267 -305 0
-279 -304 -33 267 305 0
-279 -304 33 -267 305 0
-279 -304 33 267 -305 0
-279 -304 -34 -268 -306 0
-279 -304 -34 268 306 0
-279 -304 34 -268 306 0
-279 -304 34 268 -306 0
-279 -304 -35 -269 -307 0
-279 -304 -35 269 307 0
-279 -304 35 -269 307 0
-279 -304 35 269 -307 0
-279 -304 -36 -270 -308 0
-279 -304 -36 270 308 0
-279 -304 36 -270 308 0
-279 -304 36 270 -308 0
-279 -304 -37 -271 -309 0
-279 -304 -37 271 309 0
-279 -304 37 -271 309 0
-279 -304 37 271 -309 0
-279 -304 -38 -272 -310 0
-279 -304 -38 272 310 0
-279 -304 38 -272 310 0
-279 -304 38 272 -310 0
-279 -304 -39 -273 -311 0
-279 -304 -39 273 311 0
-279 -304 39 -273 311 0
-279 -304 39 273 -311 0
-279 -304 -40 -274 -312 0
-279 -304 -40 274 312 0
-279 -304 40 -274 312 0
-279 -304 40 274 -312 0
-280 -296 -41 -49 -305 0
-280 -296 -41 49 305 0
-280 -296 41 -49 305 0
-280 -296 41 49 -305 0
-280 -296 -42 -50 -306 0
-280 -296 -42 50 306 0
-280 -296 42 -50 306 0
-280 -296 42 50 -306 0
-280 -296 -43 -51 -307 0
-280 -296 -43 51 307 0
-280 -296 43 -51 307 0
-280 -296 43 51 -307 0
-280 -296 -44 -52 -308 0
-280 -296 -44 52 308 0
-280 -296 44 -52 308 0
-280 -296 44 52 -308 0
-280 -296 -45 -53 -309 0
-280 -296 -45 53 309 0
-280 -296 45 -53 309 0
-280 -296 45 53 -309 0
-280 -296 -46 -54 -310 0
-280 -296 -46 54 310 0
-280 -296 46 -54 310 0
-280 -296 46 54 -310 0
-280 -296 -47 -55 -311 0
-280 -296 -47 55 311 0
-280 -296 47 -55 311 0
-280 -296 47 55 -311 0
-280 -296 -48 -56 -312 0
-280 -296 -48 56 312 0
-280 -296 48 -56 312 0
-280 -296 48 56 -312 0
-280 -297 -41 -57 -305 0
-280 -297 -41 57 305 0
-280 -297 41 -57 305 0
-280 -297 41 57 -305 0
-280 -297 -42 -58 -306 0
-280 -297 -42 58 306 0
-280 -297 42 -58 306 0
-280 -297 42 58 -306 0
-280 -297 -43 -59 -307 0
-280 -297 -43 59 307 0
-280 -297 43 -59 307 0
-280 -297 43 59 -307 0
-280 -297 -44 -60 -308 0
-280 -297 -44 60 308 0
-280 -297 44 -60 308 0
-280 -297 44 60 -308 0
-280 -297 -45 -61 -309 0
-280 -297 -45 61 309 0
-280 -297 45 -61 309 0
-280 -297 45 61 -309 0
-280 -297 -46 -62 -310 0
-280 -297 -46 62 310 0
-280 -297 46 -62 310 0
-280 -297 46 62 -310 0
-280 -297 -47 -63 -311 0
-280 -297 -47 63 311 0
-280 -297 47 -63 311 0
-280 -297 47 63 -311 0
-280 -297 -48 -64 -312 0
-280 -297 -48 64 312 0
-280 -297 48 -64 312 0
-280 -297 48 64 -312 0
-280 -298 -41 -81 -305 0
-280 -298 -41 81 305 0
-280 -298 41 -81 305 0
-280 -298 41 81 -305 0
-280 -298 -42 -82 -306 0
-280 -298 -42 82 306 0
-280 -298 42 -82 306 0
-280 -298 42 82 -306 0
-280 -298 -43 -83 -307 0
-280 -298 -43 83 307 0
-280 -298 43 -83 307 0
-280 -298 43 83 -307 0
-280 -298 -44 -84 -308 0
-280 -298 -44 84 308 0
-280 -298 44 -84 308 0
-280 -298 44 84 -308 0
-280 -298 -45 -85 -309 0
-280 -298 -45 85 309 0
-280 -298 45 -85 309 0
-280 -298 45 85 -309 0
-280 -298 -46 -86 -310 0
-280 -298 -46 86 310 0
-280 -298 46 -86 310 0
-280 -298 46 86 -310 0
-280 -298 -47 -87 -311 0
-280 -298 -47 87 311 0
-280 -298 47 -87 311 0
-280 -298 47 87 -311 0
-280 -298 -48 -88 -312 0
-280 -298 -48 88 312 0
-280 -298 48 -88 312 0
-280 -298 48 88 -312 0
-280 -299 -41 -107 -305 0
-280 -299 -41 107 305 0
-280 -299 41 -107 305 0
-280 -299 41 107 -305 0
-280 -299 -42 -108 -306 0
-280 -299 -42 108 306 0
-280 -299 42 -108 306 0
-280 -299 42 108 -306 0
-280 -299 -43 -109 -307 0
-280 -299 -43 109 307 0
-280 -299 43 -109 307 0
-280 -299 43 109 -307 0
-280 -299 -44 -110 -308 0
-280 -299 -44 110 308 0
-280 -299 44 -110 308 0
-280 -299 44 110 -308 0
-280 -299 -45 -111 -309 0
-280 -299 -45 111 309 0
-280 -299 45 -111 309 0
-280 -299 45 111 -309 0
-280 -299 -46 -112 -310 0
-280 -299 -46 112 310 0
-280 -299 46 -112 310 0
-280 -299 46 112 -310 0
-280 -299 -47 -113 -311 0
-280 -299 -47 113 311 0
-280 -299 47 -113 311 0
-280 -299 47 113 -311 0
-280 -299 -48 -114 -312 0
-280 -299 -48 114 312 0
-280 -299 48 -114 312 0
-280 -299 48 114 -312 0
-280 -300 -41 -135 -305 0
-280 -300 -41 135 305 0
-280 -300 41 -135 305 0
-280 -300 41 135 -305 0
-280 -300 -42 -136 -306 0
-280 -300 -42 136 306 0
-280 -300 42 -136 306 0
-280 -300 42 136 -306 0
-280 -300 -43 -137 -307 0
-280 -300 -43 137 307 0
-280 -300 43 -137 307 0
-280 -300 43 137 -307 0
-280 -300 -44 -138 -308 0
-280 -300 -44 138 308 0
-280 -300 44 -138 308 0
-280 -300 44 138 -308 0
-280 -300 -45 -139 -309 0
-280 -300 -45 139 309 0
-280 -300 45 -139 309 0
-280 -300 45 139 -309 0
-280 -300 -46 -140 -310 0
-280 -300 -46 140 310 0
-280 -300 46 -140 310 0
-280 -300 46 140 -310 0
-280 -300 -47 -141 -311 0
-280 -300 -47 141 311 0
-280 -300 47 -141 311 0
-280 -300 47 141 -311 0
-280 -300 -48 -142 -312 0
-280 -300 -48 142 312 0
-280 -300 48 -142 312 0
-280 -300 48 142 -312 0
-280 -301 -41 -165 -305 0
-280 -301 -41 165 305 0
-280 -301 41 -165 305 0
-280 -301 41 165 -305 0
-280 -301 -42 -166 -306 0
-280 -301 -42 166 306 0
-280 -301 42 -166 306 0
-280 -301 42 166 -306 0
-280 -301 -43 -167 -307 0
-280 -301 -43 167 307 0
-280 -301 43 -167 307 0
-280 -301 43 167 -307 0
-280 -301 -44 -168 -308 0
-280 -301 -44 168 308 0
-280 -301 44 -168 308 0
-280 -301 44 168 -308 0
-280 -301 -45 -169 -309 0
-280 -301 -45 169 309 0
-280 -301 45 -169 309 0
-280 -301 45 169 -309 0
-280 -301 -46 -170 -310 0
-280 -301 -46 170 310 0
-280 -301 46 -170 310 0
-280 -301 46 170 -310 0
-280 -301 -47 -171 -311 0
-280 -301 -47 171 311 0
-280 -301 47 -171 311 0
-280 -301 47 171 -311 0
-280 -301 -48 -172 -312 0
-280 -301 -48 172 312 0
-280 -301 48 -172 312 0
-280 -301 48 172 -312 0
-280 -302 -41 -197 -305 0
-280 -302 -41 197 305 0
-280 -302 41 -197 305 0
-280 -302 41 197 -305 0
-280 -302 -42 -198 -306 0
-280 -302 -42 198 306 0
-280 -302 42 -198 306 0
-280 -302 42 198 -306 0
-280 -302 -43 -199 -307 0
-280 -302 -43 199 307 0
-280 -302 43 -199 307 0
-280 -302 43 199 -307 0
-280 -302 -44 -200 -308 0
-280 -302 -44 200 308 0
-280 -302 44 -200 308 0
-280 -302 44 200 -308 0
-280 -302 -45 -201 -309 0
-280 -302 -45 201 309 0
-280 -302 45 -201 309 0
-280 -302 45 201 -309 0
-280 -302 -46 -202 -310 0
-280 -302 -46 202 310 0
-280 -302 46 -202 310 0
-280 -302 46 202 -310 0
-280 -302 -47 -203 -311 0
-280 -302 -47 203 311 0
-280 -302 47 -203 311 0
-280 -302 47 203 -311 0
-280 -302 -48 -204 -312 0
-280 -302 -48 204 312 0
-280 -302 48 -204 312 0
-280 -302 48 204 -312 0
-280 -303 -41 -231 -305 0
-280 -303 -41 231 305 0
-280 -303 41 -231 305 0
-280 -303 41 231 -305 0
-280 -303 -42 -232 -306 0
-280 -303 -42 232 306 0
-280 -303 42 -232 306 0
-280 -303 42 232 -306 0
-280 -303 -43 -233 -307 0
-280 -303 -43 233 307 0
-280 -303 43 -233 307 0
-280 -303 43 233 -307 0
-280 -303 -44 -234 -308 0
-280 -303 -44 234 308 0
-280 -303 44 -234 308 0
-280 -303 44 234 -308 0
-280 -303 -45 -235 -309 0
-280 -303 -45 235 309 0
-280 -303 45 -235 309 0
-280 -303 45 235 -309 0
-280 -303 -46 -236 -310 0
-280 -303 -46 236 310 0
-280 -303 46 -236 310 0
-280 -303 46 236 -310 0
-280 -303 -47 -237 -311 0
-280 -303 -47 237 311 0
-280 -303 47 -237 311 0
-280 -303 47 237 -311 0
-280 -303 -48 -238 -312 0
-280 -303 -48 238 312 0
-280 -303 48 -238 312 0
-280 -303 48 238 -312 0
-280 -304 -41 -267 -305 0
-280 -304 -41 267 305 0
-280 -304 41 -267 305 0
-280 -304 41 267 -305 0
-280 -304 -42 -268 -306 0
-280 -304 -42 268 306 0
-280 -304 42 -268 306 0
-280 -304 42 268 -306 0
-280 -304 -43 -269 -307 0
-280 -304 -43 269 307 0
-280 -304 43 -269 307 0
-280 -304 43 269 -307 0
-280 -304 -44 -270 -308 0
-280 -304 -44 270 308 0
-280 -304 44 -270 308 0
-280 -304 44 270 -308 0
-280 -304 -45 -271 -309 0
-280 -304 -45 271 309 0
-280 -304 45 -271 309 0
-280 -304 45 271 -309 0
-280 -304 -46 -272 -310 0
-280 -304 -46 272 310 0
-280 -304 46 -272 310 0
-280 -304 46 272 -310 0
-280 -304 -47 -273 -311 0
-280 -304 -47 273 311 0
-280 -304 47 -273 311 0
-280 -304 47 273 -311 0
-280 -304 -48 -274 -312 0
-280 -304 -48 274 312 0
-280 -304 48 -274 312 0
-280 -304 48 274 -312 0
-281 -297 -49 -57 -305 0
-281 -297 -49 57 305 0
-281 -297 49 -57 305 0
-281 -297 49 57 -305 0
-281 -297 -50 -58 -306 0
-281 -297 -50 58 306 0
-281 -297 50 -58 306 0
-281 -297 50 58 -306 0
-281 -297 -51 -59 -307 0
-281 -297 -51 59 307 0
-281 -297 51 -59 307 0
-281 -297 51 59 -307 0
-281 -297 -52 -60 -308 0
-281 -297 -52 60 308 0
-281 -297 52 -60 308 0
-281 -297 52 60 -308 0
-281 -297 -53 -61 -309 0
-281 -297 -53 61 309 0
-281 -297 53 -61 309 0
-281 -297 53 61 -309 0
-281 -297 -54 -62 -310 0
-281 -297 -54 62 310 0
-281 -297 54 -62 310 0
-281 -297 54 62 -310 0
-281 -297 -55 -63 -311 0
-281 -297 -55 63 311 0
-281 -297 55 -63 311 0
-281 -297 55 63 -311 0
-281 -297 -56 -64 -312 0
-281 -297 -56 64 312 0
-281 -297 56 -64 312 0
-281 -297 56 64 -312 0
-281 -298 -49 -81 -305 0
-281 -298 -49 81 305 0
-281 -298 49 -81 305 0
-281 -298 49 81 -305 0
-281 -298 -50 -82 -306 0
-281 -298 -50 82 306 0
-281 -298 50 -82 306 0
-281 -298 50 82 -306 0
-281 -298 -51 -83 -307 0
-281 -298 -51 83 307 0
-281 -298 51 -83 307 0
-281 -298 51 83 -307 0
-281 -298 -52 -84 -308 0
-281 -298 -52 84 308 0
-281 -298 52 -84 308 0
-281 -298 52 84 -308 0
-281 -298 -53 -85 -309 0
-281 -298 -53 85 309 0
-281 -298 53 -85 309 0
-281 -298 53 85 -309 0
-281 -298 -54 -86 -310 0
-281 -298 -54 86 310 0
-281 -298 54 -86 310 0
-281 -298 54 86 -310 0
-281 -298 -55 -87 -311 0
-281 -298 -55 87 311 0
-281 -298 55 -87 311 0
-281 -298 55 87 -311 0
-281 -298 -56 -88 -312 0
-281 -298 -56 88 312 0
-281 -298 56 -88 312 0
-281 -298 56 88 -312 0
-281 -299 -49 -107 -305 0
-281 -299 -49 107 305 0
-281 -299 49 -107 305 0
-281 -299 49 107 -305 0
-281 -299 -50 -108 -306 0
-281 -299 -50 108 306 0
-281 -299 50 -108 306 0
-281 -299 50 108 -306 0
-281 -299 -51 -109 -307 0
-281 -299 -51 109 307 0
-281 -299 51 -109 307 0
-281 -299 51 109 -307 0
-281 -299 -52 -110 -308 0
-281 -299 -52 110 308 0
-281 -299 52 -110 308 0
-281 -299 52 110 -308 0
-281 -299 -53 -111 -309 0
-281 -299 -53 111 309 0
-281 -299 53 -111 309 0
-281 -299 53 111 -309 0
-281 -299 -54 -112 -310 0
-281 -299 -54 112 310 0
-281 -299 54 -112 310 0
-281 -299 54 112 -310 0
-281 -299 -55 -113 -311 0
-281 -299 -55 113 311 0
-281 -299 55 -113 311 0
-281 -299 55 113 -311 0
-281 -299 -56 -114 -312 0
-281 -299 -56 114 312 0
-281 -299 56 -114 312 0
-281 -299 56 114 -312 0
-281 -300 -49 -135 -305 0
-281 -300 -49 135 305 0
-281 -300 49 -135 305 0
-281 -300 49 135 -305 0
-281 -300 -50 -136 -306 0
-281 -300 -50 136 306 0
-281 -300 50 -136 306 0
-281 -300 50 136 -306 0
-281 -300 -51 -137 -307 0
-281 -300 -51 137 307 0
-281 -300 51 -137 307 0
-281 -300 51 137 -307 0
-281 -300 -52 -138 -308 0
-281 -300 -52 138 308 0
-281 -300 52 -138 308 0
-281 -300 52 138 -308 0
-281 -300 -53 -139 -309 0
-281 -300 -53 139 309 0
-281 -300 53 -139 309 0
-281 -300 53 139 -309 0
-281 -300 -54 -140 -310 0
-281 -300 -54 140 310 0
-281 -300 54 -140 310 0
-281 -300 54 140 -310 0
-281 -300 -55 -141 -311 0
-281 -300 -55 141 311 0
-281 -300 55 -141 311 0
-281 -300 55 141 -311 0
-281 -300 -56 -142 -312 0
-281 -300 -56 142 312 0
-281 -300 56 -142 312 0
-281 -300 56 142 -312 0
-281 -301 -49 -165 -305 0
-281 -301 -49 165 305 0
-281 -301 49 -165 305 0
-281 -301 49 165 -305 0
-281 -301 -50 -166 -306 0
-281 -301 -50 166 306 0
-281 -301 50 -166 306 0
-281 -301 50 166 -306 0
-281 -301 -51 -167 -307 0
-281 -301 -51 167 307 0
-281 -301 51 -167 307 0
-281 -301 51 167 -307 0
-281 -301 -52 -168 -308 0
-281 -301 -52 168 308 0
-281 -301 52 -168 308 0
-281 -301 52 168 -308 0
-281 -301 -53 -169 -309 0
-281 -301 -53 169 309 0
-281 -301 53 -169 309 0
-281 -301 53 169 -309 0
-281 -301 -54 -170 -310 0
-281 -301 -54 170 310 0
-281 -301 54 -170 310 0
-281 -301 54 170 -310 0
-281 -301 -55 -171 -311 0
-281 -301 -55 171 311 0
-281 -301 55 -171 311 0
-281 -301 55 171 -311 0
-281 -301 -56 -172 -312 0
-281 -301 -56 172 312 0
-281 -301 56 -172 312 0
-281 -301 56 172 -312 0
-281 -302 -49 -197 -305 0
-281 -302 -49 197 305 0
-281 -302 49 -197 305 0
-281 -302 49 197 -305 0
-281 -302 -50 -198 -306 0
-281 -302 -50 198 306 0
-281 -302 50 -198 306 0
-281 -302 50 198 -306 0
-281 -302 -51 -199 -307 0
-281 -302 -51 199 307 0
-281 -302 51 -199 307 0
-281 -302 51 199 -307 0
-281 -302 -52 -200 -308 0
-281 -302 -52 200 308 0
-281 -302 52 -200 308 0
-281 -302 52 200 -308 0
-281 -302 -53 -201 -309 0
-281 -302 -53 201 309 0
-281 -302 53 -201 309 0
-281 -302 53 201 -309 0
-281 -302 -54 -202 -310 0
-281 -302 -54 202 310 0
-281 -302 54 -202 310 0
-281 -302 54 202 -310 0
-281 -302 -55 -203 -311 0
-281 -302 -55 203 311 0
-281 -302 55 -203 311 0
-281 -302 55 203 -311 0
-281 -302 -56 -204 -312 0
-281 -302 -56 204 312 0
-281 -302 56 -204 312 0
-281 -302 56 204 -312 0
-281 -303 -49 -231 -305 0
-281 -303 -49 231 305 0
-281 -303 49 -231 305 0
-281 -303 49 231 -305 0
-281 -303 -50 -232 -306 0
-281 -303 -50 232 306 0
-281 -303 50 -232 306 0
-281 -303 50 232 -306 0
-281 -303 -51 -233 -307 0
-281 -303 -51 233 307 0
-281 -303 51 -233 307 0
-281 -303 51 233 -307 0
-281 -303 -52 -234 -308 0
-281 -303 -52 234 308 0
-281 -303 52 -234 308 0
-281 -303 52 234 -308 0
-281 -303 -53 -235 -309 0
-281 -303 -53 235 309 0
-281 -303 53 -235 309 0
-281 -303 53 235 -309 0
-281 -303 -54 -236 -310 0
-281 -303 -54 236 310 0
-281 -303 54 -236 310 0
-281 -303 54 236 -310 0
-281 -303 -55 -237 -311 0
-281 -303 -55 237 311 0
-281 -303 55 -237 311 0
-281 -303 55 237 -311 0
-281 -303 -56 -238 -312 0
-281 -303 -56 238 312 0
-281 -303 56 -238 312 0
-281 -303 56 238 -312 0
-281 -304 -49 -267 -305 0
-281 -304 -49 267 305 0
-281 -304 49 -267 305 0
-281 -304 49 267 -305 0
-281 -304 -50 -268 -306 0
-281 -304 -50 268 306 0
-281 -304 50 -268 306 0
-281 -304 50 268 -306 0
-281 -304 -51 -269 -307 0
-281 -304 -51 269 307 0
-281 -304 51 -269 307 0
-281 -304 51 269 -307 0
-281 -304 -52 -270 -308 0
-281 -304 -52 270 308 0
-281 -304 52 -270 308 0
-281 -304 52 270 -308 0
-281 -304 -53 -271 -309 0
-281 -304 -53 271 309 0
-281 -304 53 -271 309 0
-281 -304 53 271 -309 0
-281 -304 -54 -272 -310 0
-281 -304 -54 272 310 0
-281 -304 54 -272 310 0
-281 -304 54 272 -310 0
-281 -304 -55 -273 -311 0
-281 -304 -55 273 311 0
-281 -304 55 -273 311 0
-281 -304 55 273 -311 0
-281 -304 -56 -274 -312 0
-281 -304 -56 274 312 0
-281 -304 56 -274 312 0
-281 -304 56 274 -312 0
-282 -298 -57 -81 -305 0
-282 -298 -57 81 305 0
-282 -298 57 -81 305 0
-282 -298 57 81 -305 0
-282 -298 -58 -82 -306 0
-282 -298 -58 82 306 0
-282 -298 58 -82 306 0
-282 -298 58 82 -306 0
-282 -298 -59 -83 -307 0
-282 -298 -59 83 307 0
-282 -298 59 -83 307 0
-282 -298 59 83 -307 0
-282 -298 -60 -84 -308 0
-282 -298 -60 84 308 0
-282 -298 60 -84 308 0
-282 -298 60 84 -308 0
-282 -298 -61 -85 -309 0
-282 -298 -61 85 309 0
-282 -298 61 -85 309 0
-282 -298 61 85 -309 0
-282 -298 -62 -86 -310 0
-282 -298 -62 86 310 0
-282 -298 62 -86 310 0
-282 -298 62 86 -310 0
-282 -298 -63 -87 -311 0
-282 -298 -63 87 311 0
-282 -298 63 -87 311 0
-282 -298 63 87 -311 0
-282 -298 -64 -88 -312 0
-282 -298 -64 88 312 0
-282 -298 64 -88 312 0
-282 -298 64 88 -312 0
-282 -299 -57 -107 -305 0
-282 -299 -57 107 305 0
-282 -299 57 -107 305 0
-282 -299 57 107 -305 0
-282 -299 -58 -108 -306 0
-282 -299 -58 108 306 0
-282 -299 58 -108 306 0
-282 -299 58 108 -306 0
-282 -299 -59 -109 -307 0
-282 -299 -59 109 307 0
-282 -299 59 -109 307 0
-282 -299 59 109 -307 0
-282 -299 -60 -110 -308 0
-282 -299 -60 110 308 0
-282 -299 60 -110 308 0
-282 -299 60 110 -308 0
-282 -299 -61 -111 -309 0
-282 -299 -61 111 309 0
-282 -299 61 -111 309 0
-282 -299 61 111 -309 0
-282 -299 -62 -112 -310 0
-282 -299 -62 112 310 0
-282 -299 62 -112 310 0
-282 -299 62 112 -310 0
-282 -299 -63 -113 -311 0
-282 -299 -63 113 311 0
-282 -299 63 -113 311 0
-282 -299 63 113 -311 0
-282 -299 -64 -114 -312 0
-282 -299 -64 114 312 0
-282 -299 64 -114 312 0
-282 -299 64 114 -312 0
-282 -300 -57 -135 -305 0
-282 -300 -57 135 305 0
-282 -300 57 -135 305 0
-282 -300 57 135 -305 0
-282 -300 -58 -136 -306 0
-282 -300 -58 136 306 0
-282 -300 58 -136 306 0
-282 -300 58 136 -306 0
-282 -300 -59 -137 -307 0
-282 -300 -59 137 307 0
-282 -300 59 -137 307 0
-282 -300 59 137 -307 0
-282 -300 -60 -138 -308 0
-282 -300 -60 138 308 0
-282 -300 60 -138 308 0
-282 -300 60 138 -308 0
-282 -300 -61 -139 -309 0
-282 -300 -61 139 309 0
-282 -300 61 -139 309 0
-282 -300 61 139 -309 0
-282 -300 -62 -140 -310 0
-282 -300 -62 140 310 0
-282 -300 62 -140 310 0
-282 -300 62 140 -310 0
-282 -300 -63 -141 -311 0
-282 -300 -63 141 311 0
-282 -300 63 -141 311 0
-282 -300 63 141 -311 0
-282 -300 -64 -142 -312 0
-282 -300 -64 142 312 0
-282 -300 64 -142 312 0
-282 -300 64 142 -312 0
-282 -301 -57 -165 -305 0
-282 -301 -57 165 305 0
-282 -301 57 -165 305 0
-282 -301 57 165 -305 0
-282 -301 -58 -166 -306 0
-282 -301 -58 166 306 0
-282 -301 58 -166 306 0
-282 -301 58 166 -306 0
-282 -301 -59 -167 -307 0
-282 -301 -59 167 307 0
-282 -301 59 -167 307 0
-282 -301 59 167 -307 0
-282 -301 -60 -168 -308 0
-282 -301 -60 168 308 0
-282 -301 60 -168 308 0
-282 -301 60 168 -308 0
-282 -301 -61 -169 -309 0
-282 -301 -61 169 309 0
-282 -301 61 -169 309 0
-282 -301 61 169 -309 0
-282 -301 -62 -170 -310 0
-282 -301 -62 170 310 0
-282 -301 62 -170 310 0
-282 -301 62 170 -310 0
-282 -301 -63 -171 -311 0
-282 -301 -63 171 311 0
-282 -301 63 -171 311 0
-282 -301 63 171 -311 0
-282 -301 -64 -172 -312 0
-282 -301 -64 172 312 0
-282 -301 64 -172 312 0
-282 -301 64 172 -312 0
-282 -302 -57 -197 -305 0
-282 -302 -57 197 305 0
-282 -302 57 -197 305 0
-282 -302 57 197 -305 0
-282 -302 -58 -198 -306 0
-282 -302 -58 198 306 0
-282 -302 58 -198 306 0
-282 -302 58 198 -306 0
-282 -302 -59 -199 -307 0
-282 -302 -59 199 307 0
-282 -302 59 -199 307 0
-282 -302 59 199 -307 0
-282 -302 -60 -200 -308 0
-282 -302 -60 200 308 0
-282 -302 60 -200 308 0
-282 -302 60 200 -308 0
-282 -302 -61 -201 -309 0
-282 -302 -61 201 309 0
-282 -302 61 -201 309 0
-282 -302 61 201 -309 0
-282 -302 -62 -202 -310 0
-282 -302 -62 202 310 0
-282 -302 62 -202 310 0
-282 -302 62 202 -310 0
-282 -302 -63 -203 -311 0
-282 -302 -63 203 311 0
-282 -302 63 -203 311 0
-282 -302 63 203 -311 0
-282 -302 -64 -204 -312 0
-282 -302 -64 204 312 0
-282 -302 64 -204 312 0
-282 -302 64 204 -312 0
-282 -303 -57 -231 -305 0
-282 -303 -57 231 305 0
-282 -303 57 -231 305 0
-282 -303 57 231 -305 0
-282 -303 -58 -232 -306 0
-282 -303 -58 232 306 0
-282 -303 58 -232 306 0
-282 -303 58 232 -306 0
-282 -303 -59 -233 -307 0
-282 -303 -59 233 307 0
-282 -303 59 -233 307 0
-282 -303 59 233 -307 0
-282 -303 -60 -234 -308 0
-282 -303 -60 234 308 0
-282 -303 60 -234 308 0
-282 -303 60 234 -308 0
-282 -303 -61 -235 -309 0
-282 -303 -61 235 309 0
-282 -303 61 -235 309 0
-282 -303 61 235 -309 0
-282 -303 -62 -236 -310 0
-282 -303 -62 236 310 0
-282 -303 62 -236 310 0
-282 -303 62 236 -310 0
-282 -303 -63 -237 -311 0
-282 -303 -63 237 311 0
-282 -303 63 -237 311 0
-282 -303 63 237 -311 0
-282 -303 -64 -238 -312 0
-282 -303 -64 238 312 0
-282 -303 64 -238 312 0
-282 -303 64 238 -312 0
-282 -304 -57 -267 -305 0
-282 -304 -57 267 305 0
-282 -304 57 -267 305 0
-282 -304 57 267 -305 0
-282 -304 -58 -268 -306 0
-282 -304 -58 268 306 0
-282 -304 58 -268 306 0
-282 -304 58 268 -306 0
-282 -304 -59 -269 -307 0
-282 -304 -59 269 307 0
-282 -304 59 -269 307 0
-282 -304 59 269 -307 0
-282 -304 -60 -270 -308 0
-282 -304 -60 270 308 0
-282 -304 60 -270 308 0
-282 -304 60 270 -308 0
-282 -304 -61 -271 -309 0
-282 -304 -61 271 309 0
-282 -304 61 -271 309 0
-282 -304 61 271 -309 0
-282 -304 -62 -272 -310 0
-282 -304 -62 272 310 0
-282 -304 62 -272 310 0
-282 -304 62 272 -310 0
-282 -304 -63 -273 -311 0
-282 -304 -63 273 311 0
-282 -304 63 -273 311 0
-282 -304 63 273 -311 0
-282 -304 -64 -274 -312 0
-282 -304 -64 274 312 0
-282 -304 64 -274 312 0
-282 -304 64 274 -312 0
-283 -299 -81 -107 -305 0
-283 -299 -81 107 305 0
-283 -299 81 -107 305 0
-283 -299 81 107 -305 0
-283 -299 -82 -108 -306 0
-283 -299 -82 108 306 0
-283 -299 82 -108 306 0
-283 -299 82 108 -306 0
-283 -299 -83 -109 -307 0
-283 -299 -83 109 307 0
-283 -299 83 -109 307 0
-283 -299 83 109 -307 0
-283 -299 -84 -110 -308 0
-283 -299 -84 110 308 0
-283 -299 84 -110 308 0
-283 -299 84 110 -308 0
-283 -299 -85 -111 -309 0
-283 -299 -85 111 309 0
-283 -299 85 -111 309 0
-283 -299 85 111 -309 0
-283 -299 -86 -112 -310 0
-283 -299 -86 112 310 0
-283 -299 86 -112 310 0
-283 -299 86 112 -310 0
-283 -299 -87 -113 -311 0
-283 -299 -87 113 311 0
-283 -299 87 -113 311 0
-283 -299 87 113 -311 0
-283 -299 -88 -114 -312 0
-283 -299 -88 114 312 0
-283 -299 88 -114 312 0
-283 -299 88 114 -312 0
-283 -300 -81 -135 -305 0
-283 -300 -81 135 305 0
-283 -300 81 -135 305 0
-283 -300 81 135 -305 0
-283 -300 -82 -136 -306 0
-283 -300 -82 136 306 0
-283 -300 82 -136 306 0
-283 -300 82 136 -306 0
-283 -300 -83 -137 -307 0
-283 -300 -83 137 307 0
-283 -300 83 -137 307 0
-283 -300 83 137 -307 0
-283 -300 -84 -138 -308 0
-283 -300 -84 138 308 0
-283 -300 84 -138 308 0
-283 -300 84 138 -308 0
-283 -300 -85 -139 -309 0
-283 -300 -85 139 309 0
-283 -300 85 -139 309 0
-283 -300 85 139 -309 0
-283 -300 -86 -140 -310 0
-283 -300 -86 140 310 0
-283 -300 86 -140 310 0
-283 -300 86 140 -310 0
-283 -300 -87 -141 -311 0
-283 -300 -87 141 311 0
-283 -300 87 -141 311 0
-283 -300 87 141 -311 0
-283 -300 -88 -142 -312 0
-283 -300 -88 142 312 0
-283 -300 88 -142 312 0
-283 -300 88 142 -312 0
-283 -301 -81 -165 -305 0
-283 -301 -81 165 305 0
-283 -301 81 -165 305 0
-283 -301 81 165 -305 0
-283 -301 -82 -166 -306 0
-283 -301 -82 166 306 0
-283 -301 82 -166 306 0
-283 -301 82 166 -306 0
-283 -301 -83 -167 -307 0
-283 -301 -83 167 307 0
-283 -301 83 -167 307 0
-283 -301 83 167 -307 0
-283 -301 -84 -168 -308 0
-283 -301 -84 168 308 0
-283 -301 84 -168 308 0
-283 -301 84 168 -308 0
-283 -301 -85 -169 -309 0
-283 -301 -85 169 309 0
-283 -301 85 -169 309 0
-283 -301 85 169 -309 0
-283 -301 -86 -170 -310 0
-283 -301 -86 170 310 0
-283 -301 86 -170 310 0
-283 -301 86 170 -310 0
-283 -301 -87 -171 -311 0
-283 -301 -87 171 311 0
-283 -301 87 -171 311 0
-283 -301 87 171 -311 0
-283 -301 -88 -172 -312 0
-283 -301 -88 172 312 0
-283 -301 88 -172 312 0
-283 -301 88 172 -312 0
-283 -302 -81 -197 -305 0
-283 -302 -81 197 305 0
-283 -302 81 -197 305 0
-283 -302 81 197 -305 0
-283 -302 -82 -198 -306 0
-283 -302 -82 198 306 0
-283 -302 82 -198 306 0
-283 -302 82 198 -306 0
-283 -302 -83 -199 -307 0
-283 -302 -83 199 307 0
-283 -302 83 -199 307 0
-283 -302 83 199 -307 0
-283 -302 -84 -200 -308 0
-283 -302 -84 200 308 0
-283 -302 84 -200 308 0
-283 -302 84 200 -308 0
-283 -302 -85 -201 -309 0
-283 -302 -85 201 309 0
-283 -302 85 -201 309 0
-283 -302 85 201 -309 0
-283 -302 -86 -202 -310 0
-283 -302 -86 202 310 0
-283 -302 86 -202 310 0
-283 -302 86 202 -310 0
-283 -302 -87 -203 -311 0
-283 -302 -87 203 311 0
-283 -302 87 -203 311 0
-283 -302 87 203 -311 0
-283 -302 -88 -204 -312 0
-283 -302 -88 204 312 0
-283 -302 88 -204 312 0
-283 -302 88 204 -312 0
-283 -303 -81 -231 -305 0
-283 -303 -81 231 305 0
-283 -303 81 -231 305 0
-283 -303 81 231 -305 0
-283 -303 -82 -232 -306 0
-283 -303 -82 232 306 0
-283 -303 82 -232 306 0
-283 -303 82 232 -306 0
-283 -303 -83 -233 -307 0
-283 -303 -83 233 307 0
-283 -303 83 -233 307 0
-283 -303 83 233 -307 0
-283 -303 -84 -234 -308 0
-283 -303 -84 234 308 0
-283 -303 84 -234 308 0
-283 -303 84 234 -308 0
-283 -303 -85 -235 -309 0
-283 -303 -85 235 309 0
-283 -303 85 -235 309 0
-283 -303 85 235 -309 0
-283 -303 -86 -236 -310 0
-283 -303 -86 236 310 0
-283 -303 86 -236 310 0
-283 -303 86 236 -310 0
-283 -303 -87 -237 -311 0
-283 -303 -87 237 311 0
-283 -303 87 -237 311 0
-283 -303 87 237 -311 0
-283 -303 -88 -238 -312 0
-283 -303 -88 238 312 0
-283 -303 88 -238 312 0
-283 -303 88 238 -312 0
-283 -304 -81 -267 -305 0
-283 -304 -81 267 305 0
-283 -304 81 -267 305 0
-283 -304 81 267 -305 0
-283 -304 -82 -268 -306 0
-283 -304 -82 268 306 0
-283 -304 82 -268 306 0
-283 -304 82 268 -306 0
-283 -304 -83 -269 -307 0
-283 -304 -83 269 307 0
-283 -304 83 -269 307 0
-283 -304 83 269 -307 0
-283 -304 -84 -270 -308 0
-283 -304 -84 270 308 0
-283 -304 84 -270 308 0
-283 -304 84 270 -308 0
-283 -304 -85 -271 -309 0
-283 -304 -85 271 309 0
-283 -304 85 -271 309 0
-283 -304 85 271 -309 0
-283 -304 -86 -272 -310 0
-283 -304 -86 272 310 0
-283 -304 86 -272 310 0
-283 -304 86 272 -310 0
-283 -304 -87 -273 -311 0
-283 -304 -87 273 311 0
-283 -304 87 -273 311 0
-283 -304 87 273 -311 0
-283 -304 -88 -274 -312 0
-283 -304 -88 274 312 0
-283 -304 88 -274 312 0
-283 -304 88 274 -312 0
-284 -300 -107 -135 -305 0
-284 -300 -107 135 305 0
-284 -300 107 -135 305 0
-284 -300 107 135 -305 0
-284 -300 -108 -136 -306 0
-284 -300 -108 136 306 0
-284 -300 108 -136 306 0
-284 -300 108 136 -306 0
-284 -300 -109 -137 -307 0
-284 -300 -109 137 307 0
-284 -300 109 -137 307 0
-284 -300 109 137 -307 0
-284 -300 -110 -138 -308 0
-284 -300 -110 138 308 0
-284 -300 110 -138 308 0
-284 -300 110 138 -308 0
-284 -300 -111 -139 -309 0
-284 -300 -111 139 309 0
-284 -300 111 -139 309 0
-284 -300 111 139 -309 0
-284 -300 -112 -140 -310 0
-284 -300 -112 140 310 0
-284 -300 112 -140 310 0
-284 -300 112 140 -310 0
-284 -300 -113 -141 -311 0
-284 -300 -113 141 311 0
-284 -300 113 -141 311 0
-284 -300 113 141 -311 0
-284 -300 -114 -142 -312 0
-284 -300 -114 142 312 0
-284 -300 114 -142 312 0
-284 -300 114 142 -312 0
-284 -301 -107 -165 -305 0
-284 -301 -107 165 305 0
-284 -301 107 -165 305 0
-284 -301 107 165 -305 0
-284 -301 -108 -166 -306 0
-284 -301 -108 166 306 0
-284 -301 108 -166 306 0
-284 -301 108 166 -306 0
-284 -301 -109 -167 -307 0
-284 -301 -109 167 307 0
-284 -301 109 -167 307 0
-284 -301 109 167 -307 0
-284 -301 -110 -168 -308 0
-284 -301 -110 168 308 0
-284 -301 110 -168 308 0
-284 -301 110 168 -308 0
-284 -301 -111 -169 -309 0
-284 -301 -111 169 309 0
-284 -301 111 -169 309 0
-284 -301 111 169 -309 0
-284 -301 -112 -170 -310 0
-284 -301 -112 170 310 0
-284 -301 112 -170 310 0
-284 -301 112 170 -310 0
-284 -301 -113 -171 -311 0
-284 -301 -113 171 311 0
-284 -301 113 -171 311 0
-284 -301 113 171 -311 0
-284 -301 -114 -172 -312 0
-284 -301 -114 172 312 0
-284 -301 114 -172 312 0
-284 -301 114 172 -312 0
-284 -302 -107 -197 -305 0
-284 -302 -107 197 305 0
-284 -302 107 -197 305 0
-284 -302 107 197 -305 0
-284 -302 -108 -198 -306 0
-284 -302 -108 198 306 0
-284 -302 108 -198 306 0
-284 -302 108 198 -306 0
-284 -302 -109 -199 -307 0
-284 -302 -109 199 307 0
-284 -302 109 -199 307 0
-284 -302 109 199 -307 0
-284 -302 -110 -200 -308 0
-284 -302 -110 200 308 0
-284 -302 110 -200 308 0
-284 -302 110 200 -308 0
-284 -302 -111 -201 -309 0
-284 -302 -111 201 309 0
-284 -302 111 -201 309 0
-284 -302 111 201 -309 0
-284 -302 -112 -202 -310 0
-284 -302 -112 202 310 0
-284 -302 112 -202 310 0
-284 -302 112 202 -310 0
-284 -302 -113 -203 -311 0
-284 -302 -113 203 311 0
-284 -302 113 -203 311 0
-284 -302 113 203 -311 0
-284 -302 -114 -204 -312 0
-284 -302 -114 204 312 0
-284 -302 114 -204 312 0
-284 -302 114 204 -312 0
-284 -303 -107 -231 -305 0
-284 -303 -107 231 305 0
-284 -303 107 -231 305 0
-284 -303 107 231 -305 0
-284 -303 -108 -232 -306 0
-284 -303 -108 232 306 0
-284 -303 108 -232 306 0
-284 -303 108 232 -306 0
-284 -303 -109 -233 -307 0
-284 -303 -109 233 307 0
-284 -303 109 -233 307 0
-284 -303 109 233 -307 0
-284 -303 -110 -234 -308 0
-284 -303 -110 234 308 0
-284 -303 110 -234 308 0
-284 -303 110 234 -308 0
-284 -303 -111 -235 -309 0
-284 -303 -111 235 309 0
-284 -303 111 -235 309 0
-284 -303 111 235 -309 0
-284 -303 -112 -236 -310 0
-284 -303 -112 236 310 0
-284 -303 112 -236 310 0
-284 -303 112 236 -310 0
-284 -303 -113 -237 -311 0
-284 -303 -113 237 311 0
-284 -303 113 -237 311 0
-284 -303 113 237 -311 0
-284 -303 -114 -238 -312 0
-284 -303 -114 238 312 0
-284 -303 114 -238 312 0
-284 -303 114 238 -312 0
-284 -304 -107 -267 -305 0
-284 -304 -107 267 305 0
-284 -304 107 -267 305 0
-284 -304 107 267 -305 0
-284 -304 -108 -268 -306 0
-284 -304 -108 268 306 0
-284 -304 108 -268 306 0
-284 -304 108 268 -306 0
-284 -304 -109 -269 -307 0
-284 -304 -109 269 307 0
-284 -304 109 -269 307 0
-284 -304 109 269 -307 0
-284 -304 -110 -270 -308 0
-284 -304 -110 270 308 0
-284 -304 110 -270 308 0
-284 -304 110 270 -308 0
-284 -304 -111 -271 -309 0
-284 -304 -111 271 309 0
-284 -304 111 -271 309 0
-284 -304 111 271 -309 0
-284 -304 -112 -272 -310 0
-284 -304 -112 272 310 0
-284 -304 112 -272 310 0
-284 -304 112 272 -310 0
-284 -304 -113 -273 -311 0
-284 -304 -113 273 311 0
-284 -304 113 -273 311 0
-284 -304 113 273 -311 0
-284 -304 -114 -274 -312 0
-284 -304 -114 274 312 0
-284 -304 114 -274 312 0
-284 -304 114 274 -312 0
-285 -301 -135 -165 -305 0
-285 -301 -135 165 305 0
-285 -301 135 -165 305 0
-285 -301 135 165 -305 0
-285 -301 -136 -166 -306 0
-285 -301 -136 166 306 0
-285 -301 136 -166 306 0
-285 -301 136 166 -306 0
-285 -301 -137 -167 -307 0
-285 -301 -137 167 307 0
-285 -301 137 -167 307 0
-285 -301 137 167 -307 0
-285 -301 -138 -168 -308 0
-285 -301 -138 168 308 0
-285 -301 138 -168 308 0
-285 -301 138 168 -308 0
-285 -301 -139 -169 -309 0
-285 -301 -139 169 309 0
-285 -301 139 -169 309 0
-285 -301 139 169 -309 0
-285 -301 -140 -170 -310 0
-285 -301 -140 170 310 0
-285 -301 140 -170 310 0
-285 -301 140 170 -310 0
-285 -301 -141 -171 -311 0
-285 -301 -141 171 311 0
-285 -301 141 -171 311 0
-285 -301 141 171 -311 0
-285 -301 -142 -172 -312 0
-285 -301 -142 172 312 0
-285 -301 142 -172 312 0
-285 -301 142 172 -312 0
-285 -302 -135 -197 -305 0
-285 -302 -135 197 305 0
-285 -302 135 -197 305 0
-285 -302 135 197 -305 0
-285 -302 -136 -198 -306 0
-285 -302 -136 198 306 0
-285 -302 136 -198 306 0
-285 -302 136 198 -306 0
-285 -302 -137 -199 -307 0
-285 -302 -137 199 307 0
-285 -302 137 -199 307 0
-285 -302 137 199 -307 0
-285 -302 -138 -200 -308 0
-285 -302 -138 200 308 0
-285 -302 138 -200 308 0
-285 -302 138 200 -308 0
-285 -302 -139 -201 -309 0
-285 -302 -139 201 309 0
-285 -302 139 -201 309 0
-285 -302 139 201 -309 0
-285 -302 -140 -202 -310 0
-285 -302 -140 202 310 0
-285 -302 140 -202 310 0
-285 -302 140 202 -310 0
-285 -302 -141 -203 -311 0
-285 -302 -141 203 311 0
-285 -302 141 -203 311 0
-285 -302 141 203 -311 0
-285 -302 -142 -204 -312 0
-285 -302 -142 204 312 0
-285 -302 142 -204 312 0
-285 -302 142 204 -312 0
-285 -303 -135 -231 -305 0
-285 -303 -135 231 305 0
-285 -303 135 -231 305 0
-285 -303 135 231 -305 0
-285 -303 -136 -232 -306 0
-285 -303 -136 232 306 0
-285 -303 136 -232 306 0
-285 -303 136 232 -306 0
-285 -303 -137 -233 -307 0
-285 -303 -137 233 307 0
-285 -303 137 -233 307 0
-285 -303 137 233 -307 0
-285 -303 -138 -234 -308 0
-285 -303 -138 234 308 0
-285 -303 138 -234 308 0
-285 -303 138 234 -308 0
-285 -303 -139 -235 -309 0
-285 -303 -139 235 309 0
-285 -303 139 -235 309 0
-285 -303 139 235 -309 0
-285 -303 -140 -236 -310 0
-285 -303 -140 236 310 0
-285 -303 140 -236 310 0
-285 -303 140 236 -310 0
-285 -303 -141 -237 -311 0
-285 -303 -141 237 311 0
-285 -303 141 -237 311 0
-285 -303 141 237 -311 0
-285 -303 -142 -238 -312 0
-285 -303 -142 238 312 0
-285 -303 142 -238 312 0
-285 -303 142 238 -312 0
-285 -304 -135 -267 -305 0
-285 -304 -135 267 305 0
-285 -304 135 -267 305 0
-285 -304 135 267 -305 0
-285 -304 -136 -268 -306 0
-285 -304 -136 268 306 0
-285 -304 136 -268 306 0
-285 -304 136 268 -306 0
-285 -304 -137 -269 -307 0
-285 -304 -137 269 307 0
-285 -304 137 -269 307 0
-285 -304 137 269 -307 0
-285 -304 -138 -270 -308 0
-285 -304 -138 270 308 0
-285 -304 138 -270 308 0
-285 -304 138 270 -308 0
-285 -304 -139 -271 -309 0
-285 -304 -139 271 309 0
-285 -304 139 -271 309 0
-285 -304 139 271 -309 0
-285 -304 -140 -272 -310 0
-285 -304 -140 272 310 0
-285 -304 140 -272 310 0
-285 -304 140 272 -310 0
-285 -304 -141 -273 -311 0
-285 -304 -141 273 311 0
-285 -304 141 -273 311 0
-285 -304 141 273 -311 0
-285 -304 -142 -274 -312 0
-285 -304 -142 274 312 0
-285 -304 142 -274 312 0
-285 -304 142 274 -312 0
-286 -302 -165 -197 -305 0
-286 -302 -165 197 305 0
-286 -302 165 -197 305 0
-286 -302 165 197 -305 0
-286 -302 -166 -198 -306 0
-286 -302 -166 198 306 0
-286 -302 166 -198 306 0
-286 -302 166 198 -306 0
-286 -302 -167 -199 -307 0
-286 -302 -167 199 307 0
-286 -302 167 -199 307 0
-286 -302 167 199 -307 0
-286 -302 -168 -200 -308 0
-286 -302 -168 200 308 0
-286 -302 168 -200 308 0
-286 -302 168 200 -308 0
-286 -302 -169 -201 -309 0
-286 -302 -169 201 309 0
-286 -302 169 -201 309 0
-286 -302 169 201 -309 0
-286 -302 -170 -202 -310 0
-286 -302 -170 202 310 0
-286 -302 170 -202 310 0
-286 -302 170 202 -310 0
-286 -302 -171 -203 -311 0
-286 -302 -171 203 311 0
-286 -302 171 -203 311 0
-286 -302 171 203 -311 0
-286 -302 -172 -204 -312 0
-286 -302 -172 204 312 0
-286 -302 172 -204 312 0
-286 -302 172 204 -312 0
-286 -303 -165 -231 -305 0
-286 -303 -165 231 305 0
-286 -303 165 -231 305 0
-286 -303 165 231 -305 0
-286 -303 -166 -232 -306 0
-286 -303 -166 232 306 0
-286 -303 166 -232 306 0
-286 -303 166 232 -306 0
-286 -303 -167 -233 -307 0
-286 -303 -167 233 307 0
-286 -303 167 -233 307 0
-286 -303 167 233 -307 0
-286 -303 -168 -234 -308 0
-286 -303 -168 234 308 0
-286 -303 168 -234 308 0
-286 -303 168 234 -308 0
-286 -303 -169 -235 -309 0
-286 -303 -169 235 309 0
-286 -303 169 -235 309 0
-286 -303 169 235 -309 0
-286 -303 -170 -236 -310 0
-286 -303 -170 236 310 0
-286 -303 170 -236 310 0
-286 -303 170 236 -310 0
-286 -303 -171 -237 -311 0
-286 -303 -171 237 311 0
-286 -303 171 -237 311 0
-286 -303 171 237 -311 0
-286 -303 -172 -238 -312 0
-286 -303 -172 238 312 0
-286 -303 172 -238 312 0
-286 -303 172 238 -312 0
-286 -304 -165 -267 -305 0
-286 -304 -165 267 305 0
-286 -304 165 -267 305 0
-286 -304 165 267 -305 0
-286 -304 -166 -268 -306 0
-286 -304 -166 268 306 0
-286 -304 166 -268 306 0
-286 -304 166 268 -306 0
-286 -304 -167 -269 -307 0
-286 -304 -167 269 307 0
-286 -304 167 -269 307 0
-286 -304 167 269 -307 0
-286 -304 -168 -270 -308 0
-286 -304 -168 270 308 0
-286 -304 168 -270 308 0
-286 -304 168 270 -308 0
-286 -304 -169 -271 -309 0
-286 -304 -169 271 309 0
-286 -304 169 -271 309 0
-286 -304 169 271 -309 0
-286 -304 -170 -272 -310 0
-286 -304 -170 272 310 0
-286 -304 170 -272 310 0
-286 -304 170 272 -310 0
-286 -304 -171 -273 -311 0
-286 -304 -171 273 311 0
-286 -304 171 -273 311 0
-286 -304 171 273 -311 0
-286 -304 -172 -274 -312 0
-286 -304 -172 274 312 0
-286 -304 172 -274 312 0
-286 -304 172 274 -312 0
-287 -303 -197 -231 -305 0
-287 -303 -197 231 305 0
-287 -303 197 -231 305 0
-287 -303 197 231 -305 0
-287 -303 -198 -232 -306 0
-287 -303 -198 232 306 0
-287 -303 198 -232 306 0
-287 -303 198 232 -306 0
-287 -303 -199 -233 -307 0
-287 -303 -199 233 307 0
-287 -303 199 -233 307 0
-287 -303 199 233 -307 0
-287 -303 -200 -234 -308 0
-287 -303 -200 234 308 0
-287 -303 200 -234 308 0
-287 -303 200 234 -308 0
-287 -303 -201 -235 -309 0
-287 -303 -201 235 309 0
-287 -303 201 -235 309 0
-287 -303 201 235 -309 0
-287 -303 -202 -236 -310 0
-287 -303 -202 236 310 0
-287 -303 202 -236 310 0
-287 -303 202 236 -310 0
-287 -303 -203 -237 -311 0
-287 -303 -203 237 311 0
-287 -303 203 -237 311 0
-287 -303 203 237 -311 0
-287 -303 -204 -238 -312 0
-287 -303 -204 238 312 0
-287 -303 204 -238 312 0
-287 -303 204 238 -312 0
-287 -304 -197 -267 -305 0
-287 -304 -197 267 305 0
-287 -304 197 -267 305 0
-287 -304 197 267 -305 0
-287 -304 -198 -268 -306 0
-287 -304 -198 268 306 0
-287 -304 198 -268 306 0
-287 -304 198 268 -306 0
-287 -304 -199 -269 -307 0
-287 -304 -199 269 307 0
-287 -304 199 -269 307 0
-287 -304 199 269 -307 0
-287 -304 -200 -270 -308 0
-287 -304 -200 270 308 0
-287 -304 200 -270 308 0
-287 -304 200 270 -308 0
-287 -304 -201 -271 -309 0
-287 -304 -201 271 309 0
-287 -304 201 -271 309 0
-287 -304 201 271 -309 0
-287 -304 -202 -272 -310 0
-287 -304 -202 272 310 0
-287 -304 202 -272 310 0
-287 -304 202 272 -310 0
-287 -304 -203 -273 -311 0
-287 -304 -203 273 311 0
-287 -304 203 -273 311 0
-287 -304 203 273 -311 0
-287 -304 -204 -274 -312 0
-287 -304 -204 274 312 0
-287 -304 204 -274 312 0
-287 -304 204 274 -312 0
-288 -304 -231 -267 -305 0
-288 -304 -231 267 305 0
-288 -304 231 -267 305 0
-288 -304 231 267 -305 0
-288 -304 -232 -268 -306 0
-288 -304 -232 268 306 0
-288 -304 232 -268 306 0
-288 -304 232 268 -306 0
-288 -304 -233 -269 -307 0
-288 -304 -233 269 307 0
-288 -304 233 -269 307 0
-288 -304 233 269 -307 0
-288 -304 -234 -270 -308 0
-288 -304 -234 270 308 0
-288 -304 234 -270 308 0
-288 -304 234 270 -308 0
-288 -304 -235 -271 -309 0
-288 -304 -235 271 309 0
-288 -304 235 -271 309 0
-288 -304 235 271 -309 0
-288 -304 -236 -272 -310 0
-288 -304 -236 272 310 0
-288 -304 236 -272 310 0
-288 -304 236 272 -310 0
-288 -304 -237 -273 -311 0
-288 -304 -237 273 311 0
-288 -304 237 -273 311 0
-288 -304 237 273 -311 0
-288 -304 -238 -274 -312 0
-288 -304 -238 274 312 0
-288 -304 238 -274 312 0
-288 -304 238 274 -312 0
305 306 307 308 309 310 311 312 0
313 314 315 316 317 318 319 320 321 322 323 324 325 326 327 328 0
-313 -314 0
-313 -315 0
-313 -316 0
-313 -317 0
-313 -318 0
-313 -319 0
-313 -320 0
-313 -321 0
-313 -322 0
-313 -323 0
-313 -324 0
-313 -325 0
-313 -326 0
-313 -327 0
-313 -328 0
-314 -315 0
-314 -316 0
-314 -317 0
-314 -318 0
-314 -319 0
-314 -320 0
-314 -321 0
-314 -322 0
-314 -323 0
-314 -324 0
-314 -325 0
-314 -326 0
-314 -327 0
-314 -328 0
-315 -316 0
-315 -317 0
-315 -318 0
-315 -319 0
-315 -320 0
-315 -321 0
-315 -322 0
-315 -323 0
-315 -324 0
-315 -325 0
-315 -326 0
-315 -327 0
-315 -328 0
-316 -317 0
-316 -318 0
-316 -319 0
-316 -320 0
-316 -321 0
-316 -322 0
-316 -323 0
-316 -324 0
-316 -325 0
-316 -326 0
-316 -327 0
-316 -328 0
-317 -318 0
-317 -319 0
-317 -320 0
-317 -321 0
-317 -322 0
-317 -323 0
-317 -324 0
-317 -325 0
-317 -326 0
-317 -327 0
-317 -328 0
-318 -319 0
-318 -320 0
-318 -321 0
-318 -322 0
-318 -323 0
-318 -324 0
-318 -325 0
-318 -326 0
-318 -327 0
-318 -328 0
-319 -320 0
-319 -321 0
-319 -322 0
-319 -323 0
-319 -324 0
-319 -325 0
-319 -326 0
-319 -327 0
-319 -328 0
-320 -321 0
-320 -322 0
-320 -323 0
-320 -324 0
-320 -325 0
-320 -326 0
-320 -327 0
-320 -328 0
-321 -322 0
-321 -323 0
-321 -324 0
-321 -325 0
-321 -326 0
-321 -327 0
-321 -328 0
-322 -323 0
-322 -324 0
-322 -325 0
-322 -326 0
-322 -327 0
-322 -328 0
-323 -324 0
-323 -325 0
-323 -326 0
-323 -327 0
-323 -328 0
-324 -325 0
-324 -326 0
-324 -327 0
-324 -328 0
-325 -326 0
-325 -327 0
-325 -328 0
-326 -327 0
-326 -328 0
-327 -328 0
329 330 331 332 333 334 335 336 337 338 339 340 341 342 343 344 0
-329 -330 0
-329 -331 0
-329 -332 0
-329 -333 0
-329 -334 0
-329 -335 0
-329 -336 0
-329 -337 0
-329 -338 0
-329 -339 0
-329 -340 0
-329 -341 0
-329 -342 0
-329 -343 0
-329 -344 0
-330 -331 0
-330 -332 0
-330 -333 0
-330 -334 0
-330 -335 0
-330 -336 0
-330 -337 0
-330 -338 0
-330 -339 0
-330 -340 0
-330 -341 0
-330 -342 0
-330 -343 0
-330 -344 0
-331 -332 0
-331 -333 0
-331 -334 0
-331 -335 0
-331 -336 0
-331 -337 0
-331 -338 0
-331 -339 0
-331 -340 0
-331 -341 0
-331 -342 0
-331 -343 0
-331 -344 0
-332 -333 0
-332 -334 0
-332 -335 0
-332 -336 0
-332 -337 0
-332 -338 0
-332 -339 0
-332 -340 0
-332 -341 0
-332 -342 0
-332 -343 0
-332 -344 0
-333 -334 0
-333 -335 0
-333 -336 0
-333 -337 0
-333 -338 0
-333 -339 0
-333 -340 0
-333 -341 0
-333 -342 0
-333 -343 0
-333 -344 0
-334 -335 0
-334 -336 0
-334 -337 0
-334 -338 0
-334 -339 0
-334 -340 0
-334 -341 0
-334 -342 0
-334 -343 0
-334 -344 0
-335 -336 0
-335 -337 0
-335 -338 0
-335 -339 0
-335 -340 0
-335 -341 0
-335 -342 0
-335 -343 0
-335 -344 0
-336 -337 0
-336 -338 0
-336 -339 0
-336 -340 0
-336 -341 0
-336 -342 0
-336 -343 0
-336 -344 0
-337 -338 0
-337 -339 0
-337 -340 0
-337 -341 0
-337 -342 0
-337 -343 0
-337 -344 0
-338 -339 0
-338 -340 0
-338 -341 0
-338 -342 0
-338 -343 0
-338 -344 0
-339 -340 0
-339 -341 0
-339 -342 0
-339 -343 0
-339 -344 0
-340 -341 0
-340 -342 0
-340 -343 0
-340 -344 0
-341 -342 0
-341 -343 0
-341 -344 0
-342 -343 0
-342 -344 0
-343 -344 0
-313 -329 0
-314 -329 0
-314 -330 0
-315 -329 0
-315 -330 0
-315 -331 0
-316 -329 0
-316 -330 0
-316 -331 0
-316 -332 0
-317 -329 0
-317 -330 0
-317 -331 0
-317 -332 0
-317 -333 0
-318 -329 0
-318 -330 0
-318 -331 0
-318 -332 0
-318 -333 0
-318 -334 0
-319 -329 0
-319 -330 0
-319 -331 0
-319 -332 0
-319 -333 0
-319 -334 0
-319 -335 0
-320 -329 0
-320 -330 0
-320 -331 0
-320 -332 0
-320 -333 0
-320 -334 0
-320 -335 0
-320 -336 0
-321 -329 0
-321 -330 0
-321 -331 0
-321 -332 0
-321 -333 0
-321 -334 0
-321 -335 0
-321 -336 0
-321 -337 0
-322 -329 0
-322 -330 0
-322 -331 0
-322 -332 0
-322 -333 0
-322 -334 0
-322 -335 0
-322 -336 0
-322 -337 0
-322 -338 0
-323 -329 0
-323 -330 0
-323 -331 0
-323 -332 0
-323 -333 0
-323 -334 0
-323 -335 0
-323 -336 0
-323 -337 0
-323 -338 0
-323 -339 0
-324 -329 0
-324 -330 0
-324 -331 0
-324 -332 0
-324 -333 0
-324 -334 0
-324 -335 0
-324 -336 0
-324 -337 0
-324 -338 0
-324 -339 0
-324 -340 0
-325 -329 0
-325 -330 0
-325 -331 0
-325 -332 0
-325 -333 0
-325 -334 0
-325 -335 0
-325 -336 0
-325 -337 0
-325 -338 0
-325 -339 0
-325 -340 0
-325 -341 0
-326 -329 0
-326 -330 0
-326 -331 0
-326 -332 0
-326 -333 0
-326 -334 0
-326 -335 0
-326 -336 0
-326 -337 0
-326 -338 0
-326 -339 0
-326 -340 0
-326 -341 0
-326 -342 0
-327 -329 0
-327 -330 0
-327 -331 0
-327 -332 0
-327 -333 0
-327 -334 0
-327 -335 0
-327 -336 0
-327 -337 0
-327 -338 0
-327 -339 0
-327 -340 0
-327 -341 0
-327 -342 0
-327 -343 0
-328 -329 0
-328 -330 0
-328 -331 0
-328 -332 0
-328 -333 0
-328 -334 0
-328 -335 0
-328 -336 0
-328 -337 0
-328 -338 0
-328 -339 0
-328 -340 0
-328 -341 0
-328 -342 0
-328 -343 0
-328 -344 0
-313 -330 -1 -9 -345 0
-313 -330 -1 9 345 0
-313 -330 1 -9 345 0
-313 -330 1 9 -345 0
-313 -330 -2 -10 -346 0
-313 -330 -2 10 346 0
-313 -330 2 -10 346 0
-313 -330 2 10 -346 0
-313 -330 -3 -11 -347 0
-313 -330 -3 11 347 0
-313 -330 3 -11 347 0
-313 -330 3 11 -347 0
-313 -330 -4 -12 -348 0
-313 -330 -4 12 348 0
-313 -330 4 -12 348 0
-313 -330 4 12 -348 0
-313 -330 -5 -13 -349 0
-313 -330 -5 13 349 0
-313 -330 5 -13 349 0
-313 -330 5 13 -349 0
-313 -330 -6 -14 -350 0
-313 -330 -6 14 350 0
-313 -330 6 -14 350 0
-313 -330 6 14 -350 0
-313 -330 -7 -15 -351 0
-313 -330 -7 15 351 0
-313 -330 7 -15 351 0
-313 -330 7 15 -351 0
-313 -330 -8 -16 -352 0
-313 -330 -8 16 352 0
-313 -330 8 -16 352 0
-313 -330 8 16 -352 0
-313 -331 -1 -17 -345 0
-313 -331 -1 17 345 0
-313 -331 1 -17 345 0
-313 -331 1 17 -345 0
-313 -331 -2 -18 -346 0
-313 -331 -2 18 346 0
-313 -331 2 -18 346 0
-313 -331 2 18 -346 0
-313 -331 -3 -19 -347 0
-313 -331 -3 19 347 0
-313 -331 3 -19 347 0
-313 -331 3 19 -347 0
-313 -331 -4 -20 -348 0
-313 -331 -4 20 348 0
-313 -331 4 -20 348 0
-313 -331 4 20 -348 0
-313 -331 -5 -21 -349 0
-313 -331 -5 21 349 0
-313 -331 5 -21 349 0
-313 -331 5 21 -349 0
-313 -331 -6 -22 -350 0
-313 -331 -6 22 350 0
-313 -331 6 -22 350 0
-313 -331 6 22 -350 0
-313 -331 -7 -23 -351 0
-313 -331 -7 23 351 0
-313 -331 7 -23 351 0
-313 -331 7 23 -351 0
-313 -331 -8 -24 -352 0
-313 -331 -8 24 352 0
-313 -331 8 -24 352 0
-313 -331 8 24 -352 0
-313 -332 -1 -25 -345 0
-313 -332 -1 25 345 0
-313 -332 1 -25 345 0
-313 -332 1 25 -345 0
-313 -332 -2 -26 -346 0
-313 -332 -2 26 346 0
-313 -332 2 -26 346 0
-313 -332 2 26 -346 0
-313 -332 -3 -27 -347 0
-313 -332 -3 27 347 0
-313 -332 3 -27 347 0
-313 -332 3 27 -347 0
-313 -332 -4 -28 -348 0
-313 -332 -4 28 348 0
-313 -332 4 -28 348 0
-313 -332 4 28 -348 0
-313 -332 -5 -29 -349 0
-313 -332 -5 29 349 0
-313 -332 5 -29 349 0
-313 -332 5 29 -349 0
-313 -332 -6 -30 -350 0
-313 -332 -6 30 350 0
-313 -332 6 -30 350 0
-313 -332 6 30 -350 0
-313 -332 -7 -31 -351 0
-313 -332 -7 31 351 0
-313 -332 7 -31 351 0
-313 -332 7 31 -351 0
-313 -332 -8 -32 -352 0
-313 -332 -8 32 352 0
-313 -332 8 -32 352 0
-313 -332 8 32 -352 0
-313 -333 -1 -33 -345 0
-313 -333 -1 33 345 0
-313 -333 1 -33 345 0
-313 -333 1 33 -345 0
-313 -333 -2 -34 -346 0
-313 -333 -2 34 346 0
-313 -333 2 -34 346 0
-313 -333 2 34 -346 0
-313 -333 -3 -35 -347 0
-313 -333 -3 35 347 0
-313 -333 3 -35 347 0
-313 -333 3 35 -347 0
-313 -333 -4 -36 -348 0
-313 -333 -4 36 348 0
-313 -333 4 -36 348 0
-313 -333 4 36 -348 0
-313 -333 -5 -37 -349 0
-313 -333 -5 37 349 0
-313 -333 5 -37 349 0
-313 -333 5 37 -349 0
-313 -333 -6 -38 -350 0
-313 -333 -6 38 350 0
-313 -333 6 -38 350 0
-313 -333 6 38 -350 0
-313 -333 -7 -39 -351 0
-313 -333 -7 39 351 0
-313 -333 7 -39 351 0
-313 -333 7 39 -351 0
-313 -333 -8 -40 -352 0
-313 -333 -8 40 352 0
-313 -333 8 -40 352 0
-313 -333 8 40 -352 0
-313 -334 -1 -41 -345 0
-313 -334 -1 41 345 0
-313 -334 1 -41 345 0
-313 -334 1 41 -345 0
-313 -334 -2 -42 -346 0
-313 -334 -2 42 346 0
-313 -334 2 -42 346 0
-313 -334 2 42 -346 0
-313 -334 -3 -43 -347 0
-313 -334 -3 43 347 0
-313 -334 3 -43 347 0
-313 -334 3 43 -347 0
-313 -334 -4 -44 -348 0
-313 -334 -4 44 348 0
-313 -334 4 -44 348 0
-313 -334 4 44 -348 0
-313 -334 -5 -45 -349 0
-313 -334 -5 45 349 0
-313 -334 5 -45 349 0
-313 -334 5 45 -349 0
-313 -334 -6 -46 -350 0
-313 -334 -6 46 350 0
-313 -334 6 -46 350 0
-313 -334 6 46 -350 0
-313 -334 -7 -47 -351 0
-313 -334 -7 47 351 0
-313 -334 7 -47 351 0
-313 -334 7 47 -351 0
-313 -334 -8 -48 -352 0
-313 -334 -8 48 352 0
-313 -334 8 -48 352 0
-313 -334 8 48 -352 0
-313 -335 -1 -49 -345 0
-313 -335 -1 49 345 0
-313 -335 1 -49 345 0
-313 -335 1 49 -345 0
-313 -335 -2 -50 -346 0
-313 -335 -2 50 346 0
-313 -335 2 -50 346 0
-313 -335 2 50 -346 0
-313 -335 -3 -51 -347 0
-313 -335 -3 51 347 0
-313 -335 3 -51 347 0
-313 -335 3 51 -347 0
-313 -335 -4 -52 -348 0
-313 -335 -4 52 348 0
-313 -335 4 -52 348 0
-313 -335 4 52 -348 0
-313 -335 -5 -53 -349 0
-313 -335 -5 53 349 0
-313 -335 5 -53 349 0
-313 -335 5 53 -349 0
-313 -335 -6 -54 -350 0
-313 -335 -6 54 350 0
-313 -335 6 -54 350 0
-313 -335 6 54 -350 0
-313 -335 -7 -55 -351 0
-313 -335 -7 55 351 0
-313 -335 7 -55 351 0
-313 -335 7 55 -351 0
-313 -335 -8 -56 -352 0
-313 -335 -8 56 352 0
-313 -335 8 -56 352 0
-313 -335 8 56 -352 0
-313 -336 -1 -57 -345 0
-313 -336 -1 57 345 0
-313 -336 1 -57 345 0
-313 -336 1 57 -345 0
-313 -336 -2 -58 -346 0
-313 -336 -2 58 346 0
-313 -336 2 -58 346 0
-313 -336 2 58 -346 0
-313 -336 -3 -59 -347 0
-313 -336 -3 59 347 0
-313 -336 3 -59 347 0
-313 -336 3 59 -347 0
-313 -336 -4 -60 -348 0
-313 -336 -4 60 348 0
-313 -336 4 -60 348 0
-313 -336 4 60 -348 0
-313 -336 -5 -61 -349 0
-313 -336 -5 61 349 0
-313 -336 5 -61 349 0
-313 -336 5 61 -349 0
-313 -336 -6 -62 -350 0
-313 -336 -6 62 350 0
-313 -336 6 -62 350 0
-313 -336 6 62 -350 0
-313 -336 -7 -63 -351 0
-313 -336 -7 63 351 0
-313 -336 7 -63 351 0
-313 -336 7 63 -351 0
-313 -336 -8 -64 -352 0
-313 -336 -8 64 352 0
-313 -336 8 -64 352 0
-313 -336 8 64 -352 0
-313 -337 -1 -81 -345 0
-313 -337 -1 81 345 0
-313 -337 1 -81 345 0
-313 -337 1 81 -345 0
-313 -337 -2 -82 -346 0
-313 -337 -2 82 346 0
-313 -337 2 -82 346 0
-313 -337 2 82 -346 0
-313 -337 -3 -83 -347 0
-313 -337 -3 83 347 0
-313 -337 3 -83 347 0
-313 -337 3 83 -347 0
-313 -337 -4 -84 -348 0
-313 -337 -4 84 348 0
-313 -337 4 -84 348 0
-313 -337 4 84 -348 0
-313 -337 -5 -85 -349 0
-313 -337 -5 85 349 0
-313 -337 5 -85 349 0
-313 -337 5 85 -349 0
-313 -337 -6 -86 -350 0
-313 -337 -6 86 350 0
-313 -337 6 -86 350 0
-313 -337 6 86 -350 0
-313 -337 -7 -87 -351 0
-313 -337 -7 87 351 0
-313 -337 7 -87 351 0
-313 -337 7 87 -351 0
-313 -337 -8 -88 -352 0
-313 -337 -8 88 352 0
-313 -337 8 -88 352 0
-313 -337 8 88 -352 0
-313 -338 -1 -107 -345 0
-313 -338 -1 107 345 0
-313 -338 1 -107 345 0
-313 -338 1 107 -345 0
-313 -338 -2 -108 -346 0
-313 -338 -2 108 346 0
-313 -338 2 -108 346 0
-313 -338 2 108 -346 0
-313 -338 -3 -109 -347 0
-313 -338 -3 109 347 0
-313 -338 3 -109 347 0
-313 -338 3 109 -347 0
-313 -338 -4 -110 -348 0
-313 -338 -4 110 348 0
-313 -338 4 -110 348 0
-313 -338 4 110 -348 0
-313 -338 -5 -111 -349 0
-313 -338 -5 111 349 0
-313 -338 5 -111 349 0
-313 -338 5 111 -349 0
-313 -338 -6 -112 -350 0
-313 -338 -6 112 350 0
-313 -338 6 -112 350 0
-313 -338 6 112 -350 0
-313 -338 -7 -113 -351 0
-313 -338 -7 113 351 0
-313 -338 7 -113 351 0
-313 -338 7 113 -351 0
-313 -338 -8 -114 -352 0
-313 -338 -8 114 352 0
-313 -338 8 -114 352 0
-313 -338 8 114 -352 0
-313 -339 -1 -135 -345 0
-313 -339 -1 135 345 0
-313 -339 1 -135 345 0
-313 -339 1 135 -345 0
-313 -339 -2 -136 -346 0
-313 -339 -2 136 346 0
-313 -339 2 -136 346 0
-313 -339 2 136 -346 0
-313 -339 -3 -137 -347 0
-313 -339 -3 137 347 0
-313 -339 3 -137 347 0
-313 -339 3 137 -347 0
-313 -339 -4 -138 -348 0
-313 -339 -4 138 348 0
-313 -339 4 -138 348 0
-313 -339 4 138 -348 0
-313 -339 -5 -139 -349 0
-313 -339 -5 139 349 0
-313 -339 5 -139 349 0
-313 -339 5 139 -349 0
-313 -339 -6 -140 -350 0
-313 -339 -6 140 350 0
-313 -339 6 -140 350 0
-313 -339 6 140 -350 0
-313 -339 -7 -141 -351 0
-313 -339 -7 141 351 0
-313 -339 7 -141 351 0
-313 -339 7 141 -351 0
-313 -339 -8 -142 -352 0
-313 -339 -8 142 352 0
-313 -339 8 -142 352 0
-313 -339 8 142 -352 0
-313 -340 -1 -165 -345 0
-313 -340 -1 165 345 0
-313 -340 1 -165 345 0
-313 -340 1 165 -345 0
-313 -340 -2 -166 -346 0
-313 -340 -2 166 346 0
-313 -340 2 -166 346 0
-313 -340 2 166 -346 0
-313 -340 -3 -167 -347 0
-313 -340 -3 167 347 0
-313 -340 3 -167 347 0
-313 -340 3 167 -347 0
-313 -340 -4 -168 -348 0
-313 -340 -4 168 348 0
-313 -340 4 -168 348 0
-313 -340 4 168 -348 0
-313 -340 -5 -169 -349 0
-313 -340 -5 169 349 0
-313 -340 5 -169 349 0
-313 -340 5 169 -349 0
-313 -340 -6 -170 -350 0
-313 -340 -6 170 350 0
-313 -340 6 -170 350 0
-313 -340 6 170 -350 0
-313 -340 -7 -171 -351 0
-313 -340 -7 171 351 0
-313 -340 7 -171 351 0
-313 -340 7 171 -351 0
-313 -340 -8 -172 -352 0
-313 -340 -8 172 352 0
-313 -340 8 -172 352 0
-313 -340 8 172 -352 0
-313 -341 -1 -197 -345 0
-313 -341 -1 197 345 0
-313 -341 1 -197 345 0
-313 -341 1 197 -345 0
-313 -341 -2 -198 -346 0
-313 -341 -2 198 346 0
-313 -341 2 -198 346 0
-313 -341 2 198 -346 0
-313 -341 -3 -199 -347 0
-313 -341 -3 199 347 0
-313 -341 3 -199 347 0
-313 -341 3 199 -347 0
-313 -341 -4 -200 -348 0
-313 -341 -4 200 348 0
-313 -341 4 -200 348 0
-313 -341 4 200 -348 0
-313 -341 -5 -201 -349 0
-313 -341 -5 201 349 0
-313 -341 5 -201 349 0
-313 -341 5 201 -349 0
-313 -341 -6 -202 -350 0
-313 -341 -6 202 350 0
-313 -341 6 -202 350 0
-313 -341 6 202 -350 0
-313 -341 -7 -203 -351 0
-313 -341 -7 203 351 0
-313 -341 7 -203 351 0
-313 -341 7 203 -351 0
-313 -341 -8 -204 -352 0
-313 -341 -8 204 352 0
-313 -341 8 -204 352 0
-313 -341 8 204 -352 0
-313 -342 -1 -231 -345 0
-313 -342 -1 231 345 0
-313 -342 1 -231 345 0
-313 -342 1 231 -345 0
-313 -342 -2 -232 -346 0
-313 -342 -2 232 346 0
-313 -342 2 -232 346 0
-313 -342 2 232 -346 0
-313 -342 -3 -233 -347 0
-313 -342 -3 233 347 0
-313 -342 3 -233 347 0
-313 -342 3 233 -347 0
-313 -342 -4 -234 -348 0
-313 -342 -4 234 348 0
-313 -342 4 -234 348 0
-313 -342 4 234 -348 0
-313 -342 -5 -235 -349 0
-313 -342 -5 235 349 0
-313 -342 5 -235 349 0
-313 -342 5 235 -349 0
-313 -342 -6 -236 -350 0
-313 -342 -6 236 350 0
-313 -342 6 -236 350 0
-313 -342 6 236 -350 0
-313 -342 -7 -237 -351 0
-313 -342 -7 237 351 0
-313 -342 7 -237 351 0
-313 -342 7 237 -351 0
-313 -342 -8 -238 -352 0
-313 -342 -8 238 352 0
-313 -342 8 -238 352 0
-313 -342 8 238 -352 0
-313 -343 -1 -267 -345 0
-313 -343 -1 267 345 0
-313 -343 1 -267 345 0
-313 -343 1 267 -345 0
-313 -343 -2 -268 -346 0
-313 -343 -2 268 346 0
-313 -343 2 -268 346 0
-313 -343 2 268 -346 0
-313 -343 -3 -269 -347 0
-313 -343 -3 269 347 0
-313 -343 3 -269 347 0
-313 -343 3 269 -347 0
-313 -343 -4 -270 -348 0
-313 -343 -4 270 348 0
-313 -343 4 -270 348 0
-313 -343 4 270 -348 0
-313 -343 -5 -271 -349 0
-313 -343 -5 271 349 0
-313 -343 5 -271 349 0
-313 -343 5 271 -349 0
-313 -343 -6 -272 -350 0
-313 -343 -6 272 350 0
-313 -343 6 -272 350 0
-313 -343 6 272 -350 0
-313 -343 -7 -273 -351 0
-313 -343 -7 273 351 0
-313 -343 7 -273 351 0
-313 -343 7 273 -351 0
-313 -343 -8 -274 -352 0
-313 -343 -8 274 352 0
-313 -343 8 -274 352 0
-313 -343 8 274 -352 0
-313 -344 -1 -305 -345 0
-313 -344 -1 305 345 0
-313 -344 1 -305 345 0
-313 -344 1 305 -345 0
-313 -344 -2 -306 -346 0
-313 -344 -2 306 346 0
-313 -344 2 -306 346 0
-313 -344 2 306 -346 0
-313 -344 -3 -307 -347 0
-313 -344 -3 307 347 0
-313 -344 3 -307 347 0
-313 -344 3 307 -347 0
-313 -344 -4 -308 -348 0
-313 -344 -4 308 348 0
-313 -344 4 -308 348 0
-313 -344 4 308 -348 0
-313 -344 -5 -309 -349 0
-313 -344 -5 309 349 0
-313 -344 5 -309 349 0
-313 -344 5 309 -349 0
-313 -344 -6 -310 -350 0
-313 -344 -6 310 350 0
-313 -344 6 -310 350 0
-313 -344 6 310 -350 0
-313 -344 -7 -311 -351 0
-313 -344 -7 311 351 0
-313 -344 7 -311 351 0
-313 -344 7 311 -351 0
-313 -344 -8 -312 -352 0
-313 -344 -8 312 352 0
-313 -344 8 -312 352 0
-313 -344 8 312 -352 0
-314 -331 -9 -17 -345 0
-314 -331 -9 17 345 0
-314 -331 9 -17 345 0
-314 -331 9 17 -345 0
-314 -331 -10 -18 -346 0
-314 -331 -10 18 346 0
-314 -331 10 -18 346 0
-314 -331 10 18 -346 0
-314 -331 -11 -19 -347 0
-314 -331 -11 19 347 0
-314 -331 11 -19 347 0
-314 -331 11 19 -347 0
-314 -331 -12 -20 -348 0
-314 -331 -12 20 348 0
-314 -331 12 -20 348 0
-314 -331 12 20 -348 0
-314 -331 -13 -21 -349 0
-314 -331 -13 21 349 0
-314 -331 13 -21 349 0
-314 -331 13 21 -349 0
-314 -331 -14 -22 -350 0
-314 -331 -14 22 350 0
-314 -331 14 -22 350 0
-314 -331 14 22 -350 0
-314 -331 -15 -23 -351 0
-314 -331 -15 23 351 0
-314 -331 15 -23 351 0
-314 -331 15 23 -351 0
-314 -331 -16 -24 -352 0
-314 -331 -16 24 352 0
-314 -331 16 -24 352 0
-314 -331 16 24 -352 0
-314 -332 -9 -25 -345 0
-314 -332 -9 25 345 0
-314 -332 9 -25 345 0
-314 -332 9 25 -345 0
-314 -332 -10 -26 -346 0
-314 -332 -10 26 346 0
-314 -332 10 -26 346 0
-314 -332 10 26 -346 0
-314 -332 -11 -27 -347 0
-314 -332 -11 27 347 0
-314 -332 11 -27 347 0
-314 -332 11 27 -347 0
-314 -332 -12 -28 -348 0
-314 -332 -12 28 348 0
-314 -332 12 -28 348 0
-314 -332 12 28 -348 0
-314 -332 -13 -29 -349 0
-314 -332 -13 29 349 0
-314 -332 13 -29 349 0
-314 -332 13 29 -349 0
-314 -332 -14 -30 -350 0
-314 -332 -14 30 350 0
-314 -332 14 -30 350 0
-314 -332 14 30 -350 0
-314 -332 -15 -31 -351 0
-314 -332 -15 31 351 0
-314 -332 15 -31 351 0
-314 -332 15 31 -351 0
-314 -332 -16 -32 -352 0
-314 -332 -16 32 352 0
-314 -332 16 -32 352 0
-314 -332 16 32 -352 0
-314 -333 -9 -33 -345 0
-314 -333 -9 33 345 0
-314 -333 9 -33 345 0
-314 -333 9 33 -345 0
-314 -333 -10 -34 -346 0
-314 -333 -10 34 346 0
-314 -333 10 -34 346 0
-314 -333 10 34 -346 0
-314 -333 -11 -35 -347 0
-314 -333 -11 35 347 0
-314 -333 11 -35 347 0
-314 -333 11 35 -347 0
-314 -333 -12 -36 -348 0
-314 -333 -12 36 348 0
-314 -333 12 -36 348 0
-314 -333 12 36 -348 0
-314 -333 -13 -37 -349 0
-314 -333 -13 37 349 0
-314 -333 13 -37 349 0
-314 -333 13 37 -349 0
-314 -333 -14 -38 -350 0
-314 -333 -14 38 350 0
-314 -333 14 -38 350 0
-314 -333 14 38 -350 0
-314 -333 -15 -39 -351 0
-314 -333 -15 39 351 0
-314 -333 15 -39 351 0
-314 -333 15 39 -351 0
-314 -333 -16 -40 -352 0
-314 -333 -16 40 352 0
-314 -333 16 -40 352 0
-314 -333 16 40 -352 0
-314 -334 -9 -41 -345 0
-314 -334 -9 41 345 0
-314 -334 9 -41 345 0
-314 -334 9 41 -345 0
-314 -334 -10 -42 -346 0
-314 -334 -10 42 346 0
-314 -334 10 -42 346 0
-314 -334 10 42 -346 0
-314 -334 -11 -43 -347 0
-314 -334 -11 43 347 0
-314 -334 11 -43 347 0
-314 -334 11 43 -347 0
-314 -334 -12 -44 -348 0
-314 -334 -12 44 348 0
-314 -334 12 -44 348 0
-314 -334 12 44 -348 0
-314 -334 -13 -45 -349 0
-314 -334 -13 45 349 0
-314 -334 13 -45 349 0
-314 -334 13 45 -349 0
-314 -334 -14 -46 -350 0
-314 -334 -14 46 350 0
-314 -334 14 -46 350 0
-314 -334 14 46 -350 0
-314 -334 -15 -47 -351 0
-314 -334 -15 47 351 0
-314 -334 15 -47 351 0
-314 -334 15 47 -351 0
-314 -334 -16 -48 -352 0
-314 -334 -16 48 352 0
-314 -334 16 -48 352 0
-314 -334 16 48 -352 0
-314 -335 -9 -49 -345 0
-314 -335 -9 49 345 0
-314 -335 9 -49 345 0
-314 -335 9 49 -345 0
-314 -335 -10 -50 -346 0
-314 -335 -10 50 346 0
-314 -335 10 -50 346 0
-314 -335 10 50 -346 0
-314 -335 -11 -51 -347 0
-314 -335 -11 51 347 0
-314 -335 11 -51 347 0
-314 -335 11 51 -347 0
-314 -335 -12 -52 -348 0
-314 -335 -12 52 348 0
-314 -335 12 -52 348 0
-314 -335 12 52 -348 0
-314 -335 -13 -53 -349 0
-314 -335 -13 53 349 0
-314 -335 13 -53 349 0
-314 -335 13 53 -349 0
-314 -335 -14 -54 -350 0
-314 -335 -14 54 350 0
-314 -335 14 -54 350 0
-314 -335 14 54 -350 0
-314 -335 -15 -55 -351 0
-314 -335 -15 55 351 0
-314 -335 15 -55 351 0
-314 -335 15 55 -351 0
-314 -335 -16 -56 -352 0
-314 -335 -16 56 352 0
-314 -335 16 -56 352 0
-314 -335 16 56 -352 0
-314 -336 -9 -57 -345 0
-314 -336 -9 57 345 0
-314 -336 9 -57 345 0
-314 -336 9 57 -345 0
-314 -336 -10 -58 -346 0
-314 -336 -10 58 346 0
-314 -336 10 -58 346 0
-314 -336 10 58 -346 0
-314 -336 -11 -59 -347 0
-314 -336 -11 59 347 0
-314 -336 11 -59 347 0
-314 -336 11 59 -347 0
-314 -336 -12 -60 -348 0
-314 -336 -12 60 348 0
-314 -336 12 -60 348 0
-314 -336 12 60 -348 0
-314 -336 -13 -61 -349 0
-314 -336 -13 61 349 0
-314 -336 13 -61 349 0
-314 -336 13 61 -349 0
-314 -336 -14 -62 -350 0
-314 -336 -14 62 350 0
-314 -336 14 -62 350 0
-314 -336 14 62 -350 0
-314 -336 -15 -63 -351 0
-314 -336 -15 63 351 0
-314 -336 15 -63 351 0
-314 -336 15 63 -351 0
-314 -336 -16 -64 -352 0
-314 -336 -16 64 352 0
-314 -336 16 -64 352 0
-314 -336 16 64 -352 0
-314 -337 -9 -81 -345 0
-314 -337 -9 81 345 0
-314 -337 9 -81 345 0
-314 -337 9 81 -345 0
-314 -337 -10 -82 -346 0
-314 -337 -10 82 346 0
-314 -337 10 -82 346 0
-314 -337 10 82 -346 0
-314 -337 -11 -83 -347 0
-314 -337 -11 83 347 0
-314 -337 11 -83 347 0
-314 -337 11 83 -347 0
-314 -337 -12 -84 -348 0
-314 -337 -12 84 348 0
-314 -337 12 -84 348 0
-314 -337 12 84 -348 0
-314 -337 -13 -85 -349 0
-314 -337 -13 85 349 0
-314 -337 13 -85 349 0
-314 -337 13 85 -349 0
-314 -337 -14 -86 -350 0
-314 -337 -14 86 350 0
-314 -337 14 -86 350 0
-314 -337 14 86 -350 0
-314 -337 -15 -87 -351 0
-314 -337 -15 87 351 0
-314 -337 15 -87 351 0
-314 -337 15 87 -351 0
-314 -337 -16 -88 -352 0
-314 -337 -16 88 352 0
-314 -337 16 -88 352 0
-314 -337 16 88 -352 0
-314 -338 -9 -107 -345 0
-314 -338 -9 107 345 0
-314 -338 9 -107 345 0
-314 -338 9 107 -345 0
-314 -338 -10 -108 -346 0
-314 -338 -10 108 346 0
-314 -338 10 -108 346 0
-314 -338 10 108 -346 0
-314 -338 -11 -109 -347 0
-314 -338 -11 109 347 0
-314 -338 11 -109 347 0
-314 -338 11 109 -347 0
-314 -338 -12 -110 -348 0
-314 -338 -12 110 348 0
-314 -338 12 -110 348 0
-314 -338 12 110 -348 0
-314 -338 -13 -111 -349 0
-314 -338 -13 111 349 0
-314 -338 13 -111 349 0
-314 -338 13 111 -349 0
-314 -338 -14 -112 -350 0
-314 -338 -14 112 350 0
-314 -338 14 -112 350 0
-314 -338 14 112 -350 0
-314 -338 -15 -113 -351 0
-314 -338 -15 113 351 0
-314 -338 15 -113 351 0
-314 -338 15 113 -351 0
-314 -338 -16 -114 -352 0
-314 -338 -16 114 352 0
-314 -338 16 -114 352 0
-314 -338 16 114 -352 0
-314 -339 -9 -135 -345 0
-314 -339 -9 135 345 0
-314 -339 9 -135 345 0
-314 -339 9 135 -345 0
-314 -339 -10 -136 -346 0
-314 -339 -10 136 346 0
-314 -339 10 -136 346 0
-314 -339 10 136 -346 0
-314 -339 -11 -137 -347 0
-314 -339 -11 137 347 0
-314 -339 11 -137 347 0
-314 -339 11 137 -347 0
-314 -339 -12 -138 -348 0
-314 -339 -12 138 348 0
-314 -339 12 -138 348 0
-314 -339 12 138 -348 0
-314 -339 -13 -139 -349 0
-314 -339 -13 139 349 0
-314 -339 13 -139 349 0
-314 -339 13 139 -349 0
-314 -339 -14 -140 -350 0
-314 -339 -14 140 350 0
-314 -339 14 -140 350 0
-314 -339 14 140 -350 0
-314 -339 -15 -141 -351 0
-314 -339 -15 141 351 0
-314 -339 15 -141 351 0
-314 -339 15 141 -351 0
-314 -339 -16 -142 -352 0
-314 -339 -16 142 352 0
-314 -339 16 -142 352 0
-314 -339 16 142 -352 0
-314 -340 -9 -165 -345 0
-314 -340 -9 165 345 0
-314 -340 9 -165 345 0
-314 -340 9 165 -345 0
-314 -340 -10 -166 -346 0
-314 -340 -10 166 346 0
-314 -340 10 -166 346 0
-314 -340 10 166 -346 0
-314 -340 -11 -167 -347 0
-314 -340 -11 167 347 0
-314 -340 11 -167 347 0
-314 -340 11 167 -347 0
-314 -340 -12 -168 -348 0
-314 -340 -12 168 348 0
-314 -340 12 -168 348 0
-314 -340 12 168 -348 0
-314 -340 -13 -169 -349 0
-314 -340 -13 169 349 0
-314 -340 13 -169 349 0
-314 -340 13 169 -349 0
-314 -340 -14 -170 -350 0
-314 -340 -14 170 350 0
-314 -340 14 -170 350 0
-314 -340 14 170 -350 0
-314 -340 -15 -171 -351 0
-314 -340 -15 171 351 0
-314 -340 15 -171 351 0
-314 -340 15 171 -351 0
-314 -340 -16 -172 -352 0
-314 -340 -16 172 352 0
-314 -340 16 -172 352 0
-314 -340 16 172 -352 0
-314 -341 -9 -197 -345 0
-314 -341 -9 197 345 0
-314 -341 9 -197 345 0
-314 -341 9 197 -345 0
-314 -341 -10 -198 -346 0
-314 -341 -10 198 346 0
-314 -341 10 -198 346 0
-314 -341 10 198 -346 0
-314 -341 -11 -199 -347 0
-314 -341 -11 199 347 0
-314 -341 11 -199 347 0
-314 -341 11 199 -347 0
-314 -341 -12 -200 -348 0
-314 -341 -12 200 348 0
-314 -341 12 -200 348 0
-314 -341 12 200 -348 0
-314 -341 -13 -201 -349 0
-314 -341 -13 201 349 0
-314 -341 13 -201 349 0
-314 -341 13 201 -349 0
-314 -341 -14 -202 -350 0
-314 -341 -14 202 350 0
-314 -341 14 -202 350 0
-314 -341 14 202 -350 0
-314 -341 -15 -203 -351 0
-314 -341 -15 203 351 0
-314 -341 15 -203 351 0
-314 -341 15 203 -351 0
-314 -341 -16 -204 -352 0
-314 -341 -16 204 352 0
-314 -341 16 -204 352 0
-314 -341 16 204 -352 0
-314 -342 -9 -231 -345 0
-314 -342 -9 231 345 0
-314 -342 9 -231 345 0
-314 -342 9 231 -345 0
-314 -342 -10 -232 -346 0
-314 -342 -10 232 346 0
-314 -342 10 -232 346 0
-314 -342 10 232 -346 0
-314 -342 -11 -233 -347 0
-314 -342 -11 233 347 0
-314 -342 11 -233 347 0
-314 -342 11 233 -347 0
-314 -342 -12 -234 -348 0
-314 -342 -12 234 348 0
-314 -342 12 -234 348 0
-314 -342 12 234 -348 0
-314 -342 -13 -235 -349 0
-314 -342 -13 235 349 0
-314 -342 13 -235 349 0
-314 -342 13 235 -349 0
-314 -342 -14 -236 -350 0
-314 -342 -14 236 350 0
-314 -342 14 -236 350 0
-314 -342 14 236 -350 0
-314 -342 -15 -237 -351 0
-314 -342 -15 237 351 0
-314 -342 15 -237 351 0
-314 -342 15 237 -351 0
-314 -342 -16 -238 -352 0
-314 -342 -16 238 352 0
-314 -342 16 -238 352 0
-314 -342 16 238 -352 0
-314 -343 -9 -267 -345 0
-314 -343 -9 267 345 0
-314 -343 9 -267 345 0
-314 -343 9 267 -345 0
-314 -343 -10 -268 -346 0
-314 -343 -10 268 346 0
-314 -343 10 -268 346 0
-314 -343 10 268 -346 0
-314 -343 -11 -269 -347 0
-314 -343 -11 269 347 0
-314 -343 11 -269 347 0
-314 -343 11 269 -347 0
-314 -343 -12 -270 -348 0
-314 -343 -12 270 348 0
-314 -343 12 -270 348 0
-314 -343 12 270 -348 0
-314 -343 -13 -271 -349 0
-314 -343 -13 271 349 0
-314 -343 13 -271 349 0
-314 -343 13 271 -349 0
-314 -343 -14 -272 -350 0
-314 -343 -14 272 350 0
-314 -343 14 -272 350 0
-314 -343 14 272 -350 0
-314 -343 -15 -273 -351 0
-314 -343 -15 273 351 0
-314 -343 15 -273 351 0
-314 -343 15 273 -351 0
-314 -343 -16 -274 -352 0
-314 -343 -16 274 352 0
-314 -343 16 -274 352 0
-314 -343 16 274 -352 0
-314 -344 -9 -305 -345 0
-314 -344 -9 305 345 0
-314 -344 9 -305 345 0
-314 -344 9 305 -345 0
-314 -344 -10 -306 -346 0
-314 -344 -10 306 346 0
-314 -344 10 -306 346 0
-314 -344 10 306 -346 0
-314 -344 -11 -307 -347 0
-314 -344 -11 307 347 0
-314 -344 11 -307 347 0
-314 -344 11 307 -347 0
-314 -344 -12 -308 -348 0
-314 -344 -12 308 348 0
-314 -344 12 -308 348 0
-314 -344 12 308 -348 0
-314 -344 -13 -309 -349 0
-314 -344 -13 309 349 0
-314 -344 13 -309 349 0
-314 -344 13 309 -349 0
-314 -344 -14 -310 -350 0
-314 -344 -14 310 350 0
-314 -344 14 -310 350 0
-314 -344 14 310 -350 0
-314 -344 -15 -311 -351 0
-314 -344 -15 311 351 0
-314 -344 15 -311 351 0
-314 -344 15 311 -351 0
-314 -344 -16 -312 -352 0
-314 -344 -16 312 352 0
-314 -344 16 -312 352 0
-314 -344 16 312 -352 0
-315 -332 -17 -25 -345 0
-315 -332 -17 25 345 0
-315 -332 17 -25 345 0
-315 -332 17 25 -345 0
-315 -332 -18 -26 -346 0
-315 -332 -18 26 346 0
-315 -332 18 -26 346 0
-315 -332 18 26 -346 0
-315 -332 -19 -27 -347 0
-315 -332 -19 27 347 0
-315 -332 19 -27 347 0
-315 -332 19 27 -347 0
-315 -332 -20 -28 -348 0
-315 -332 -20 28 348 0
-315 -332 20 -28 348 0
-315 -332 20 28 -348 0
-315 -332 -21 -29 -349 0
-315 -332 -21 29 349 0
-315 -332 21 -29 349 0
-315 -332 21 29 -349 0
-315 -332 -22 -30 -350 0
-315 -332 -22 30 350 0
-315 -332 22 -30 350 0
-315 -332 22 30 -350 0
-315 -332 -23 -31 -351 0
-315 -332 -23 31 351 0
-315 -332 23 -31 351 0
-315 -332 23 31 -351 0
-315 -332 -24 -32 -352 0
-315 -332 -24 32 352 0
-315 -332 24 -32 352 0
-315 -332 24 32 -352 0
-315 -333 -17 -33 -345 0
-315 -333 -17 33 345 0
-315 -333 17 -33 345 0
-315 -333 17 33 -345 0
-315 -333 -18 -34 -346 0
-315 -333 -18 34 346 0
-315 -333 18 -34 346 0
-315 -333 18 34 -346 0
-315 -333 -19 -35 -347 0
-315 -333 -19 35 347 0
-315 -333 19 -35 347 0
-315 -333 19 35 -347 0
-315 -333 -20 -36 -348 0
-315 -333 -20 36 348 0
-315 -333 20 -36 348 0
-315 -333 20 36 -348 0
-315 -333 -21 -37 -349 0
-315 -333 -21 37 349 0
-315 -333 21 -37 349 0
-315 -333 21 37 -349 0
-315 -333 -22 -38 -350 0
-315 -333 -22 38 350 0
-315 -333 22 -38 350 0
-315 -333 22 38 -350 0
-315 -333 -23 -39 -351 0
-315 -333 -23 39 351 0
-315 -333 23 -39 351 0
-315 -333 23 39 -351 0
-315 -333 -24 -40 -352 0
-315 -333 -24 40 352 0
-315 -333 24 -40 352 0
-315 -333 24 40 -352 0
-315 -334 -17 -41 -345 0
-315 -334 -17 41 345 0
-315 -334 17 -41 345 0
-315 -334 17 41 -345 0
-315 -334 -18 -42 -346 0
-315 -334 -18 42 346 0
-315 -334 18 -42 346 0
-315 -334 18 42 -346 0
-315 -334 -19 -43 -347 0
-315 -334 -19 43 347 0
-315 -334 19 -43 347 0
-315 -334 19 43 -347 0
-315 -334 -20 -44 -348 0
-315 -334 -20 44 348 0
-315 -334 20 -44 348 0
-315 -334 20 44 -348 0
-315 -334 -21 -45 -349 0
-315 -334 -21 45 349 0
-315 -334 21 -45 349 0
-315 -334 21 45 -349 0
-315 -334 -22 -46 -350 0
-315 -334 -22 46 350 0
-315 -334 22 -46 350 0
-315 -334 22 46 -350 0
-315 -334 -23 -47 -351 0
-315 -334 -23 47 351 0
-315 -334 23 -47 351 0
-315 -334 23 47 -351 0
-315 -334 -24 -48 -352 0
-315 -334 -24 48 352 0
-315 -334 24 -48 352 0
-315 -334 24 48 -352 0
-315 -335 -17 -49 -345 0
-315 -335 -17 49 345 0
-315 -335 17 -49 345 0
-315 -335 17 49 -345 0
-315 -335 -18 -50 -346 0
-315 -335 -18 50 346 0
-315 -335 18 -50 346 0
-315 -335 18 50 -346 0
-315 -335 -19 -51 -347 0
-315 -335 -19 51 347 0
-315 -335 19 -51 347 0
-315 -335 19 51 -347 0
-315 -335 -20 -52 -348 0
-315 -335 -20 52 348 0
-315 -335 20 -52 348 0
-315 -335 20 52 -348 0
-315 -335 -21 -53 -349 0
-315 -335 -21 53 349 0
-315 -335 21 -53 349 0
-315 -335 21 53 -349 0
-315 -335 -22 -54 -350 0
-315 -335 -22 54 350 0
-315 -335 22 -54 350 0
-315 -335 22 54 -350 0
-315 -335 -23 -55 -351 0
-315 -335 -23 55 351 0
-315 -335 23 -55 351 0
-315 -335 23 55 -351 0
-315 -335 -24 -56 -352 0
-315 -335 -24 56 352 0
-315 -335 24 -56 352 0
-315 -335 24 56 -352 0
-315 -336 -17 -57 -345 0
-315 -336 -17 57 345 0
-315 -336 17 -57 345 0
-315 -336 17 57 -345 0
-315 -336 -18 -58 -346 0
-315 -336 -18 58 346 0
-315 -336 18 -58 346 0
-315 -336 18 58 -346 0
-315 -336 -19 -59 -347 0
-315 -336 -19 59 347 0
-315 -336 19 -59 347 0
-315 -336 19 59 -347 0
-315 -336 -20 -60 -348 0
-315 -336 -20 60 348 0
-315 -336 20 -60 348 0
-315 -336 20 60 -348 0
-315 -336 -21 -61 -349 0
-315 -336 -21 61 349 0
-315 -336 21 -61 349 0
-315 -336 21 61 -349 0
-315 -336 -22 -62 -350 0
-315 -336 -22 62 350 0
-315 -336 22 -62 350 0
-315 -336 22 62 -350 0
-315 -336 -23 -63 -351 0
-315 -336 -23 63 351 0
-315 -336 23 -63 351 0
-315 -336 23 63 -351 0
-315 -336 -24 -64 -352 0
-315 -336 -24 64 352 0
-315 -336 24 -64 352 0
-315 -336 24 64 -352 0
-315 -337 -17 -81 -345 0
-315 -337 -17 81 345 0
-315 -337 17 -81 345 0
-315 -337 17 81 -345 0
-315 -337 -18 -82 -346 0
-315 -337 -18 82 346 0
-315 -337 18 -82 346 0
-315 -337 18 82 -346 0
-315 -337 -19 -83 -347 0
-315 -337 -19 83 347 0
-315 -337 19 -83 347 0
-315 -337 19 83 -347 0
-315 -337 -20 -84 -348 0
-315 -337 -20 84 348 0
-315 -337 20 -84 348 0
-315 -337 20 84 -348 0
-315 -337 -21 -85 -349 0
-315 -337 -21 85 349 0
-315 -337 21 -85 349 0
-315 -337 21 85 -349 0
-315 -337 -22 -86 -350 0
-315 -337 -22 86 350 0
-315 -337 22 -86 350 0
-315 -337 22 86 -350 0
-315 -337 -23 -87 -351 0
-315 -337 -23 87 351 0
-315 -337 23 -87 351 0
-315 -337 23 87 -351 0
-315 -337 -24 -88 -352 0
-315 -337 -24 88 352 0
-315 -337 24 -88 352 0
-315 -337 24 88 -352 0
-315 -338 -17 -107 -345 0
-315 -338 -17 107 345 0
-315 -338 17 -107 345 0
-315 -338 17 107 -345 0
-315 -338 -18 -108 -346 0
-315 -338 -18 108 346 0
-315 -338 18 -108 346 0
-315 -338 18 108 -346 0
-315 -338 -19 -109 -347 0
-315 -338 -19 109 347 0
-315 -338 19 -109 347 0
-315 -338 19 109 -347 0
-315 -338 -20 -110 -348 0
-315 -338 -20 110 348 0
-315 -338 20 -110 348 0
-315 -338 20 110 -348 0
-315 -338 -21 -111 -349 0
-315 -338 -21 111 349 0
-315 -338 21 -111 349 0
-315 -338 21 111 -349 0
-315 -338 -22 -112 -350 0
-315 -338 -22 112 350 0
-315 -338 22 -112 350 0
-315 -338 22 112 -350 0
-315 -338 -23 -113 -351 0
-315 -338 -23 113 351 0
-315 -338 23 -113 351 0
-315 -338 23 113 -351 0
-315 -338 -24 -114 -352 0
-315 -338 -24 114 352 0
-315 -338 24 -114 352 0
-315 -338 24 114 -352 0
-315 -339 -17 -135 -345 0
-315 -339 -17 135 345 0
-315 -339 17 -135 345 0
-315 -339 17 135 -345 0
-315 -339 -18 -136 -346 0
-315 -339 -18 136 346 0
-315 -339 18 -136 346 0
-315 -339 18 136 -346 0
-315 -339 -19 -137 -347 0
-315 -339 -19 137 347 0
-315 -339 19 -137 347 0
-315 -339 19 137 -347 0
-315 -339 -20 -138 -348 0
-315 -339 -20 138 348 0
-315 -339 20 -138 348 0
-315 -339 20 138 -348 0
-315 -339 -21 -139 -349 0
-315 -339 -21 139 349 0
-315 -339 21 -139 349 0
-315 -339 21 139 -349 0
-315 -339 -22 -140 -350 0
-315 -339 -22 140 350 0
-315 -339 22 -140 350 0
-315 -339 22 140 -350 0
-315 -339 -23 -141 -351 0
-315 -339 -23 141 351 0
-315 -339 23 -141 351 0
-315 -339 23 141 -351 0
-315 -339 -24 -142 -352 0
-315 -339 -24 142 352 0
-315 -339 24 -142 352 0
-315 -339 24 142 -352 0
-315 -340 -17 -165 -345 0
-315 -340 -17 165 345 0
-315 -340 17 -165 345 0
-315 -340 17 165 -345 0
-315 -340 -18 -166 -346 0
-315 -340 -18 166 346 0
-315 -340 18 -166 346 0
-315 -340 18 166 -346 0
-315 -340 -19 -167 -347 0
-315 -340 -19 167 347 0
-315 -340 19 -167 347 0
-315 -340 19 167 -347 0
-315 -340 -20 -168 -348 0
-315 -340 -20 168 348 0
-315 -340 20 -168 348 0
-315 -340 20 168 -348 0
-315 -340 -21 -169 -349 0
-315 -340 -21 169 349 0
-315 -340 21 -169 349 0
-315 -340 21 169 -349 0
-315 -340 -22 -170 -350 0
-315 -340 -22 170 350 0
-315 -340 22 -170 350 0
-315 -340 22 170 -350 0
-315 -340 -23 -171 -351 0
-315 -340 -23 171 351 0
-315 -340 23 -171 351 0
-315 -340 23 171 -351 0
-315 -340 -24 -172 -352 0
-315 -340 -24 172 352 0
-315 -340 24 -172 352 0
-315 -340 24 172 -352 0
-315 -341 -17 -197 -345 0
-315 -341 -17 197 345 0
-315 -341 17 -197 345 0
-315 -341 17 197 -345 0
-315 -341 -18 -198 -346 0
-315 -341 -18 198 346 0
-315 -341 18 -198 346 0
-315 -341 18 198 -346 0
-315 -341 -19 -199 -347 0
-315 -341 -19 199 347 0
-315 -341 19 -199 347 0
-315 -341 19 199 -347 0
-315 -341 -20 -200 -348 0
-315 -341 -20 200 348 0
-315 -341 20 -200 348 0
-315 -341 20 200 -348 0
-315 -341 -21 -201 -349 0
-315 -341 -21 201 349 0
-315 -341 21 -201 349 0
-315 -341 21 201 -349 0
-315 -341 -22 -202 -350 0
-315 -341 -22 202 350 0
-315 -341 22 -202 350 0
-315 -341 22 202 -350 0
-315 -341 -23 -203 -351 0
-315 -341 -23 203 351 0
-315 -341 23 -203 351 0
-315 -341 23 203 -351 0
-315 -341 -24 -204 -352 0
-315 -341 -24 204 352 0
-315 -341 24 -204 352 0
-315 -341 24 204 -352 0
-315 -342 -17 -231 -345 0
-315 -342 -17 231 345 0
-315 -342 17 -231 345 0
-315 -342 17 231 -345 0
-315 -342 -18 -232 -346 0
-315 -342 -18 232 346 0
-315 -342 18 -232 346 0
-315 -342 18 232 -346 0
-315 -342 -19 -233 -347 0
-315 -342 -19 233 347 0
-315 -342 19 -233 347 0
-315 -342 19 233 -347 0
-315 -342 -20 -234 -348 0
-315 -342 -20 234 348 0
-315 -342 20 -234 348 0
-315 -342 20 234 -348 0
-315 -342 -21 -235 -349 0
-315 -342 -21 235 349 0
-315 -342 21 -235 349 0
-315 -342 21 235 -349 0
-315 -342 -22 -236 -350 0
-315 -342 -22 236 350 0
-315 -342 22 -236 350 0
-315 -342 22 236 -350 0
-315 -342 -23 -237 -351 0
-315 -342 -23 237 351 0
-315 -342 23 -237 351 0
-315 -342 23 237 -351 0
-315 -342 -24 -238 -352 0
-315 -342 -24 238 352 0
-315 -342 24 -238 352 0
-315 -342 24 238 -352 0
-315 -343 -17 -267 -345 0
-315 -343 -17 267 345 0
-315 -343 17 -267 345 0
-315 -343 17 267 -345 0
-315 -343 -18 -268 -346 0
-315 -343 -18 268 346 0
-315 -343 18 -268 346 0
-315 -343 18 268 -346 0
-315 -343 -19 -269 -347 0
-315 -343 -19 269 347 0
-315 -343 19 -269 347 0
-315 -343 19 269 -347 0
-315 -343 -20 -270 -348 0
-315 -343 -20 270 348 0
-315 -343 20 -270 348 0
-315 -343 20 270 -348 0
-315 -343 -21 -271 -349 0
-315 -343 -21 271 349 0
-315 -343 21 -271 349 0
-315 -343 21 271 -349 0
-315 -343 -22 -272 -350 0
-315 -343 -22 272 350 0
-315 -343 22 -272 350 0
-315 -343 22 272 -350 0
-315 -343 -23 -273 -351 0
-315 -343 -23 273 351 0
-315 -343 23 -273 351 0
-315 -343 23 273 -351 0
-315 -343 -24 -274 -352 0
-315 -343 -24 274 352 0
-315 -343 24 -274 352 0
-315 -343 24 274 -352 0
-315 -344 -17 -305 -345 0
-315 -344 -17 305 345 0
-315 -344 17 -305 345 0
-315 -344 17 305 -345 0
-315 -344 -18 -306 -346 0
-315 -344 -18 306 346 0
-315 -344 18 -306 346 0
-315 -344 18 306 -346 0
-315 -344 -19 -307 -347 0
-315 -344 -19 307 347 0
-315 -344 19 -307 347 0
-315 -344 19 307 -347 0
-315 -344 -20 -308 -348 0
-315 -344 -20 308 348 0
-315 -344 20 -308 348 0
-315 -344 20 308 -348 0
-315 -344 -21 -309 -349 0
-315 -344 -21 309 349 0
-315 -344 21 -309 349 0
-315 -344 21 309 -349 0
-315 -344 -22 -310 -350 0
-315 -344 -22 310 350 0
-315 -344 22 -310 350 0
-315 -344 22 310 -350 0
-315 -344 -23 -311 -351 0
-315 -344 -23 311 351 0
-315 -344 23 -311 351 0
-315 -344 23 311 -351 0
-315 -344 -24 -312 -352 0
-315 -344 -24 312 352 0
-315 -344 24 -312 352 0
-315 -344 24 312 -352 0
-316 -333 -25 -33 -345 0
-316 -333 -25 33 345 0
-316 -333 25 -33 345 0
-316 -333 25 33 -345 0
-316 -333 -26 -34 -346 0
-316 -333 -26 34 346 0
-316 -333 26 -34 346 0
-316 -333 26 34 -346 0
-316 -333 -27 -35 -347 0
-316 -333 -27 35 347 0
-316 -333 27 -35 347 0
-316 -333 27 35 -347 0
-316 -333 -28 -36 -348 0
-316 -333 -28 36 348 0
-316 -333 28 -36 348 0
-316 -333 28 36 -348 0
-316 -333 -29 -37 -349 0
-316 -333 -29 37 349 0
-316 -333 29 -37 349 0
-316 -333 29 37 -349 0
-316 -333 -30 -38 -350 0
-316 -333 -30 38 350 0
-316 -333 30 -38 350 0
-316 -333 30 38 -350 0
-316 -333 -31 -39 -351 0
-316 -333 -31 39 351 0
-316 -333 31 -39 351 0
-316 -333 31 39 -351 0
-316 -333 -32 -40 -352 0
-316 -333 -32 40 352 0
-316 -333 32 -40 352 0
-316 -333 32 40 -352 0
-316 -334 -25 -41 -345 0
-316 -334 -25 41 345 0
-316 -334 25 -41 345 0
-316 -334 25 41 -345 0
-316 -334 -26 -42 -346 0
-316 -334 -26 42 346 0
-316 -334 26 -42 346 0
-316 -334 26 42 -346 0
-316 -334 -27 -43 -347 0
-316 -334 -27 43 347 0
-316 -334 27 -43 347 0
-316 -334 27 43 -347 0
-316 -334 -28 -44 -348 0
-316 -334 -28 44 348 0
-316 -334 28 -44 348 0
-316 -334 28 44 -348 0
-316 -334 -29 -45 -349 0
-316 -334 -29 45 349 0
-316 -334 29 -45 349 0
-316 -334 29 45 -349 0
-316 -334 -30 -46 -350 0
-316 -334 -30 46 350 0
-316 -334 30 -46 350 0
-316 -334 30 46 -350 0
-316 -334 -31 -47 -351 0
-316 -334 -31 47 351 0
-316 -334 31 -47 351 0
-316 -334 31 47 -351 0
-316 -334 -32 -48 -352 0
-316 -334 -32 48 352 0
-316 -334 32 -48 352 0
-316 -334 32 48 -352 0
-316 -335 -25 -49 -345 0
-316 -335 -25 49 345 0
-316 -335 25 -49 345 0
-316 -335 25 49 -345 0
-316 -335 -26 -50 -346 0
-316 -335 -26 50 346 0
-316 -335 26 -50 346 0
-316 -335 26 50 -346 0
-316 -335 -27 -51 -347 0
-316 -335 -27 51 347 0
-316 -335 27 -51 347 0
-316 -335 27 51 -347 0
-316 -335 -28 -52 -348 0
-316 -335 -28 52 348 0
-316 -335 28 -52 348 0
-316 -335 28 52 -348 0
-316 -335 -29 -53 -349 0
-316 -335 -29 53 349 0
-316 -335 29 -53 349 0
-316 -335 29 53 -349 0
-316 -335 -30 -54 -350 0
-316 -335 -30 54 350 0
-316 -335 30 -54 350 0
-316 -335 30 54 -350 0
-316 -335 -31 -55 -351 0
-316 -335 -31 55 351 0
-316 -335 31 -55 351 0
-316 -335 31 55 -351 0
-316 -335 -32 -56 -352 0
-316 -335 -32 56 352 0
-316 -335 32 -56 352 0
-316 -335 32 56 -352 0
-316 -336 -25 -57 -345 0
-316 -336 -25 57 345 0
-316 -336 25 -57 345 0
-316 -336 25 57 -345 0
-316 -336 -26 -58 -346 0
-316 -336 -26 58 346 0
-316 -336 26 -58 346 0
-316 -336 26 58 -346 0
-316 -336 -27 -59 -347 0
-316 -336 -27 59 347 0
-316 -336 27 -59 347 0
-316 -336 27 59 -347 0
-316 -336 -28 -60 -348 0
-316 -336 -28 60 348 0
-316 -336 28 -60 348 0
-316 -336 28 60 -348 0
-316 -336 -29 -61 -349 0
-316 -336 -29 61 349 0
-316 -336 29 -61 349 0
-316 -336 29 61 -349 0
-316 -336 -30 -62 -350 0
-316 -336 -30 62 350 0
-316 -336 30 -62 350 0
-316 -336 30 62 -350 0
-316 -336 -31 -63 -351 0
-316 -336 -31 63 351 0
-316 -336 31 -63 351 0
-316 -336 31 63 -351 0
-316 -336 -32 -64 -352 0
-316 -336 -32 64 352 0
-316 -336 32 -64 352 0
-316 -336 32 64 -352 0
-316 -337 -25 -81 -345 0
-316 -337 -25 81 345 0
-316 -337 25 -81 345 0
-316 -337 25 81 -345 0
-316 -337 -26 -82 -346 0
-316 -337 -26 82 346 0
-316 -337 26 -82 346 0
-316 -337 26 82 -346 0
-316 -337 -27 -83 -347 0
-316 -337 -27 83 347 0
-316 -337 27 -83 347 0
-316 -337 27 83 -347 0
-316 -337 -28 -84 -348 0
-316 -337 -28 84 348 0
-316 -337 28 -84 348 0
-316 -337 28 84 -348 0
-316 -337 -29 -85 -349 0
-316 -337 -29 85 349 0
-316 -337 29 -85 349 0
-316 -337 29 85 -349 0
-316 -337 -30 -86 -350 0
-316 -337 -30 86 350 0
-316 -337 30 -86 350 0
-316 -337 30 86 -350 0
-316 -337 -31 -87 -351 0
-316 -337 -31 87 351 0
-316 -337 31 -87 351 0
-316 -337 31 87 -351 0
-316 -337 -32 -88 -352 0
-316 -337 -32 88 352 0
-316 -337 32 -88 352 0
-316 -337 32 88 -352 0
-316 -338 -25 -107 -345 0
-316 -338 -25 107 345 0
-316 -338 25 -107 345 0
-316 -338 25 107 -345 0
-316 -338 -26 -108 -346 0
-316 -338 -26 108 346 0
-316 -338 26 -108 346 0
-316 -338 26 108 -346 0
-316 -338 -27 -109 -347 0
-316 -338 -27 109 347 0
-316 -338 27 -109 347 0
-316 -338 27 109 -347 0
-316 -338 -28 -110 -348 0
-316 -338 -28 110 348 0
-316 -338 28 -110 348 0
-316 -338 28 110 -348 0
-316 -338 -29 -111 -349 0
-316 -338 -29 111 349 0
-316 -338 29 -111 349 0
-316 -338 29 111 -349 0
-316 -338 -30 -112 -350 0
-316 -338 -30 112 350 0
-316 -338 30 -112 350 0
-316 -338 30 112 -350 0
-316 -338 -31 -113 -351 0
-316 -338 -31 113 351 0
-316 -338 31 -113 351 0
-316 -338 31 113 -351 0
-316 -338 -32 -114 -352 0
-316 -338 -32 114 352 0
-316 -338 32 -114 352 0
-316 -338 32 114 -352 0
-316 -339 -25 -135 -345 0
-316 -339 -25 135 345 0
-316 -339 25 -135 345 0
-316 -339 25 135 -345 0
-316 -339 -26 -136 -346 0
-316 -339 -26 136 346 0
-316 -339 26 -136 346 0
-316 -339 26 136 -346 0
-316 -339 -27 -137 -347 0
-316 -339 -27 137 347 0
-316 -339 27 -137 347 0
-316 -339 27 137 -347 0
-316 -339 -28 -138 -348 0
-316 -339 -28 138 348 0
-316 -339 28 -138 348 0
-316 -339 28 138 -348 0
-316 -339 -29 -139 -349 0
-316 -339 -29 139 349 0
-316 -339 29 -139 349 0
-316 -339 29 139 -349 0
-316 -339 -30 -140 -350 0
-316 -339 -30 140 350 0
-316 -339 30 -140 350 0
-316 -339 30 140 -350 0
-316 -339 -31 -141 -351 0
-316 -339 -31 141 351 0
-316 -339 31 -141 351 0
-316 -339 31 141 -351 0
-316 -339 -32 -142 -352 0
-316 -339 -32 142 352 0
-316 -339 32 -142 352 0
-316 -339 32 142 -352 0
-316 -340 -25 -165 -345 0
-316 -340 -25 165 345 0
-316 -340 25 -165 345 0
-316 -340 25 165 -345 0
-316 -340 -26 -166 -346 0
-316 -340 -26 166 346 0
-316 -340 26 -166 346 0
-316 -340 26 166 -346 0
-316 -340 -27 -167 -347 0
-316 -340 -27 167 347 0
-316 -340 27 -167 347 0
-316 -340 27 167 -347 0
-316 -340 -28 -168 -348 0
-316 -340 -28 168 348 0
-316 -340 28 -168 348 0
-316 -340 28 168 -348 0
-316 -340 -29 -169 -349 0
-316 -340 -29 169 349 0
-316 -340 29 -169 349 0
-316 -340 29 169 -349 0
-316 -340 -30 -170 -350 0
-316 -340 -30 170 350 0
-316 -340 30 -170 350 0
-316 -340 30 170 -350 0
-316 -340 -31 -171 -351 0
-316 -340 -31 171 351 0
-316 -340 31 -171 351 0
-316 -340 31 171 -351 0
-316 -340 -32 -172 -352 0
-316 -340 -32 172 352 0
-316 -340 32 -172 352 0
-316 -340 32 172 -352 0
-316 -341 -25 -197 -345 0
-316 -341 -25 197 345 0
-316 -341 25 -197 345 0
-316 -341 25 197 -345 0
-316 -341 -26 -198 -346 0
-316 -341 -26 198 346 0
-316 -341 26 -198 346 0
-316 -341 26 198 -346 0
-316 -341 -27 -199 -347 0
-316 -341 -27 199 347 0
-316 -341 27 -199 347 0
-316 -341 27 199 -347 0
-316 -341 -28 -200 -348 0
-316 -341 -28 200 348 0
-316 -341 28 -200 348 0
-316 -341 28 200 -348 0
-316 -341 -29 -201 -349 0
-316 -341 -29 201 349 0
-316 -341 29 -201 349 0
-316 -341 29 201 -349 0
-316 -341 -30 -202 -350 0
-316 -341 -30 202 350 0
-316 -341 30 -202 350 0
-316 -341 30 202 -350 0
-316 -341 -31 -203 -351 0
-316 -341 -31 203 351 0
-316 -341 31 -203 351 0
-316 -341 31 203 -351 0
-316 -341 -32 -204 -352 0
-316 -341 -32 204 352 0
-316 -341 32 -204 352 0
-316 -341 32 204 -352 0
-316 -342 -25 -231 -345 0
-316 -342 -25 231 345 0
-316 -342 25 -231 345 0
-316 -342 25 231 -345 0
-316 -342 -26 -232 -346 0
-316 -342 -26 232 346 0
-316 -342 26 -232 346 0
-316 -342 26 232 -346 0
-316 -342 -27 -233 -347 0
-316 -342 -27 233 347 0
-316 -342 27 -233 347 0
-316 -342 27 233 -347 0
-316 -342 -28 -234 -348 0
-316 -342 -28 234 348 0
-316 -342 28 -234 348 0
-316 -342 28 234 -348 0
-316 -342 -29 -235 -349 0
-316 -342 -29 235 349 0
-316 -342 29 -235 349 0
-316 -342 29 235 -349 0
-316 -342 -30 -236 -350 0
-316 -342 -30 236 350 0
-316 -342 30 -236 350 0
-316 -342 30 236 -350 0
-316 -342 -31 -237 -351 0
-316 -342 -31 237 351 0
-316 -342 31 -237 351 0
-316 -342 31 237 -351 0
-316 -342 -32 -238 -352 0
-316 -342 -32 238 352 0
-316 -342 32 -238 352 0
-316 -342 32 238 -352 0
-316 -343 -25 -267 -345 0
-316 -343 -25 267 345 0
-316 -343 25 -267 345 0
-316 -343 25 267 -345 0
-316 -343 -26 -268 -346 0
-316 -343 -26 268 346 0
-316 -343 26 -268 346 0
-316 -343 26 268 -346 0
-316 -343 -27 -269 -347 0
-316 -343 -27 269 347 0
-316 -343 27 -269 347 0
-316 -343 27 269 -347 0
-316 -343 -28 -270 -348 0
-316 -343 -28 270 348 0
-316 -343 28 -270 348 0
-316 -343 28 270 -348 0
-316 -343 -29 -271 -349 0
-316 -343 -29 271 349 0
-316 -343 29 -271 349 0
-316 -343 29 271 -349 0
-316 -343 -30 -272 -350 0
-316 -343 -30 272 350 0
-316 -343 30 -272 350 0
-316 -343 30 272 -350 0
-316 -343 -31 -273 -351 0
-316 -343 -31 273 351 0
-316 -343 31 -273 351 0
-316 -343 31 273 -351 0
-316 -343 -32 -274 -352 0
-316 -343 -32 274 352 0
-316 -343 32 -274 352 0
-316 -343 32 274 -352 0
-316 -344 -25 -305 -345 0
-316 -344 -25 305 345 0
-316 -344 25 -305 345 0
-316 -344 25 305 -345 0
-316 -344 -26 -306 -346 0
-316 -344 -26 306 346 0
-316 -344 26 -306 346 0
-316 -344 26 306 -346 0
-316 -344 -27 -307 -347 0
-316 -344 -27 307 347 0
-316 -344 27 -307 347 0
-316 -344 27 307 -347 0
-316 -344 -28 -308 -348 0
-316 -344 -28 308 348 0
-316 -344 28 -308 348 0
-316 -344 28 308 -348 0
-316 -344 -29 -309 -349 0
-316 -344 -29 309 349 0
-316 -344 29 -309 349 0
-316 -344 29 309 -349 0
-316 -344 -30 -310 -350 0
-316 -344 -30 310 350 0
-316 -344 30 -310 350 0
-316 -344 30 310 -350 0
-316 -344 -31 -311 -351 0
-316 -344 -31 311 351 0
-316 -344 31 -311 351 0
-316 -344 31 311 -351 0
-316 -344 -32 -312 -352 0
-316 -344 -32 312 352 0
-316 -344 32 -312 352 0
-316 -344 32 312 -352 0
-317 -334 -33 -41 -345 0
-317 -334 -33 41 345 0
-317 -334 33 -41 345 0
-317 -334 33 41 -345 0
-317 -334 -34 -42 -346 0
-317 -334 -34 42 346 0
-317 -334 34 -42 346 0
-317 -334 34 42 -346 0
-317 -334 -35 -43 -347 0
-317 -334 -35 43 347 0
-317 -334 35 -43 347 0
-317 -334 35 43 -347 0
-317 -334 -36 -44 -348 0
-317 -334 -36 44 348 0
-317 -334 36 -44 348 0
-317 -334 36 44 -348 0
-317 -334 -37 -45 -349 0
-317 -334 -37 45 349 0
-317 -334 37 -45 349 0
-317 -334 37 45 -349 0
-317 -334 -38 -46 -350 0
-317 -334 -38 46 350 0
-317 -334 38 -46 350 0
-317 -334 38 46 -350 0
-317 -334 -39 -47 -351 0
-317 -334 -39 47 351 0
-317 -334 39 -47 351 0
-317 -334 39 47 -351 0
-317 -334 -40 -48 -352 0
-317 -334 -40 48 352 0
-317 -334 40 -48 352 0
-317 -334 40 48 -352 0
-317 -335 -33 -49 -345 0
-317 -335 -33 49 345 0
-317 -335 33 -49 345 0
-317 -335 33 49 -345 0
-317 -335 -34 -50 -346 0
-317 -335 -34 50 346 0
-317 -335 34 -50 346 0
-317 -335 34 50 -346 0
-317 -335 -35 -51 -347 0
-317 -335 -35 51 347 0
-317 -335 35 -51 347 0
-317 -335 35 51 -347 0
-317 -335 -36 -52 -348 0
-317 -335 -36 52 348 0
-317 -335 36 -52 348 0
-317 -335 36 52 -348 0
-317 -335 -37 -53 -349 0
-317 -335 -37 53 349 0
-317 -335 37 -53 349 0
-317 -335 37 53 -349 0
-317 -335 -38 -54 -350 0
-317 -335 -38 54 350 0
-317 -335 38 -54 350 0
-317 -335 38 54 -350 0
-317 -335 -39 -55 -351 0
-317 -335 -39 55 351 0
-317 -335 39 -55 351 0
-317 -335 39 55 -351 0
-317 -335 -40 -56 -352 0
-317 -335 -40 56 352 0
-317 -335 40 -56 352 0
-317 -335 40 56 -352 0
-317 -336 -33 -57 -345 0
-317 -336 -33 57 345 0
-317 -336 33 -57 345 0
-317 -336 33 57 -345 0
-317 -336 -34 -58 -346 0
-317 -336 -34 58 346 0
-317 -336 34 -58 346 0
-317 -336 34 58 -346 0
-317 -336 -35 -59 -347 0
-317 -336 -35 59 347 0
-317 -336 35 -59 347 0
-317 -336 35 59 -347 0
-317 -336 -36 -60 -348 0
-317 -336 -36 60 348 0
-317 -336 36 -60 348 0
-317 -336 36 60 -348 0
-317 -336 -37 -61 -349 0
-317 -336 -37 61 349 0
-317 -336 37 -61 349 0
-317 -336 37 61 -349 0
-317 -336 -38 -62 -350 0
-317 -336 -38 62 350 0
-317 -336 38 -62 350 0
-317 -336 38 62 -350 0
-317 -336 -39 -63 -351 0
-317 -336 -39 63 351 0
-317 -336 39 -63 351 0
-317 -336 39 63 -351 0
-317 -336 -40 -64 -352 0
-317 -336 -40 64 352 0
-317 -336 40 -64 352 0
-317 -336 40 64 -352 0
-317 -337 -33 -81 -345 0
-317 -337 -33 81 345 0
-317 -337 33 -81 345 0
-317 -337 33 81 -345 0
-317 -337 -34 -82 -346 0
-317 -337 -34 82 346 0
-317 -337 34 -82 346 0
-317 -337 34 82 -346 0
-317 -337 -35 -83 -347 0
-317 -337 -35 83 347 0
-317 -337 35 -83 347 0
-317 -337 35 83 -347 0
-317 -337 -36 -84 -348 0
-317 -337 -36 84 348 0
-317 -337 36 -84 348 0
-317 -337 36 84 -348 0
-317 -337 -37 -85 -349 0
-317 -337 -37 85 349 0
-317 -337 37 -85 349 0
-317 -337 37 85 -349 0
-317 -337 -38 -86 -350 0
-317 -337 -38 86 350 0
-317 -337 38 -86 350 0
-317 -337 38 86 -350 0
-317 -337 -39 -87 -351 0
-317 -337 -39 87 351 0
-317 -337 39 -87 351 0
-317 -337 39 87 -351 0
-317 -337 -40 -88 -352 0
-317 -337 -40 88 352 0
-317 -337 40 -88 352 0
-317 -337 40 88 -352 0
-317 -338 -33 -107 -345 0
-317 -338 -33 107 345 0
-317 -338 33 -107 345 0
-317 -338 33 107 -345 0
-317 -338 -34 -108 -346 0
-317 -338 -34 108 346 0
-317 -338 34 -108 346 0
-317 -338 34 108 -346 0
-317 -338 -35 -109 -347 0
-317 -338 -35 109 347 0
-317 -338 35 -109 347 0
-317 -338 35 109 -347 0
-317 -338 -36 -110 -348 0
-317 -338 -36 110 348 0
-317 -338 36 -110 348 0
-317 -338 36 110 -348 0
-317 -338 -37 -111 -349 0
-317 -338 -37 111 349 0
-317 -338 37 -111 349 0
-317 -338 37 111 -349 0
-317 -338 -38 -112 -350 0
-317 -338 -38 112 350 0
-317 -338 38 -112 350 0
-317 -338 38 112 -350 0
-317 -338 -39 -113 -351 0
-317 -338 -39 113 351 0
-317 -338 39 -113 351 0
-317 -338 39 113 -351 0
-317 -338 -40 -114 -352 0
-317 -338 -40 114 352 0
-317 -338 40 -114 352 0
-317 -338 40 114 -352 0
-317 -339 -33 -135 -345 0
-317 -339 -33 135 345 0
-317 -339 33 -135 345 0
-317 -339 33 135 -345 0
-317 -339 -34 -136 -346 0
-317 -339 -34 136 346 0
-317 -339 34 -136 346 0
-317 -339 34 136 -346 0
-317 -339 -35 -137 -347 0
-317 -339 -35 137 347 0
-317 -339 35 -137 347 0
-317 -339 35 137 -347 0
-317 -339 -36 -138 -348 0
-317 -339 -36 138 348 0
-317 -339 36 -138 348 0
-317 -339 36 138 -348 0
-317 -339 -37 -139 -349 0
-317 -339 -37 139 349 0
-317 -339 37 -139 349 0
-317 -339 37 139 -349 0
-317 -339 -38 -140 -350 0
-317 -339 -38 140 350 0
-317 -339 38 -140 350 0
-317 -339 38 140 -350 0
-317 -339 -39 -141 -351 0
-317 -339 -39 141 351 0
-317 -339 39 -141 351 0
-317 -339 39 141 -351 0
-317 -339 -40 -142 -352 0
-317 -339 -40 142 352 0
-317 -339 40 -142 352 0
-317 -339 40 142 -352 0
-317 -340 -33 -165 -345 0
-317 -340 -33 165 345 0
-317 -340 33 -165 345 0
-317 -340 33 165 -345 0
-317 -340 -34 -166 -346 0
-317 -340 -34 166 346 0
-317 -340 34 -166 346 0
-317 -340 34 166 -346 0
-317 -340 -35 -167 -347 0
-317 -340 -35 167 347 0
-317 -340 35 -167 347 0
-317 -340 35 167 -347 0
-317 -340 -36 -168 -348 0
-317 -340 -36 168 348 0
-317 -340 36 -168 348 0
-317 -340 36 168 -348 0
-317 -340 -37 -169 -349 0
-317 -340 -37 169 349 0
-317 -340 37 -169 349 0
-317 -340 37 169 -349 0
-317 -340 -38 -170 -350 0
-317 -340 -38 170 350 0
-317 -340 38 -170 350 0
-317 -340 38 170 -350 0
-317 -340 -39 -171 -351 0
-317 -340 -39 171 351 0
-317 -340 39 -171 351 0
-317 -340 39 171 -351 0
-317 -340 -40 -172 -352 0
-317 -340 -40 172 352 0
-317 -340 40 -172 352 0
-317 -340 40 172 -352 0
-317 -341 -33 -197 -345 0
-317 -341 -33 197 345 0
-317 -341 33 -197 345 0
-317 -341 33 197 -345 0
-317 -341 -34 -198 -346 0
-317 -341 -34 198 346 0
-317 -341 34 -198 346 0
-317 -341 34 198 -346 0
-317 -341 -35 -199 -347 0
-317 -341 -35 199 347 0
-317 -341 35 -199 347 0
-317 -341 35 199 -347 0
-317 -341 -36 -200 -348 0
-317 -341 -36 200 348 0
-317 -341 36 -200 348 0
-317 -341 36 200 -348 0
-317 -341 -37 -201 -349 0
-317 -341 -37 201 349 0
-317 -341 37 -201 349 0
-317 -341 37 201 -349 0
-317 -341 -38 -202 -350 0
-317 -341 -38 202 350 0
-317 -341 38 -202 350 0
-317 -341 38 202 -350 0
-317 -341 -39 -203 -351 0
-317 -341 -39 203 351 0
-317 -341 39 -203 351 0
-317 -341 39 203 -351 0
-317 -341 -40 -204 -352 0
-317 -341 -40 204 352 0
-317 -341 40 -204 352 0
-317 -341 40 204 -352 0
-317 -342 -33 -231 -345 0
-317 -342 -33 231 345 0
-317 -342 33 -231 345 0
-317 -342 33 231 -345 0
-317 -342 -34 -232 -346 0
-317 -342 -34 232 346 0
-317 -342 34 -232 346 0
-317 -342 34 232 -346 0
-317 -342 -35 -233 -347 0
-317 -342 -35 233 347 0
-317 -342 35 -233 347 0
-317 -342 35 233 -347 0
-317 -342 -36 -234 -348 0
-317 -342 -36 234 348 0
-317 -342 36 -234 348 0
-317 -342 36 234 -348 0
-317 -342 -37 -235 -349 0
-317 -342 -37 235 349 0
-317 -342 37 -235 349 0
-317 -342 37 235 -349 0
-317 -342 -38 -236 -350 0
-317 -342 -38 236 350 0
-317 -342 38 -236 350 0
-317 -342 38 236 -350 0
-317 -342 -39 -237 -351 0
-317 -342 -39 237 351 0
-317 -342 39 -237 351 0
-317 -342 39 237 -351 0
-317 -342 -40 -238 -352 0
-317 -342 -40 238 352 0
-317 -342 40 -238 352 0
-317 -342 40 238 -352 0
-317 -343 -33 -267 -345 0
-317 -343 -33 267 345 0
-317 -343 33 -267 345 0
-317 -343 33 267 -345 0
-317 -343 -34 -268 -346 0
-317 -343 -34 268 346 0
-317 -343 34 -268 346 0
-317 -343 34 268 -346 0
-317 -343 -35 -269 -347 0
-317 -343 -35 269 347 0
-317 -343 35 -269 347 0
-317 -343 35 269 -347 0
-317 -343 -36 -270 -348 0
-317 -343 -36 270 348 0
-317 -343 36 -270 348 0
-317 -343 36 270 -348 0
-317 -343 -37 -271 -349 0
-317 -343 -37 271 349 0
-317 -343 37 -271 349 0
-317 -343 37 271 -349 0
-317 -343 -38 -272 -350 0
-317 -343 -38 272 350 0
-317 -343 38 -272 350 0
-317 -343 38 272 -350 0
-317 -343 -39 -273 -351 0
-317 -343 -39 273 351 0
-317 -343 39 -273 351 0
-317 -343 39 273 -351 0
-317 -343 -40 -274 -352 0
-317 -343 -40 274 352 0
-317 -343 40 -274 352 0
-317 -343 40 274 -352 0
-317 -344 -33 -305 -345 0
-317 -344 -33 305 345 0
-317 -344 33 -305 345 0
-317 -344 33 305 -345 0
-317 -344 -34 -306 -346 0
-317 -344 -34 306 346 0
-317 -344 34 -306 346 0
-317 -344 34 306 -346 0
-317 -344 -35 -307 -347 0
-317 -344 -35 307 347 0
-317 -344 35 -307 347 0
-317 -344 35 307 -347 0
-317 -344 -36 -308 -348 0
-317 -344 -36 308 348 0
-317 -344 36 -308 348 0
-317 -344 36 308 -348 0
-317 -344 -37 -309 -349 0
-317 -344 -37 309 349 0
-317 -344 37 -309 349 0
-317 -344 37 309 -349 0
-317 -344 -38 -310 -350 0
-317 -344 -38 310 350 0
-317 -344 38 -310 350 0
-317 -344 38 310 -350 0
-317 -344 -39 -311 -351 0
-317 -344 -39 311 351 0
-317 -344 39 -311 351 0
-317 -344 39 311 -351 0
-317 -344 -40 -312 -352 0
-317 -344 -40 312 352 0
-317 -344 40 -312 352 0
-317 -344 40 312 -352 0
-318 -335 -41 -49 -345 0
-318 -335 -41 49 345 0
-318 -335 41 -49 345 0
-318 -335 41 49 -345 0
-318 -335 -42 -50 -346 0
-318 -335 -42 50 346 0
-318 -335 42 -50 346 0
-318 -335 42 50 -346 0
-318 -335 -43 -51 -347 0
-318 -335 -43 51 347 0
-318 -335 43 -51 347 0
-318 -335 43 51 -347 0
-318 -335 -44 -52 -348 0
-318 -335 -44 52 348 0
-318 -335 44 -52 348 0
-318 -335 44 52 -348 0
-318 -335 -45 -53 -349 0
-318 -335 -45 53 349 0
-318 -335 45 -53 349 0
-318 -335 45 53 -349 0
-318 -335 -46 -54 -350 0
-318 -335 -46 54 350 0
-318 -335 46 -54 350 0
-318 -335 46 54 -350 0
-318 -335 -47 -55 -351 0
-318 -335 -47 55 351 0
-318 -335 47 -55 351 0
-318 -335 47 55 -351 0
-318 -335 -48 -56 -352 0
-318 -335 -48 56 352 0
-318 -335 48 -56 352 0
-318 -335 48 56 -352 0
-318 -336 -41 -57 -345 0
-318 -336 -41 57 345 0
-318 -336 41 -57 345 0
-318 -336 41 57 -345 0
-318 -336 -42 -58 -346 0
-318 -336 -42 58 346 0
-318 -336 42 -58 346 0
-318 -336 42 58 -346 0
-318 -336 -43 -59 -347 0
-318 -336 -43 59 347 0
-318 -336 43 -59 347 0
-318 -336 43 59 -347 0
-318 -336 -44 -60 -348 0
-318 -336 -44 60 348 0
-318 -336 44 -60 348 0
-318 -336 44 60 -348 0
-318 -336 -45 -61 -349 0
-318 -336 -45 61 349 0
-318 -336 45 -61 349 0
-318 -336 45 61 -349 0
-318 -336 -46 -62 -350 0
-318 -336 -46 62 350 0
-318 -336 46 -62 350 0
-318 -336 46 62 -350 0
-318 -336 -47 -63 -351 0
-318 -336 -47 63 351 0
-318 -336 47 -63 351 0
-318 -336 47 63 -351 0
-318 -336 -48 -64 -352 0
-318 -336 -48 64 352 0
-318 -336 48 -64 352 0
-318 -336 48 64 -352 0
-318 -337 -41 -81 -345 0
-318 -337 -41 81 345 0
-318 -337 41 -81 345 0
-318 -337 41 81 -345 0
-318 -337 -42 -82 -346 0
-318 -337 -42 82 346 0
-318 -337 42 -82 346 0
-318 -337 42 82 -346 0
-318 -337 -43 -83 -347 0
-318 -337 -43 83 347 0
-318 -337 43 -83 347 0
-318 -337 43 83 -347 0
-318 -337 -44 -84 -348 0
-318 -337 -44 84 348 0
-318 -337 44 -84 348 0
-318 -337 44 84 -348 0
-318 -337 -45 -85 -349 0
-318 -337 -45 85 349 0
-318 -337 45 -85 349 0
-318 -337 45 85 -349 0
-318 -337 -46 -86 -350 0
-318 -337 -46 86 350 0
-318 -337 46 -86 350 0
-318 -337 46 86 -350 0
-318 -337 -47 -87 -351 0
-318 -337 -47 87 351 0
-318 -337 47 -87 351 0
-318 -337 47 87 -351 0
-318 -337 -48 -88 -352 0
-318 -337 -48 88 352 0
-318 -337 48 -88 352 0
-318 -337 48 88 -352 0
-318 -338 -41 -107 -345 0
-318 -338 -41 107 345 0
-318 -338 41 -107 345 0
-318 -338 41 107 -345 0
-318 -338 -42 -108 -346 0
-318 -338 -42 108 346 0
-318 -338 42 -108 346 0
-318 -338 42 108 -346 0
-318 -338 -43 -109 -347 0
-318 -338 -43 109 347 0
-318 -338 43 -109 347 0
-318 -338 43 109 -347 0
-318 -338 -44 -110 -348 0
-318 -338 -44 110 348 0
-318 -338 44 -110 348 0
-318 -338 44 110 -348 0
-318 -338 -45 -111 -349 0
-318 -338 -45 111 349 0
-318 -338 45 -111 349 0
-318 -338 45 111 -349 0
-318 -338 -46 -112 -350 0
-318 -338 -46 112 350 0
-318 -338 46 -112 350 0
-318 -338 46 112 -350 0
-318 -338 -47 -113 -351 0
-318 -338 -47 113 351 0
-318 -338 47 -113 351 0
-318 -338 47 113 -351 0
-318 -338 -48 -114 -352 0
-318 -338 -48 114 352 0
-318 -338 48 -114 352 0
-318 -338 48 114 -352 0
-318 -339 -41 -135 -345 0
-318 -339 -41 135 345 0
-318 -339 41 -135 345 0
-318 -339 41 135 -345 0
-318 -339 -42 -136 -346 0
-318 -339 -42 136 346 0
-318 -339 42 -136 346 0
-318 -339 42 136 -346 0
-318 -339 -43 -137 -347 0
-318 -339 -43 137 347 0
-318 -339 43 -137 347 0
-318 -339 43 137 -347 0
-318 -339 -44 -138 -348 0
-318 -339 -44 138 348 0
-318 -339 44 -138 348 0
-318 -339 44 138 -348 0
-318 -339 -45 -139 -349 0
-318 -339 -45 139 349 0
-318 -339 45 -139 349 0
-318 -339 45 139 -349 0
-318 -339 -46 -140 -350 0
-318 -339 -46 140 350 0
-318 -339 46 -140 350 0
-318 -339 46 140 -350 0
-318 -339 -47 -141 -351 0
-318 -339 -47 141 351 0
-318 -339 47 -141 351 0
-318 -339 47 141 -351 0
-318 -339 -48 -142 -352 0
-318 -339 -48 142 352 0
-318 -339 48 -142 352 0
-318 -339 48 142 -352 0
-318 -340 -41 -165 -345 0
-318 -340 -41 165 345 0
-318 -340 41 -165 345 0
-318 -340 41 165 -345 0
-318 -340 -42 -166 -346 0
-318 -340 -42 166 346 0
-318 -340 42 -166 346 0
-318 -340 42 166 -346 0
-318 -340 -43 -167 -347 0
-318 -340 -43 167 347 0
-318 -340 43 -167 347 0
-318 -340 43 167 -347 0
-318 -340 -44 -168 -348 0
-318 -340 -44 168 348 0
-318 -340 44 -168 348 0
-318 -340 44 168 -348 0
-318 -340 -45 -169 -349 0
-318 -340 -45 169 349 0
-318 -340 45 -169 349 0
-318 -340 45 169 -349 0
-318 -340 -46 -170 -350 0
-318 -340 -46 170 350 0
-318 -340 46 -170 350 0
-318 -340 46 170 -350 0
-318 -340 -47 -171 -351 0
-318 -340 -47 171 351 0
-318 -340 47 -171 351 0
-318 -340 47 171 -351 0
-318 -340 -48 -172 -352 0
-318 -340 -48 172 352 0
-318 -340 48 -172 352 0
-318 -340 48 172 -352 0
-318 -341 -41 -197 -345 0
-318 -341 -41 197 345 0
-318 -341 41 -197 345 0
-318 -341 41 197 -345 0
-318 -341 -42 -198 -346 0
-318 -341 -42 198 346 0
-318 -341 42 -198 346 0
-318 -341 42 198 -346 0
-318 -341 -43 -199 -347 0
-318 -341 -43 199 347 0
-318 -341 43 -199 347 0
-318 -341 43 199 -347 0
-318 -341 -44 -200 -348 0
-318 -341 -44 200 348 0
-318 -341 44 -200 348 0
-318 -341 44 200 -348 0
-318 -341 -45 -201 -349 0
-318 -341 -45 201 349 0
-318 -341 45 -201 349 0
-318 -341 45 201 -349 0
-318 -341 -46 -202 -350 0
-318 -341 -46 202 350 0
-318 -341 46 -202 350 0
-318 -341 46 202 -350 0
-318 -341 -47 -203 -351 0
-318 -341 -47 203 351 0
-318 -341 47 -203 351 0
-318 -341 47 203 -351 0
-318 -341 -48 -204 -352 0
-318 -341 -48 204 352 0
-318 -341 48 -204 352 0
-318 -341 48 204 -352 0
-318 -342 -41 -231 -345 0
-318 -342 -41 231 345 0
-318 -342 41 -231 345 0
-318 -342 41 231 -345 0
-318 -342 -42 -232 -346 0
-318 -342 -42 232 346 0
-318 -342 42 -232 346 0
-318 -342 42 232 -346 0
-318 -342 -43 -233 -347 0
-318 -342 -43 233 347 0
-318 -342 43 -233 347 0
-318 -342 43 233 -347 0
-318 -342 -44 -234 -348 0
-318 -342 -44 234 348 0
-318 -342 44 -234 348 0
-318 -342 44 234 -348 0
-318 -342 -45 -235 -349 0
-318 -342 -45 235 349 0
-318 -342 45 -235 349 0
-318 -342 45 235 -349 0
-318 -342 -46 -236 -350 0
-318 -342 -46 236 350 0
-318 -342 46 -236 350 0
-318 -342 46 236 -350 0
-318 -342 -47 -237 -351 0
-318 -342 -47 237 351 0
-318 -342 47 -237 351 0
-318 -342 47 237 -351 0
-318 -342 -48 -238 -352 0
-318 -342 -48 238 352 0
-318 -342 48 -238 352 0
-318 -342 48 238 -352 0
-318 -343 -41 -267 -345 0
-318 -343 -41 267 345 0
-318 -343 41 -267 345 0
-318 -343 41 267 -345 0
-318 -343 -42 -268 -346 0
-318 -343 -42 268 346 0
-318 -343 42 -268 346 0
-318 -343 42 268 -346 0
-318 -343 -43 -269 -347 0
-318 -343 -43 269 347 0
-318 -343 43 -269 347 0
-318 -343 43 269 -347 0
-318 -343 -44 -270 -348 0
-318 -343 -44 270 348 0
-318 -343 44 -270 348 0
-318 -343 44 270 -348 0
-318 -343 -45 -271 -349 0
-318 -343 -45 271 349 0
-318 -343 45 -271 349 0
-318 -343 45 271 -349 0
-318 -343 -46 -272 -350 0
-318 -343 -46 272 350 0
-318 -343 46 -272 350 0
-318 -343 46 272 -350 0
-318 -343 -47 -273 -351 0
-318 -343 -47 273 351 0
-318 -343 47 -273 351 0
-318 -343 47 273 -351 0
-318 -343 -48 -274 -352 0
-318 -343 -48 274 352 0
-318 -343 48 -274 352 0
-318 -343 48 274 -352 0
-318 -344 -41 -305 -345 0
-318 -344 -41 305 345 0
-318 -344 41 -305 345 0
-318 -344 41 305 -345 0
-318 -344 -42 -306 -346 0
-318 -344 -42 306 346 0
-318 -344 42 -306 346 0
-318 -344 42 306 -346 0
-318 -344 -43 -307 -347 0
-318 -344 -43 307 347 0
-318 -344 43 -307 347 0
-318 -344 43 307 -347 0
-318 -344 -44 -308 -348 0
-318 -344 -44 308 348 0
-318 -344 44 -308 348 0
-318 -344 44 308 -348 0
-318 -344 -45 -309 -349 0
-318 -344 -45 309 349 0
-318 -344 45 -309 349 0
-318 -344 45 309 -349 0
-318 -344 -46 -310 -350 0
-318 -344 -46 310 350 0
-318 -344 46 -310 350 0
-318 -344 46 310 -350 0
-318 -344 -47 -311 -351 0
-318 -344 -47 311 351 0
-318 -344 47 -311 351 0
-318 -344 47 311 -351 0
-318 -344 -48 -312 -352 0
-318 -344 -48 312 352 0
-318 -344 48 -312 352 0
-318 -344 48 312 -352 0
-319 -336 -49 -57 -345 0
-319 -336 -49 57 345 0
-319 -336 49 -57 345 0
-319 -336 49 57 -345 0
-319 -336 -50 -58 -346 0
-319 -336 -50 58 346 0
-319 -336 50 -58 346 0
-319 -336 50 58 -346 0
-319 -336 -51 -59 -347 0
-319 -336 -51 59 347 0
-319 -336 51 -59 347 0
-319 -336 51 59 -347 0
-319 -336 -52 -60 -348 0
-319 -336 -52 60 348 0
-319 -336 52 -60 348 0
-319 -336 52 60 -348 0
-319 -336 -53 -61 -349 0
-319 -336 -53 61 349 0
-319 -336 53 -61 349 0
-319 -336 53 61 -349 0
-319 -336 -54 -62 -350 0
-319 -336 -54 62 350 0
-319 -336 54 -62 350 0
-319 -336 54 62 -350 0
-319 -336 -55 -63 -351 0
-319 -336 -55 63 351 0
-319 -336 55 -63 351 0
-319 -336 55 63 -351 0
-319 -336 -56 -64 -352 0
-319 -336 -56 64 352 0
-319 -336 56 -64 352 0
-319 -336 56 64 -352 0
-319 -337 -49 -81 -345 0
-319 -337 -49 81 345 0
-319 -337 49 -81 345 0
-319 -337 49 81 -345 0
-319 -337 -50 -82 -346 0
-319 -337 -50 82 346 0
-319 -337 50 -82 346 0
-319 -337 50 82 -346 0
-319 -337 -51 -83 -347 0
-319 -337 -51 83 347 0
-319 -337 51 -83 347 0
-319 -337 51 83 -347 0
-319 -337 -52 -84 -348 0
-319 -337 -52 84 348 0
-319 -337 52 -84 348 0
-319 -337 52 84 -348 0
-319 -337 -53 -85 -349 0
-319 -337 -53 85 349 0
-319 -337 53 -85 349 0
-319 -337 53 85 -349 0
-319 -337 -54 -86 -350 0
-319 -337 -54 86 350 0
-319 -337 54 -86 350 0
-319 -337 54 86 -350 0
-319 -337 -55 -87 -351 0
-319 -337 -55 87 351 0
-319 -337 55 -87 351 0
-319 -337 55 87 -351 0
-319 -337 -56 -88 -352 0
-319 -337 -56 88 352 0
-319 -337 56 -88 352 0
-319 -337 56 88 -352 0
-319 -338 -49 -107 -345 0
-319 -338 -49 107 345 0
-319 -338 49 -107 345 0
-319 -338 49 107 -345 0
-319 -338 -50 -108 -346 0
-319 -338 -50 108 346 0
-319 -338 50 -108 346 0
-319 -338 50 108 -346 0
-319 -338 -51 -109 -347 0
-319 -338 -51 109 347 0
-319 -338 51 -109 347 0
-319 -338 51 109 -347 0
-319 -338 -52 -110 -348 0
-319 -338 -52 110 348 0
-319 -338 52 -110 348 0
-319 -338 52 110 -348 0
-319 -338 -53 -111 -349 0
-319 -338 -53 111 349 0
-319 -338 53 -111 349 0
-319 -338 53 111 -349 0
-319 -338 -54 -112 -350 0
-319 -338 -54 112 350 0
-319 -338 54 -112 350 0
-319 -338 54 112 -350 0
-319 -338 -55 -113 -351 0
-319 -338 -55 113 351 0
-319 -338 55 -113 351 0
-319 -338 55 113 -351 0
-319 -338 -56 -114 -352 0
-319 -338 -56 114 352 0
-319 -338 56 -114 352 0
-319 -338 56 114 -352 0
-319 -339 -49 -135 -345 0
-319 -339 -49 135 345 0
-319 -339 49 -135 345 0
-319 -339 49 135 -345 0
-319 -339 -50 -136 -346 0
-319 -339 -50 136 346 0
-319 -339 50 -136 346 0
-319 -339 50 136 -346 0
-319 -339 -51 -137 -347 0
-319 -339 -51 137 347 0
-319 -339 51 -137 347 0
-319 -339 51 137 -347 0
-319 -339 -52 -138 -348 0
-319 -339 -52 138 348 0
-319 -339 52 -138 348 0
-319 -339 52 138 -348 0
-319 -339 -53 -139 -349 0
-319 -339 -53 139 349 0
-319 -339 53 -139 349 0
-319 -339 53 139 -349 0
-319 -339 -54 -140 -350 0
-319 -339 -54 140 350 0
-319 -339 54 -140 350 0
-319 -339 54 140 -350 0
-319 -339 -55 -141 -351 0
-319 -339 -55 141 351 0
-319 -339 55 -141 351 0
-319 -339 55 141 -351 0
-319 -339 -56 -142 -352 0
-319 -339 -56 142 352 0
-319 -339 56 -142 352 0
-319 -339 56 142 -352 0
-319 -340 -49 -165 -345 0
-319 -340 -49 165 345 0
-319 -340 49 -165 345 0
-319 -340 49 165 -345 0
-319 -340 -50 -166 -346 0
-319 -340 -50 166 346 0
-319 -340 50 -166 346 0
-319 -340 50 166 -346 0
-319 -340 -51 -167 -347 0
-319 -340 -51 167 347 0
-319 -340 51 -167 347 0
-319 -340 51 167 -347 0
-319 -340 -52 -168 -348 0
-319 -340 -52 168 348 0
-319 -340 52 -168 348 0
-319 -340 52 168 -348 0
-319 -340 -53 -169 -349 0
-319 -340 -53 169 349 0
-319 -340 53 -169 349 0
-319 -340 53 169 -349 0
-319 -340 -54 -170 -350 0
-319 -340 -54 170 350 0
-319 -340 54 -170 350 0
-319 -340 54 170 -350 0
-319 -340 -55 -171 -351 0
-319 -340 -55 171 351 0
-319 -340 55 -171 351 0
-319 -340 55 171 -351 0
-319 -340 -56 -172 -352 0
-319 -340 -56 172 352 0
-319 -340 56 -172 352 0
-319 -340 56 172 -352 0
-319 -341 -49 -197 -345 0
-319 -341 -49 197 345 0
-319 -341 49 -197 345 0
-319 -341 49 197 -345 0
-319 -341 -50 -198 -346 0
-319 -341 -50 198 346 0
-319 -341 50 -198 346 0
-319 -341 50 198 -346 0
-319 -341 -51 -199 -347 0
-319 -341 -51 199 347 0
-319 -341 51 -199 347 0
-319 -341 51 199 -347 0
-319 -341 -52 -200 -348 0
-319 -341 -52 200 348 0
-319 -341 52 -200 348 0
-319 -341 52 200 -348 0
-319 -341 -53 -201 -349 0
-319 -341 -53 201 349 0
-319 -341 53 -201 349 0
-319 -341 53 201 -349 0
-319 -341 -54 -202 -350 0
-319 -341 -54 202 350 0
-319 -341 54 -202 350 0
-319 -341 54 202 -350 0
-319 -341 -55 -203 -351 0
-319 -341 -55 203 351 0
-319 -341 55 -203 351 0
-319 -341 55 203 -351 0
-319 -341 -56 -204 -352 0
-319 -341 -56 204 352 0
-319 -341 56 -204 352 0
-319 -341 56 204 -352 0
-319 -342 -49 -231 -345 0
-319 -342 -49 231 345 0
-319 -342 49 -231 345 0
-319 -342 49 231 -345 0
-319 -342 -50 -232 -346 0
-319 -342 -50 232 346 0
-319 -342 50 -232 346 0
-319 -342 50 232 -346 0
-319 -342 -51 -233 -347 0
-319 -342 -51 233 347 0
-319 -342 51 -233 347 0
-319 -342 51 233 -347 0
-319 -342 -52 -234 -348 0
-319 -342 -52 234 348 0
-319 -342 52 -234 348 0
-319 -342 52 234 -348 0
-319 -342 -53 -235 -349 0
-319 -342 -53 235 349 0
-319 -342 53 -235 349 0
-319 -342 53 235 -349 0
-319 -342 -54 -236 -350 0
-319 -342 -54 236 350 0
-319 -342 54 -236 350 0
-319 -342 54 236 -350 0
-319 -342 -55 -237 -351 0
-319 -342 -55 237 351 0
-319 -342 55 -237 351 0
-319 -342 55 237 -351 0
-319 -342 -56 -238 -352 0
-319 -342 -56 238 352 0
-319 -342 56 -238 352 0
-319 -342 56 238 -352 0
-319 -343 -49 -267 -345 0
-319 -343 -49 267 345 0
-319 -343 49 -267 345 0
-319 -343 49 267 -345 0
-319 -343 -50 -268 -346 0
-319 -343 -50 268 346 0
-319 -343 50 -268 346 0
-319 -343 50 268 -346 0
-319 -343 -51 -269 -347 0
-319 -343 -51 269 347 0
-319 -343 51 -269 347 0
-319 -343 51 269 -347 0
-319 -343 -52 -270 -348 0
-319 -343 -52 270 348 0
-319 -343 52 -270 348 0
-319 -343 52 270 -348 0
-319 -343 -53 -271 -349 0
-319 -343 -53 271 349 0
-319 -343 53 -271 349 0
-319 -343 53 271 -349 0
-319 -343 -54 -272 -350 0
-319 -343 -54 272 350 0
-319 -343 54 -272 350 0
-319 -343 54 272 -350 0
-319 -343 -55 -273 -351 0
-319 -343 -55 273 351 0
-319 -343 55 -273 351 0
-319 -343 55 273 -351 0
-319 -343 -56 -274 -352 0
-319 -343 -56 274 352 0
-319 -343 56 -274 352 0
-319 -343 56 274 -352 0
-319 -344 -49 -305 -345 0
-319 -344 -49 305 345 0
-319 -344 49 -305 345 0
-319 -344 49 305 -345 0
-319 -344 -50 -306 -346 0
-319 -344 -50 306 346 0
-319 -344 50 -306 346 0
-319 -344 50 306 -346 0
-319 -344 -51 -307 -347 0
-319 -344 -51 307 347 0
-319 -344 51 -307 347 0
-319 -344 51 307 -347 0
-319 -344 -52 -308 -348 0
-319 -344 -52 308 348 0
-319 -344 52 -308 348 0
-319 -344 52 308 -348 0
-319 -344 -53 -309 -349 0
-319 -344 -53 309 349 0
-319 -344 53 -309 349 0
-319 -344 53 309 -349 0
-319 -344 -54 -310 -350 0
-319 -344 -54 310 350 0
-319 -344 54 -310 350 0
-319 -344 54 310 -350 0
-319 -344 -55 -311 -351 0
-319 -344 -55 311 351 0
-319 -344 55 -311 351 0
-319 -344 55 311 -351 0
-319 -344 -56 -312 -352 0
-319 -344 -56 312 352 0
-319 -344 56 -312 352 0
-319 -344 56 312 -352 0
-320 -337 -57 -81 -345 0
-320 -337 -57 81 345 0
-320 -337 57 -81 345 0
-320 -337 57 81 -345 0
-320 -337 -58 -82 -346 0
-320 -337 -58 82 346 0
-320 -337 58 -82 346 0
-320 -337 58 82 -346 0
-320 -337 -59 -83 -347 0
-320 -337 -59 83 347 0
-320 -337 59 -83 347 0
-320 -337 59 83 -347 0
-320 -337 -60 -84 -348 0
-320 -337 -60 84 348 0
-320 -337 60 -84 348 0
-320 -337 60 84 -348 0
-320 -337 -61 -85 -349 0
-320 -337 -61 85 349 0
-320 -337 61 -85 349 0
-320 -337 61 85 -349 0
-320 -337 -62 -86 -350 0
-320 -337 -62 86 350 0
-320 -337 62 -86 350 0
-320 -337 62 86 -350 0
-320 -337 -63 -87 -351 0
-320 -337 -63 87 351 0
-320 -337 63 -87 351 0
-320 -337 63 87 -351 0
-320 -337 -64 -88 -352 0
-320 -337 -64 88 352 0
-320 -337 64 -88 352 0
-320 -337 64 88 -352 0
-320 -338 -57 -107 -345 0
-320 -338 -57 107 345 0
-320 -338 57 -107 345 0
-320 -338 57 107 -345 0
-320 -338 -58 -108 -346 0
-320 -338 -58 108 346 0
-320 -338 58 -108 346 0
-320 -338 58 108 -346 0
-320 -338 -59 -109 -347 0
-320 -338 -59 109 347 0
-320 -338 59 -109 347 0
-320 -338 59 109 -347 0
-320 -338 -60 -110 -348 0
-320 -338 -60 110 348 0
-320 -338 60 -110 348 0
-320 -338 60 110 -348 0
-320 -338 -61 -111 -349 0
-320 -338 -61 111 349 0
-320 -338 61 -111 349 0
-320 -338 61 111 -349 0
-320 -338 -62 -112 -350 0
-320 -338 -62 112 350 0
-320 -338 62 -112 350 0
-320 -338 62 112 -350 0
-320 -338 -63 -113 -351 0
-320 -338 -63 113 351 0
-320 -338 63 -113 351 0
-320 -338 63 113 -351 0
-320 -338 -64 -114 -352 0
-320 -338 -64 114 352 0
-320 -338 64 -114 352 0
-320 -338 64 114 -352 0
-320 -339 -57 -135 -345 0
-320 -339 -57 135 345 0
-320 -339 57 -135 345 0
-320 -339 57 135 -345 0
-320 -339 -58 -136 -346 0
-320 -339 -58 136 346 0
-320 -339 58 -136 346 0
-320 -339 58 136 -346 0
-320 -339 -59 -137 -347 0
-320 -339 -59 137 347 0
-320 -339 59 -137 347 0
-320 -339 59 137 -347 0
-320 -339 -60 -138 -348 0
-320 -339 -60 138 348 0
-320 -339 60 -138 348 0
-320 -339 60 138 -348 0
-320 -339 -61 -139 -349 0
-320 -339 -61 139 349 0
-320 -339 61 -139 349 0
-320 -339 61 139 -349 0
-320 -339 -62 -140 -350 0
-320 -339 -62 140 350 0
-320 -339 62 -140 350 0
-320 -339 62 140 -350 0
-320 -339 -63 -141 -351 0
-320 -339 -63 141 351 0
-320 -339 63 -141 351 0
-320 -339 63 141 -351 0
-320 -339 -64 -142 -352 0
-320 -339 -64 142 352 0
-320 -339 64 -142 352 0
-320 -339 64 142 -352 0
-320 -340 -57 -165 -345 0
-320 -340 -57 165 345 0
-320 -340 57 -165 345 0
-320 -340 57 165 -345 0
-320 -340 -58 -166 -346 0
-320 -340 -58 166 346 0
-320 -340 58 -166 346 0
-320 -340 58 166 -346 0
-320 -340 -59 -167 -347 0
-320 -340 -59 167 347 0
-320 -340 59 -167 347 0
-320 -340 59 167 -347 0
-320 -340 -60 -168 -348 0
-320 -340 -60 168 348 0
-320 -340 60 -168 348 0
-320 -340 60 168 -348 0
-320 -340 -61 -169 -349 0
-320 -340 -61 169 349 0
-320 -340 61 -169 349 0
-320 -340 61 169 -349 0
-320 -340 -62 -170 -350 0
-320 -340 -62 170 350 0
-320 -340 62 -170 350 0
-320 -340 62 170 -350 0
-320 -340 -63 -171 -351 0
-320 -340 -63 171 351 0
-320 -340 63 -171 351 0
-320 -340 63 171 -351 0
-320 -340 -64 -172 -352 0
-320 -340 -64 172 352 0
-320 -340 64 -172 352 0
-320 -340 64 172 -352 0
-320 -341 -57 -197 -345 0
-320 -341 -57 197 345 0
-320 -341 57 -197 345 0
-320 -341 57 197 -345 0
-320 -341 -58 -198 -346 0
-320 -341 -58 198 346 0
-320 -341 58 -198 346 0
-320 -341 58 198 -346 0
-320 -341 -59 -199 -347 0
-320 -341 -59 199 347 0
-320 -341 59 -199 347 0
-320 -341 59 199 -347 0
-320 -341 -60 -200 -348 0
-320 -341 -60 200 348 0
-320 -341 60 -200 348 0
-320 -341 60 200 -348 0
-320 -341 -61 -201 -349 0
-320 -341 -61 201 349 0
-320 -341 61 -201 349 0
-320 -341 61 201 -349 0
-320 -341 -62 -202 -350 0
-320 -341 -62 202 350 0
-320 -341 62 -202 350 0
-320 -341 62 202 -350 0
-320 -341 -63 -203 -351 0
-320 -341 -63 203 351 0
-320 -341 63 -203 351 0
-320 -341 63 203 -351 0
-320 -341 -64 -204 -352 0
-320 -341 -64 204 352 0
-320 -341 64 -204 352 0
-320 -341 64 204 -352 0
-320 -342 -57 -231 -345 0
-320 -342 -57 231 345 0
-320 -342 57 -231 345 0
-320 -342 57 231 -345 0
-320 -342 -58 -232 -346 0
-320 -342 -58 232 346 0
-320 -342 58 -232 346 0
-320 -342 58 232 -346 0
-320 -342 -59 -233 -347 0
-320 -342 -59 233 347 0
-320 -342 59 -233 347 0
-320 -342 59 233 -347 0
-320 -342 -60 -234 -348 0
-320 -342 -60 234 348 0
-320 -342 60 -234 348 0
-320 -342 60 234 -348 0
-320 -342 -61 -235 -349 0
-320 -342 -61 235 349 0
-320 -342 61 -235 349 0
-320 -342 61 235 -349 0
-320 -342 -62 -236 -350 0
-320 -342 -62 236 350 0
-320 -342 62 -236 350 0
-320 -342 62 236 -350 0
-320 -342 -63 -237 -351 0
-320 -342 -63 237 351 0
-320 -342 63 -237 351 0
-320 -342 63 237 -351 0
-320 -342 -64 -238 -352 0
-320 -342 -64 238 352 0
-320 -342 64 -238 352 0
-320 -342 64 238 -352 0
-320 -343 -57 -267 -345 0
-320 -343 -57 267 345 0
-320 -343 57 -267 345 0
-320 -343 57 267 -345 0
-320 -343 -58 -268 -346 0
-320 -343 -58 268 346 0
-320 -343 58 -268 346 0
-320 -343 58 268 -346 0
-320 -343 -59 -269 -347 0
-320 -343 -59 269 347 0
-320 -343 59 -269 347 0
-320 -343 59 269 -347 0
-320 -343 -60 -270 -348 0
-320 -343 -60 270 348 0
-320 -343 60 -270 348 0
-320 -343 60 270 -348 0
-320 -343 -61 -271 -349 0
-320 -343 -61 271 349 0
-320 -343 61 -271 349 0
-320 -343 61 271 -349 0
-320 -343 -62 -272 -350 0
-320 -343 -62 272 350 0
-320 -343 62 -272 350 0
-320 -343 62 272 -350 0
-320 -343 -63 -273 -351 0
-320 -343 -63 273 351 0
-320 -343 63 -273 351 0
-320 -343 63 273 -351 0
-320 -343 -64 -274 -352 0
-320 -343 -64 274 352 0
-320 -343 64 -274 352 0
-320 -343 64 274 -352 0
-320 -344 -57 -305 -345 0
-320 -344 -57 305 345 0
-320 -344 57 -305 345 0
-320 -344 57 305 -345 0
-320 -344 -58 -306 -346 0
-320 -344 -58 306 346 0
-320 -344 58 -306 346 0
-320 -344 58 306 -346 0
-320 -344 -59 -307 -347 0
-320 -344 -59 307 347 0
-320 -344 59 -307 347 0
-320 -344 59 307 -347 0
-320 -344 -60 -308 -348 0
-320 -344 -60 308 348 0
-320 -344 60 -308 348 0
-320 -344 60 308 -348 0
-320 -344 -61 -309 -349 0
-320 -344 -61 309 349 0
-320 -344 61 -309 349 0
-320 -344 61 309 -349 0
-320 -344 -62 -310 -350 0
-320 -344 -62 310 350 0
-320 -344 62 -310 350 0
-320 -344 62 310 -350 0
-320 -344 -63 -311 -351 0
-320 -344 -63 311 351 0
-320 -344 63 -311 351 0
-320 -344 63 311 -351 0
-320 -344 -64 -312 -352 0
-320 -344 -64 312 352 0
-320 -344 64 -312 352 0
-320 -344 64 312 -352 0
-321 -338 -81 -107 -345 0
-321 -338 -81 107 345 0
-321 -338 81 -107 345 0
-321 -338 81 107 -345 0
-321 -338 -82 -108 -346 0
-321 -338 -82 108 346 0
-321 -338 82 -108 346 0
-321 -338 82 108 -346 0
-321 -338 -83 -109 -347 0
-321 -338 -83 109 347 0
-321 -338 83 -109 347 0
-321 -338 83 109 -347 0
-321 -338 -84 -110 -348 0
-321 -338 -84 110 348 0
-321 -338 84 -110 348 0
-321 -338 84 110 -348 0
-321 -338 -85 -111 -349 0
-321 -338 -85 111 349 0
-321 -338 85 -111 349 0
-321 -338 85 111 -349 0
-321 -338 -86 -112 -350 0
-321 -338 -86 112 350 0
-321 -338 86 -112 350 0
-321 -338 86 112 -350 0
-321 -338 -87 -113 -351 0
-321 -338 -87 113 351 0
-321 -338 87 -113 351 0
-321 -338 87 113 -351 0
-321 -338 -88 -114 -352 0
-321 -338 -88 114 352 0
-321 -338 88 -114 352 0
-321 -338 88 114 -352 0
-321 -339 -81 -135 -345 0
-321 -339 -81 135 345 0
-321 -339 81 -135 345 0
-321 -339 81 135 -345 0
-321 -339 -82 -136 -346 0
-321 -339 -82 136 346 0
-321 -339 82 -136 346 0
-321 -339 82 136 -346 0
-321 -339 -83 -137 -347 0
-321 -339 -83 137 347 0
-321 -339 83 -137 347 0
-321 -339 83 137 -347 0
-321 -339 -84 -138 -348 0
-321 -339 -84 138 348 0
-321 -339 84 -138 348 0
-321 -339 84 138 -348 0
-321 -339 -85 -139 -349 0
-321 -339 -85 139 349 0
-321 -339 85 -139 349 0
-321 -339 85 139 -349 0
-321 -339 -86 -140 -350 0
-321 -339 -86 140 350 0
-321 -339 86 -140 350 0
-321 -339 86 140 -350 0
-321 -339 -87 -141 -351 0
-321 -339 -87 141 351 0
-321 -339 87 -141 351 0
-321 -339 87 141 -351 0
-321 -339 -88 -142 -352 0
-321 -339 -88 142 352 0
-321 -339 88 -142 352 0
-321 -339 88 142 -352 0
-321 -340 -81 -165 -345 0
-321 -340 -81 165 345 0
-321 -340 81 -165 345 0
-321 -340 81 165 -345 0
-321 -340 -82 -166 -346 0
-321 -340 -82 166 346 0
-321 -340 82 -166 346 0
-321 -340 82 166 -346 0
-321 -340 -83 -167 -347 0
-321 -340 -83 167 347 0
-321 -340 83 -167 347 0
-321 -340 83 167 -347 0
-321 -340 -84 -168 -348 0
-321 -340 -84 168 348 0
-321 -340 84 -168 348 0
-321 -340 84 168 -348 0
-321 -340 -85 -169 -349 0
-321 -340 -85 169 349 0
-321 -340 85 -169 349 0
-321 -340 85 169 -349 0
-321 -340 -86 -170 -350 0
-321 -340 -86 170 350 0
-321 -340 86 -170 350 0
-321 -340 86 170 -350 0
-321 -340 -87 -171 -351 0
-321 -340 -87 171 351 0
-321 -340 87 -171 351 0
-321 -340 87 171 -351 0
-321 -340 -88 -172 -352 0
-321 -340 -88 172 352 0
-321 -340 88 -172 352 0
-321 -340 88 172 -352 0
-321 -341 -81 -197 -345 0
-321 -341 -81 197 345 0
-321 -341 81 -197 345 0
-321 -341 81 197 -345 0
-321 -341 -82 -198 -346 0
-321 -341 -82 198 346 0
-321 -341 82 -198 346 0
-321 -341 82 198 -346 0
-321 -341 -83 -199 -347 0
-321 -341 -83 199 347 0
-321 -341 83 -199 347 0
-321 -341 83 199 -347 0
-321 -341 -84 -200 -348 0
-321 -341 -84 200 348 0
-321 -341 84 -200 348 0
-321 -341 84 200 -348 0
-321 -341 -85 -201 -349 0
-321 -341 -85 201 349 0
-321 -341 85 -201 349 0
-321 -341 85 201 -349 0
-321 -341 -86 -202 -350 0
-321 -341 -86 202 350 0
-321 -341 86 -202 350 0
-321 -341 86 202 -350 0
-321 -341 -87 -203 -351 0
-321 -341 -87 203 351 0
-321 -341 87 -203 351 0
-321 -341 87 203 -351 0
-321 -341 -88 -204 -352 0
-321 -341 -88 204 352 0
-321 -341 88 -204 352 0
-321 -341 88 204 -352 0
-321 -342 -81 -231 -345 0
-321 -342 -81 231 345 0
-321 -342 81 -231 345 0
-321 -342 81 231 -345 0
-321 -342 -82 -232 -346 0
-321 -342 -82 232 346 0
-321 -342 82 -232 346 0
-321 -342 82 232 -346 0
-321 -342 -83 -233 -347 0
-321 -342 -83 233 347 0
-321 -342 83 -233 347 0
-321 -342 83 233 -347 0
-321 -342 -84 -234 -348 0
-321 -342 -84 234 348 0
-321 -342 84 -234 348 0
-321 -342 84 234 -348 0
-321 -342 -85 -235 -349 0
-321 -342 -85 235 349 0
-321 -342 85 -235 349 0
-321 -342 85 235 -349 0
-321 -342 -86 -236 -350 0
-321 -342 -86 236 350 0
-321 -342 86 -236 350 0
-321 -342 86 236 -350 0
-321 -342 -87 -237 -351 0
-321 -342 -87 237 351 0
-321 -342 87 -237 351 0
-321 -342 87 237 -351 0
-321 -342 -88 -238 -352 0
-321 -342 -88 238 352 0
-321 -342 88 -238 352 0
-321 -342 88 238 -352 0
-321 -343 -81 -267 -345 0
-321 -343 -81 267 345 0
-321 -343 81 -267 345 0
-321 -343 81 267 -345 0
-321 -343 -82 -268 -346 0
-321 -343 -82 268 346 0
-321 -343 82 -268 346 0
-321 -343 82 268 -346 0
-321 -343 -83 -269 -347 0
-321 -343 -83 269 347 0
-321 -343 83 -269 347 0
-321 -343 83 269 -347 0
-321 -343 -84 -270 -348 0
-321 -343 -84 270 348 0
-321 -343 84 -270 348 0
-321 -343 84 270 -348 0
-321 -343 -85 -271 -349 0
-321 -343 -85 271 349 0
-321 -343 85 -271 349 0
-321 -343 85 271 -349 0
-321 -343 -86 -272 -350 0
-321 -343 -86 272 350 0
-321 -343 86 -272 350 0
-321 -343 86 272 -350 0
-321 -343 -87 -273 -351 0
-321 -343 -87 273 351 0
-321 -343 87 -273 351 0
-321 -343 87 273 -351 0
-321 -343 -88 -274 -352 0
-321 -343 -88 274 352 0
-321 -343 88 -274 352 0
-321 -343 88 274 -352 0
-321 -344 -81 -305 -345 0
-321 -344 -81 305 345 0
-321 -344 81 -305 345 0
-321 -344 81 305 -345 0
-321 -344 -82 -306 -346 0
-321 -344 -82 306 346 0
-321 -344 82 -306 346 0
-321 -344 82 306 -346 0
-321 -344 -83 -307 -347 0
-321 -344 -83 307 347 0
-321 -344 83 -307 347 0
-321 -344 83 307 -347 0
-321 -344 -84 -308 -348 0
-321 -344 -84 308 348 0
-321 -344 84 -308 348 0
-321 -344 84 308 -348 0
-321 -344 -85 -309 -349 0
-321 -344 -85 309 349 0
-321 -344 85 -309 349 0
-321 -344 85 309 -349 0
-321 -344 -86 -310 -350 0
-321 -344 -86 310 350 0
-321 -344 86 -310 350 0
-321 -344 86 310 -350 0
-321 -344 -87 -311 -351 0
-321 -344 -87 311 351 0
-321 -344 87 -311 351 0
-321 -344 87 311 -351 0
-321 -344 -88 -312 -352 0
-321 -344 -88 312 352 0
-321 -344 88 -312 352 0
-321 -344 88 312 -352 0
-322 -339 -107 -135 -345 0
-322 -339 -107 135 345 0
-322 -339 107 -135 345 0
-322 -339 107 135 -345 0
-322 -339 -108 -136 -346 0
-322 -339 -108 136 346 0
-322 -339 108 -136 346 0
-322 -339 108 136 -346 0
-322 -339 -109 -137 -347 0
-322 -339 -109 137 347 0
-322 -339 109 -137 347 0
-322 -339 109 137 -347 0
-322 -339 -110 -138 -348 0
-322 -339 -110 138 348 0
-322 -339 110 -138 348 0
-322 -339 110 138 -348 0
-322 -339 -111 -139 -349 0
-322 -339 -111 139 349 0
-322 -339 111 -139 349 0
-322 -339 111 139 -349 0
-322 -339 -112 -140 -350 0
-322 -339 -112 140 350 0
-322 -339 112 -140 350 0
-322 -339 112 140 -350 0
-322 -339 -113 -141 -351 0
-322 -339 -113 141 351 0
-322 -339 113 -141 351 0
-322 -339 113 141 -351 0
-322 -339 -114 -142 -352 0
-322 -339 -114 142 352 0
-322 -339 114 -142 352 0
-322 -339 114 142 -352 0
-322 -340 -107 -165 -345 0
-322 -340 -107 165 345 0
-322 -340 107 -165 345 0
-322 -340 107 165 -345 0
-322 -340 -108 -166 -346 0
-322 -340 -108 166 346 0
-322 -340 108 -166 346 0
-322 -340 108 166 -346 0
-322 -340 -109 -167 -347 0
-322 -340 -109 167 347 0
-322 -340 109 -167 347 0
-322 -340 109 167 -347 0
-322 -340 -110 -168 -348 0
-322 -340 -110 168 348 0
-322 -340 110 -168 348 0
-322 -340 110 168 -348 0
-322 -340 -111 -169 -349 0
-322 -340 -111 169 349 0
-322 -340 111 -169 349 0
-322 -340 111 169 -349 0
-322 -340 -112 -170 -350 0
-322 -340 -112 170 350 0
-322 -340 112 -170 350 0
-322 -340 112 170 -350 0
-322 -340 -113 -171 -351 0
-322 -340 -113 171 351 0
-322 -340 113 -171 351 0
-322 -340 113 171 -351 0
-322 -340 -114 -172 -352 0
-322 -340 -114 172 352 0
-322 -340 114 -172 352 0
-322 -340 114 172 -352 0
-322 -341 -107 -197 -345 0
-322 -341 -107 197 345 0
-322 -341 107 -197 345 0
-322 -341 107 197 -345 0
-322 -341 -108 -198 -346 0
-322 -341 -108 198 346 0
-322 -341 108 -198 346 0
-322 -341 108 198 -346 0
-322 -341 -109 -199 -347 0
-322 -341 -109 199 347 0
-322 -341 109 -199 347 0
-322 -341 109 199 -347 0
-322 -341 -110 -200 -348 0
-322 -341 -110 200 348 0
-322 -341 110 -200 348 0
-322 -341 110 200 -348 0
-322 -341 -111 -201 -349 0
-322 -341 -111 201 349 0
-322 -341 111 -201 349 0
-322 -341 111 201 -349 0
-322 -341 -112 -202 -350 0
-322 -341 -112 202 350 0
-322 -341 112 -202 350 0
-322 -341 112 202 -350 0
-322 -341 -113 -203 -351 0
-322 -341 -113 203 351 0
-322 -341 113 -203 351 0
-322 -341 113 203 -351 0
-322 -341 -114 -204 -352 0
-322 -341 -114 204 352 0
-322 -341 114 -204 352 0
-322 -341 114 204 -352 0
-322 -342 -107 -231 -345 0
-322 -342 -107 231 345 0
-322 -342 107 -231 345 0
-322 -342 107 231 -345 0
-322 -342 -108 -232 -346 0
-322 -342 -108 232 346 0
-322 -342 108 -232 346 0
-322 -342 108 232 -346 0
-322 -342 -109 -233 -347 0
-322 -342 -109 233 347 0
-322 -342 109 -233 347 0
-322 -342 109 233 -347 0
-322 -342 -110 -234 -348 0
-322 -342 -110 234 348 0
-322 -342 110 -234 348 0
-322 -342 110 234 -348 0
-322 -342 -111 -235 -349 0
-322 -342 -111 235 349 0
-322 -342 111 -235 349 0
-322 -342 111 235 -349 0
-322 -342 -112 -236 -350 0
-322 -342 -112 236 350 0
-322 -342 112 -236 350 0
-322 -342 112 236 -350 0
-322 -342 -113 -237 -351 0
-322 -342 -113 237 351 0
-322 -342 113 -237 351 0
-322 -342 113 237 -351 0
-322 -342 -114 -238 -352 0
-322 -342 -114 238 352 0
-322 -342 114 -238 352 0
-322 -342 114 238 -352 0
-322 -343 -107 -267 -345 0
-322 -343 -107 267 345 0
-322 -343 107 -267 345 0
-322 -343 107 267 -345 0
-322 -343 -108 -268 -346 0
-322 -343 -108 268 346 0
-322 -343 108 -268 346 0
-322 -343 108 268 -346 0
-322 -343 -109 -269 -347 0
-322 -343 -109 269 347 0
-322 -343 109 -269 347 0
-322 -343 109 269 -347 0
-322 -343 -110 -270 -348 0
-322 -343 -110 270 348 0
-322 -343 110 -270 348 0
-322 -343 110 270 -348 0
-322 -343 -111 -271 -349 0
-322 -343 -111 271 349 0
-322 -343 111 -271 349 0
-322 -343 111 271 -349 0
-322 -343 -112 -272 -350 0
-322 -343 -112 272 350 0
-322 -343 112 -272 350 0
-322 -343 112 272 -350 0
-322 -343 -113 -273 -351 0
-322 -343 -113 273 351 0
-322 -343 113 -273 351 0
-322 -343 113 273 -351 0
-322 -343 -114 -274 -352 0
-322 -343 -114 274 352 0
-322 -343 114 -274 352 0
-322 -343 114 274 -352 0
-322 -344 -107 -305 -345 0
-322 -344 -107 305 345 0
-322 -344 107 -305 345 0
-322 -344 107 305 -345 0
-322 -344 -108 -306 -346 0
-322 -344 -108 306 346 0
-322 -344 108 -306 346 0
-322 -344 108 306 -346 0
-322 -344 -109 -307 -347 0
-322 -344 -109 307 347 0
-322 -344 109 -307 347 0
-322 -344 109 307 -347 0
-322 -344 -110 -308 -348 0
-322 -344 -110 308 348 0
-322 -344 110 -308 348 0
-322 -344 110 308 -348 0
-322 -344 -111 -309 -349 0
-322 -344 -111 309 349 0
-322 -344 111 -309 349 0
-322 -344 111 309 -349 0
-322 -344 -112 -310 -350 0
-322 -344 -112 310 350 0
-322 -344 112 -310 350 0
-322 -344 112 310 -350 0
-322 -344 -113 -311 -351 0
-322 -344 -113 311 351 0
-322 -344 113 -311 351 0
-322 -344 113 311 -351 0
-322 -344 -114 -312 -352 0
-322 -344 -114 312 352 0
-322 -344 114 -312 352 0
-322 -344 114 312 -352 0
-323 -340 -135 -165 -345 0
-323 -340 -135 165 345 0
-323 -340 135 -165 345 0
-323 -340 135 165 -345 0
-323 -340 -136 -166 -346 0
-323 -340 -136 166 346 0
-323 -340 136 -166 346 0
-323 -340 136 166 -346 0
-323 -340 -137 -167 -347 0
-323 -340 -137 167 347 0
-323 -340 137 -167 347 0
-323 -340 137 167 -347 0
-323 -340 -138 -168 -348 0
-323 -340 -138 168 348 0
-323 -340 138 -168 348 0
-323 -340 138 168 -348 0
-323 -340 -139 -169 -349 0
-323 -340 -139 169 349 0
-323 -340 139 -169 349 0
-323 -340 139 169 -349 0
-323 -340 -140 -170 -350 0
-323 -340 -140 170 350 0
-323 -340 140 -170 350 0
-323 -340 140 170 -350 0
-323 -340 -141 -171 -351 0
-323 -340 -141 171 351 0
-323 -340 141 -171 351 0
-323 -340 141 171 -351 0
-323 -340 -142 -172 -352 0
-323 -340 -142 172 352 0
-323 -340 142 -172 352 0
-323 -340 142 172 -352 0
-323 -341 -135 -197 -345 0
-323 -341 -135 197 345 0
-323 -341 135 -197 345 0
-323 -341 135 197 -345 0
-323 -341 -136 -198 -346 0
-323 -341 -136 198 346 0
-323 -341 136 -198 346 0
-323 -341 136 198 -346 0
-323 -341 -137 -199 -347 0
-323 -341 -137 199 347 0
-323 -341 137 -199 347 0
-323 -341 137 199 -347 0
-323 -341 -138 -200 -348 0
-323 -341 -138 200 348 0
-323 -341 138 -200 348 0
-323 -341 138 200 -348 0
-323 -341 -139 -201 -349 0
-323 -341 -139 201 349 0
-323 -341 139 -201 349 0
-323 -341 139 201 -349 0
-323 -341 -140 -202 -350 0
-323 -341 -140 202 350 0
-323 -341 140 -202 350 0
-323 -341 140 202 -350 0
-323 -341 -141 -203 -351 0
-323 -341 -141 203 351 0
-323 -341 141 -203 351 0
-323 -341 141 203 -351 0
-323 -341 -142 -204 -352 0
-323 -341 -142 204 352 0
-323 -341 142 -204 352 0
-323 -341 142 204 -352 0
-323 -342 -135 -231 -345 0
-323 -342 -135 231 345 0
-323 -342 135 -231 345 0
-323 -342 135 231 -345 0
-323 -342 -136 -232 -346 0
-323 -342 -136 232 346 0
-323 -342 136 -232 346 0
-323 -342 136 232 -346 0
-323 -342 -137 -233 -347 0
-323 -342 -137 233 347 0
-323 -342 137 -233 347 0
-323 -342 137 233 -347 0
-323 -342 -138 -234 -348 0
-323 -342 -138 234 348 0
-323 -342 138 -234 348 0
-323 -342 138 234 -348 0
-323 -342 -139 -235 -349 0
-323 -342 -139 235 349 0
-323 -342 139 -235 349 0
-323 -342 139 235 -349 0
-323 -342 -140 -236 -350 0
-323 -342 -140 236 350 0
-323 -342 140 -236 350 0
-323 -342 140 236 -350 0
-323 -342 -141 -237 -351 0
-323 -342 -141 237 351 0
-323 -342 141 -237 351 0
-323 -342 141 237 -351 0
-323 -342 -142 -238 -352 0
-323 -342 -142 238 352 0
-323 -342 142 -238 352 0
-323 -342 142 238 -352 0
-323 -343 -135 -267 -345 0
-323 -343 -135 267 345 0
-323 -343 135 -267 345 0
-323 -343 135 267 -345 0
-323 -343 -136 -268 -346 0
-323 -343 -136 268 346 0
-323 -343 136 -268 346 0
-323 -343 136 268 -346 0
-323 -343 -137 -269 -347 0
-323 -343 -137 269 347 0
-323 -343 137 -269 347 0
-323 -343 137 269 -347 0
-323 -343 -138 -270 -348 0
-323 -343 -138 270 348 0
-323 -343 138 -270 348 0
-323 -343 138 270 -348 0
-323 -343 -139 -271 -349 0
-323 -343 -139 271 349 0
-323 -343 139 -271 349 0
-323 -343 139 271 -349 0
-323 -343 -140 -272 -350 0
-323 -343 -140 272 350 0
-323 -343 140 -272 350 0
-323 -343 140 272 -350 0
-323 -343 -141 -273 -351 0
-323 -343 -141 273 351 0
-323 -343 141 -273 351 0
-323 -343 141 273 -351 0
-323 -343 -142 -274 -352 0
-323 -343 -142 274 352 0
-323 -343 142 -274 352 0
-323 -343 142 274 -352 0
-323 -344 -135 -305 -345 0
-323 -344 -135 305 345 0
-323 -344 135 -305 345 0
-323 -344 135 305 -345 0
-323 -344 -136 -306 -346 0
-323 -344 -136 306 346 0
-323 -344 136 -306 346 0
-323 -344 136 306 -346 0
-323 -344 -137 -307 -347 0
-323 -344 -137 307 347 0
-323 -344 137 -307 347 0
-323 -344 137 307 -347 0
-323 -344 -138 -308 -348 0
-323 -344 -138 308 348 0
-323 -344 138 -308 348 0
-323 -344 138 308 -348 0
-323 -344 -139 -309 -349 0
-323 -344 -139 309 349 0
-323 -344 139 -309 349 0
-323 -344 139 309 -349 0
-323 -344 -140 -310 -350 0
-323 -344 -140 310 350 0
-323 -344 140 -310 350 0
-323 -344 140 310 -350 0
-323 -344 -141 -311 -351 0
-323 -344 -141 311 351 0
-323 -344 141 -311 351 0
-323 -344 141 311 -351 0
-323 -344 -142 -312 -352 0
-323 -344 -142 312 352 0
-323 -344 142 -312 352 0
-323 -344 142 312 -352 0
-324 -341 -165 -197 -345 0
-324 -341 -165 197 345 0
-324 -341 165 -197 345 0
-324 -341 165 197 -345 0
-324 -341 -166 -198 -346 0
-324 -341 -166 198 346 0
-324 -341 166 -198 346 0
-324 -341 166 198 -346 0
-324 -341 -167 -199 -347 0
-324 -341 -167 199 347 0
-324 -341 167 -199 347 0
-324 -341 167 199 -347 0
-324 -341 -168 -200 -348 0
-324 -341 -168 200 348 0
-324 -341 168 -200 348 0
-324 -341 168 200 -348 0
-324 -341 -169 -201 -349 0
-324 -341 -169 201 349 0
-324 -341 169 -201 349 0
-324 -341 169 201 -349 0
-324 -341 -170 -202 -350 0
-324 -341 -170 202 350 0
-324 -341 170 -202 350 0
-324 -341 170 202 -350 0
-324 -341 -171 -203 -351 0
-324 -341 -171 203 351 0
-324 -341 171 -203 351 0
-324 -341 171 203 -351 0
-324 -341 -172 -204 -352 0
-324 -341 -172 204 352 0
-324 -341 172 -204 352 0
-324 -341 172 204 -352 0
-324 -342 -165 -231 -345 0
-324 -342 -165 231 345 0
-324 -342 165 -231 345 0
-324 -342 165 231 -345 0
-324 -342 -166 -232 -346 0
-324 -342 -166 232 346 0
-324 -342 166 -232 346 0
-324 -342 166 232 -346 0
-324 -342 -167 -233 -347 0
-324 -342 -167 233 347 0
-324 -342 167 -233 347 0
-324 -342 167 233 -347 0
-324 -342 -168 -234 -348 0
-324 -342 -168 234 348 0
-324 -342 168 -234 348 0
-324 -342 168 234 -348 0
-324 -342 -169 -235 -349 0
-324 -342 -169 235 349 0
-324 -342 169 -235 349 0
-324 -342 169 235 -349 0
-324 -342 -170 -236 -350 0
-324 -342 -170 236 350 0
-324 -342 170 -236 350 0
-324 -342 170 236 -350 0
-324 -342 -171 -237 -351 0
-324 -342 -171 237 351 0
-324 -342 171 -237 351 0
-324 -342 171 237 -351 0
-324 -342 -172 -238 -352 0
-324 -342 -172 238 352 0
-324 -342 172 -238 352 0
-324 -342 172 238 -352 0
-324 -343 -165 -267 -345 0
-324 -343 -165 267 345 0
-324 -343 165 -267 345 0
-324 -343 165 267 -345 0
-324 -343 -166 -268 -346 0
-324 -343 -166 268 346 0
-324 -343 166 -268 346 0
-324 -343 166 268 -346 0
-324 -343 -167 -269 -347 0
-324 -343 -167 269 347 0
-324 -343 167 -269 347 0
-324 -343 167 269 -347 0
-324 -343 -168 -270 -348 0
-324 -343 -168 270 348 0
-324 -343 168 -270 348 0
-324 -343 168 270 -348 0
-324 -343 -169 -271 -349 0
-324 -343 -169 271 349 0
-324 -343 169 -271 349 0
-324 -343 169 271 -349 0
-324 -343 -170 -272 -350 0
-324 -343 -170 272 350 0
-324 -343 170 -272 350 0
-324 -343 170 272 -350 0
-324 -343 -171 -273 -351 0
-324 -343 -171 273 351 0
-324 -343 171 -273 351 0
-324 -343 171 273 -351 0
-324 -343 -172 -274 -352 0
-324 -343 -172 274 352 0
-324 -343 172 -274 352 0
-324 -343 172 274 -352 0
-324 -344 -165 -305 -345 0
-324 -344 -165 305 345 0
-324 -344 165 -305 345 0
-324 -344 165 305 -345 0
-324 -344 -166 -306 -346 0
-324 -344 -166 306 346 0
-324 -344 166 -306 346 0
-324 -344 166 306 -346 0
-324 -344 -167 -307 -347 0
-324 -344 -167 307 347 0
-324 -344 167 -307 347 0
-324 -344 167 307 -347 0
-324 -344 -168 -308 -348 0
-324 -344 -168 308 348 0
-324 -344 168 -308 348 0
-324 -344 168 308 -348 0
-324 -344 -169 -309 -349 0
-324 -344 -169 309 349 0
-324 -344 169 -309 349 0
-324 -344 169 309 -349 0
-324 -344 -170 -310 -350 0
-324 -344 -170 310 350 0
-324 -344 170 -310 350 0
-324 -344 170 310 -350 0
-324 -344 -171 -311 -351 0
-324 -344 -171 311 351 0
-324 -344 171 -311 351 0
-324 -344 171 311 -351 0
-324 -344 -172 -312 -352 0
-324 -344 -172 312 352 0
-324 -344 172 -312 352 0
-324 -344 172 312 -352 0
-325 -342 -197 -231 -345 0
-325 -342 -197 231 345 0
-325 -342 197 -231 345 0
-325 -342 197 231 -345 0
-325 -342 -198 -232 -346 0
-325 -342 -198 232 346 0
-325 -342 198 -232 346 0
-325 -342 198 232 -346 0
-325 -342 -199 -233 -347 0
-325 -342 -199 233 347 0
-325 -342 199 -233 347 0
-325 -342 199 233 -347 0
-325 -342 -200 -234 -348 0
-325 -342 -200 234 348 0
-325 -342 200 -234 348 0
-325 -342 200 234 -348 0
-325 -342 -201 -235 -349 0
-325 -342 -201 235 349 0
-325 -342 201 -235 349 0
-325 -342 201 235 -349 0
-325 -342 -202 -236 -350 0
-325 -342 -202 236 350 0
-325 -342 202 -236 350 0
-325 -342 202 236 -350 0
-325 -342 -203 -237 -351 0
-325 -342 -203 237 351 0
-325 -342 203 -237 351 0
-325 -342 203 237 -351 0
-325 -342 -204 -238 -352 0
-325 -342 -204 238 352 0
-325 -342 204 -238 352 0
-325 -342 204 238 -352 0
-325 -343 -197 -267 -345 0
-325 -343 -197 267 345 0
-325 -343 197 -267 345 0
-325 -343 197 267 -345 0
-325 -343 -198 -268 -346 0
-325 -343 -198 268 346 0
-325 -343 198 -268 346 0
-325 -343 198 268 -346 0
-325 -343 -199 -269 -347 0
-325 -343 -199 269 347 0
-325 -343 199 -269 347 0
-325 -343 199 269 -347 0
-325 -343 -200 -270 -348 0
-325 -343 -200 270 348 0
-325 -343 200 -270 348 0
-325 -343 200 270 -348 0
-325 -343 -201 -271 -349 0
-325 -343 -201 271 349 0
-325 -343 201 -271 349 0
-325 -343 201 271 -349 0
-325 -343 -202 -272 -350 0
-325 -343 -202 272 350 0
-325 -343 202 -272 350 0
-325 -343 202 272 -350 0
-325 -343 -203 -273 -351 0
-325 -343 -203 273 351 0
-325 -343 203 -273 351 0
-325 -343 203 273 -351 0
-325 -343 -204 -274 -352 0
-325 -343 -204 274 352 0
-325 -343 204 -274 352 0
-325 -343 204 274 -352 0
-325 -344 -197 -305 -345 0
-325 -344 -197 305 345 0
-325 -344 197 -305 345 0
-325 -344 197 305 -345 0
-325 -344 -198 -306 -346 0
-325 -344 -198 306 346 0
-325 -344 198 -306 346 0
-325 -344 198 306 -346 0
-325 -344 -199 -307 -347 0
-325 -344 -199 307 347 0
-325 -344 199 -307 347 0
-325 -344 199 307 -347 0
-325 -344 -200 -308 -348 0
-325 -344 -200 308 348 0
-325 -344 200 -308 348 0
-325 -344 200 308 -348 0
-325 -344 -201 -309 -349 0
-325 -344 -201 309 349 0
-325 -344 201 -309 349 0
-325 -344 201 309 -349 0
-325 -344 -202 -310 -350 0
-325 -344 -202 310 350 0
-325 -344 202 -310 350 0
-325 -344 202 310 -350 0
-325 -344 -203 -311 -351 0
-325 -344 -203 311 351 0
-325 -344 203 -311 351 0
-325 -344 203 311 -351 0
-325 -344 -204 -312 -352 0
-325 -344 -204 312 352 0
-325 -344 204 -312 352 0
-325 -344 204 312 -352 0
-326 -343 -231 -267 -345 0
-326 -343 -231 267 345 0
-326 -343 231 -267 345 0
-326 -343 231 267 -345 0
-326 -343 -232 -268 -346 0
-326 -343 -232 268 346 0
-326 -343 232 -268 346 0
-326 -343 232 268 -346 0
-326 -343 -233 -269 -347 0
-326 -343 -233 269 347 0
-326 -343 233 -269 347 0
-326 -343 233 269 -347 0
-326 -343 -234 -270 -348 0
-326 -343 -234 270 348 0
-326 -343 234 -270 348 0
-326 -343 234 270 -348 0
-326 -343 -235 -271 -349 0
-326 -343 -235 271 349 0
-326 -343 235 -271 349 0
-326 -343 235 271 -349 0
-326 -343 -236 -272 -350 0
-326 -343 -236 272 350 0
-326 -343 236 -272 350 0
-326 -343 236 272 -350 0
-326 -343 -237 -273 -351 0
-326 -343 -237 273 351 0
-326 -343 237 -273 351 0
-326 -343 237 273 -351 0
-326 -343 -238 -274 -352 0
-326 -343 -238 274 352 0
-326 -343 238 -274 352 0
-326 -343 238 274 -352 0
-326 -344 -231 -305 -345 0
-326 -344 -231 305 345 0
-326 -344 231 -305 345 0
-326 -344 231 305 -345 0
-326 -344 -232 -306 -346 0
-326 -344 -232 306 346 0
-326 -344 232 -306 346 0
-326 -344 232 306 -346 0
-326 -344 -233 -307 -347 0
-326 -344 -233 307 347 0
-326 -344 233 -307 347 0
-326 -344 233 307 -347 0
-326 -344 -234 -308 -348 0
-326 -344 -234 308 348 0
-326 -344 234 -308 348 0
-326 -344 234 308 -348 0
-326 -344 -235 -309 -349 0
-326 -344 -235 309 349 0
-326 -344 235 -309 349 0
-326 -344 235 309 -349 0
-326 -344 -236 -310 -350 0
-326 -344 -236 310 350 0
-326 -344 236 -310 350 0
-326 -344 236 310 -350 0
-326 -344 -237 -311 -351 0
-326 -344 -237 311 351 0
-326 -344 237 -311 351 0
-326 -344 237 311 -351 0
-326 -344 -238 -312 -352 0
-326 -344 -238 312 352 0
-326 -344 238 -312 352 0
-326 -344 238 312 -352 0
-327 -344 -267 -305 -345 0
-327 -344 -267 305 345 0
-327 -344 267 -305 345 0
-327 -344 267 305 -345 0
-327 -344 -268 -306 -346 0
-327 -344 -268 306 346 0
-327 -344 268 -306 346 0
-327 -344 268 306 -346 0
-327 -344 -269 -307 -347 0
-327 -344 -269 307 347 0
-327 -344 269 -307 347 0
-327 -344 269 307 -347 0
-327 -344 -270 -308 -348 0
-327 -344 -270 308 348 0
-327 -344 270 -308 348 0
-327 -344 270 308 -348 0
-327 -344 -271 -309 -349 0
-327 -344 -271 309 349 0
-327 -344 271 -309 349 0
-327 -344 271 309 -349 0
-327 -344 -272 -310 -350 0
-327 -344 -272 310 350 0
-327 -344 272 -310 350 0
-327 -344 272 310 -350 0
-327 -344 -273 -311 -351 0
-327 -344 -273 311 351 0
-327 -344 273 -311 351 0
-327 -344 273 311 -351 0
-327 -344 -274 -312 -352 0
-327 -344 -274 312 352 0
-327 -344 274 -312 352 0
-327 -344 274 312 -352 0
345 346 347 348 349 350 351 352 0
353 354 355 356 357 358 359 360 361 362 363 364 365 366 367 368 369 0
-353 -354 0
-353 -355 0
-353 -356 0
-353 -357 0
-353 -358 0
-353 -359 0
-353 -360 0
-353 -361 0
-353 -362 0
-353 -363 0
-353 -364 0
-353 -365 0
-353 -366 0
-353 -367 0
-353 -368 0
-353 -369 0
-354 -355 0
-354 -356 0
-354 -357 0
-354 -358 0
-354 -359 0
-354 -360 0
-354 -361 0
-354 -362 0
-354 -363 0
-354 -364 0
-354 -365 0
-354 -366 0
-354 -367 0
-354 -368 0
-354 -369 0
-355 -356 0
-355 -357 0
-355 -358 0
-355 -359 0
-355 -360 0
-355 -361 0
-355 -362 0
-355 -363 0
-355 -364 0
-355 -365 0
-355 -366 0
-355 -367 0
-355 -368 0
-355 -369 0
-356 -357 0
-356 -358 0
-356 -359 0
-356 -360 0
-356 -361 0
-356 -362 0
-356 -363 0
-356 -364 0
-356 -365 0
-356 -366 0
-356 -367 0
-356 -368 0
-356 -369 0
-357 -358 0
-357 -359 0
-357 -360 0
-357 -361 0
-357 -362 0
-357 -363 0
-357 -364 0
-357 -365 0
-357 -366 0
-357 -367 0
-357 -368 0
-357 -369 0
-358 -359 0
-358 -360 0
-358 -361 0
-358 -362 0
-358 -363 0
-358 -364 0
-358 -365 0
-358 -366 0
-358 -367 0
-358 -368 0
-358 -369 0
-359 -360 0
-359 -361 0
-359 -362 0
-359 -363 0
-359 -364 0
-359 -365 0
-359 -366 0
-359 -367 0
-359 -368 0
-359 -369 0
-360 -361 0
-360 -362 0
-360 -363 0
-360 -364 0
-360 -365 0
-360 -366 0
-360 -367 0
-360 -368 0
-360 -369 0
-361 -362 0
-361 -363 0
-361 -364 0
-361 -365 0
-361 -366 0
-361 -367 0
-361 -368 0
-361 -369 0
-362 -363 0
-362 -364 0
-362 -365 0
-362 -366 0
-362 -367 0
-362 -368 0
-362 -369 0
-363 -364 0
-363 -365 0
-363 -366 0
-363 -367 0
-363 -368 0
-363 -369 0
-364 -365 0
-364 -366 0
-364 -367 0
-364 -368 0
-364 -369 0
-365 -366 0
-365 -367 0
-365 -368 0
-365 -369 0
-366 -367 0
-366 -368 0
-366 -369 0
-367 -368 0
-367 -369 0
-368 -369 0
370 371 372 373 374 375 376 377 378 379 380 381 382 383 384 385 386 0
-370 -371 0
-370 -372 0
-370 -373 0
-370 -374 0
-370 -375 0
-370 -376 0
-370 -377 0
-370 -378 0
-370 -379 0
-370 -380 0
-370 -381 0
-370 -382 0
-370 -383 0
-370 -384 0
-370 -385 0
-370 -386 0
-371 -372 0
-371 -373 0
-371 -374 0
-371 -375 0
-371 -376 0
-371 -377 0
-371 -378 0
-371 -379 0
-371 -380 0
-371 -381 0
-371 -382 0
-371 -383 0
-371 -384 0
-371 -385 0
-371 -386 0
-372 -373 0
-372 -374 0
-372 -375 0
-372 -376 0
-372 -377 0
-372 -378 0
-372 -379 0
-372 -380 0
-372 -381 0
-372 -382 0
-372 -383 0
-372 -384 0
-372 -385 0
-372 -386 0
-373 -374 0
-373 -375 0
-373 -376 0
-373 -377 0
-373 -378 0
-373 -379 0
-373 -380 0
-373 -381 0
-373 -382 0
-373 -383 0
-373 -384 0
-373 -385 0
-373 -386 0
-374 -375 0
-374 -376 0
-374 -377 0
-374 -378 0
-374 -379 0
-374 -380 0
-374 -381 0
-374 -382 0
-374 -383 0
-374 -384 0
-374 -385 0
-374 -386 0
-375 -376 0
-375 -377 0
-375 -378 0
-375 -379 0
-375 -380 0
-375 -381 0
-375 -382 0
-375 -383 0
-375 -384 0
-375 -385 0
-375 -386 0
-376 -377 0
-376 -378 0
-376 -379 0
-376 -380 0
-376 -381 0
-376 -382 0
-376 -383 0
-376 -384 0
-376 -385 0
-376 -386 0
-377 -378 0
-377 -379 0
-377 -380 0
-377 -381 0
-377 -382 0
-377 -383 0
-377 -384 0
-377 -385 0
-377 -386 0
-378 -379 0
-378 -380 0
-378 -381 0
-378 -382 0
-378 -383 0
-378 -384 0
-378 -385 0
-378 -386 0
-379 -380 0
-379 -381 0
-379 -382 0
-379 -383 0
-379 -384 0
-379 -385 0
-379 -386 0
-380 -381 0
-380 -382 0
-380 -383 0
-380 -384 0
-380 -385 0
-380 -386 0
-381 -382 0
-381 -383 0
-381 -384 0
-381 -385 0
-381 -386 0
-382 -383 0
-382 -384 0
-382 -385 0
-382 -386 0
-383 -384 0
-383 -385 0
-383 -386 0
-384 -385 0
-384 -386 0
-385 -386 0
-353 -370 0
-354 -370 0
-354 -371 0
-355 -370 0
-355 -371 0
-355 -372 0
-356 -370 0
-356 -371 0
-356 -372 0
-356 -373 0
-357 -370 0
-357 -371 0
-357 -372 0
-357 -373 0
-357 -374 0
-358 -370 0
-358 -371 0
-358 -372 0
-358 -373 0
-358 -374 0
-358 -375 0
-359 -370 0
-359 -371 0
-359 -372 0
-359 -373 0
-359 -374 0
-359 -375 0
-359 -376 0
-360 -370 0
-360 -371 0
-360 -372 0
-360 -373 0
-360 -374 0
-360 -375 0
-360 -376 0
-360 -377 0
-361 -370 0
-361 -371 0
-361 -372 0
-361 -373 0
-361 -374 0
-361 -375 0
-361 -376 0
-361 -377 0
-361 -378 0
-362 -370 0
-362 -371 0
-362 -372 0
-362 -373 0
-362 -374 0
-362 -375 0
-362 -376 0
-362 -377 0
-362 -378 0
-362 -379 0
-363 -370 0
-363 -371 0
-363 -372 0
-363 -373 0
-363 -374 0
-363 -375 0
-363 -376 0
-363 -377 0
-363 -378 0
-363 -379 0
-363 -380 0
-364 -370 0
-364 -371 0
-364 -372 0
-364 -373 0
-364 -374 0
-364 -375 0
-364 -376 0
-364 -377 0
-364 -378 0
-364 -379 0
-364 -380 0
-364 -381 0
-365 -370 0
-365 -371 0
-365 -372 0
-365 -373 0
-365 -374 0
-365 -375 0
-365 -376 0
-365 -377 0
-365 -378 0
-365 -379 0
-365 -380 0
-365 -381 0
-365 -382 0
-366 -370 0
-366 -371 0
-366 -372 0
-366 -373 0
-366 -374 0
-366 -375 0
-366 -376 0
-366 -377 0
-366 -378 0
-366 -379 0
-366 -380 0
-366 -381 0
-366 -382 0
-366 -383 0
-367 -370 0
-367 -371 0
-367 -372 0
-367 -373 0
-367 -374 0
-367 -375 0
-367 -376 0
-367 -377 0
-367 -378 0
-367 -379 0
-367 -380 0
-367 -381 0
-367 -382 0
-367 -383 0
-367 -384 0
-368 -370 0
-368 -371 0
-368 -372 0
-368 -373 0
-368 -374 0
-368 -375 0
-368 -376 0
-368 -377 0
-368 -378 0
-368 -379 0
-368 -380 0
-368 -381 0
-368 -382 0
-368 -383 0
-368 -384 0
-368 -385 0
-369 -370 0
-369 -371 0
-369 -372 0
-369 -373 0
-369 -374 0
-369 -375 0
-369 -376 0
-369 -377 0
-369 -378 0
-369 -379 0
-369 -380 0
-369 -381 0
-369 -382 0
-369 -383 0
-369 -384 0
-369 -385 0
-369 -386 0
-353 -371 -1 -9 -387 0
-353 -371 -1 9 387 0
-353 -371 1 -9 387 0
-353 -371 1 9 -387 0
-353 -371 -2 -10 -388 0
-353 -371 -2 10 388 0
-353 -371 2 -10 388 0
-353 -371 2 10 -388 0
-353 -371 -3 -11 -389 0
-353 -371 -3 11 389 0
-353 -371 3 -11 389 0
-353 -371 3 11 -389 0
-353 -371 -4 -12 -390 0
-353 -371 -4 12 390 0
-353 -371 4 -12 390 0
-353 -371 4 12 -390 0
-353 -371 -5 -13 -391 0
-353 -371 -5 13 391 0
-353 -371 5 -13 391 0
-353 -371 5 13 -391 0
-353 -371 -6 -14 -392 0
-353 -371 -6 14 392 0
-353 -371 6 -14 392 0
-353 -371 6 14 -392 0
-353 -371 -7 -15 -393 0
-353 -371 -7 15 393 0
-353 -371 7 -15 393 0
-353 -371 7 15 -393 0
-353 -371 -8 -16 -394 0
-353 -371 -8 16 394 0
-353 -371 8 -16 394 0
-353 -371 8 16 -394 0
-353 -372 -1 -17 -387 0
-353 -372 -1 17 387 0
-353 -372 1 -17 387 0
-353 -372 1 17 -387 0
-353 -372 -2 -18 -388 0
-353 -372 -2 18 388 0
-353 -372 2 -18 388 0
-353 -372 2 18 -388 0
-353 -372 -3 -19 -389 0
-353 -372 -3 19 389 0
-353 -372 3 -19 389 0
-353 -372 3 19 -389 0
-353 -372 -4 -20 -390 0
-353 -372 -4 20 390 0
-353 -372 4 -20 390 0
-353 -372 4 20 -390 0
-353 -372 -5 -21 -391 0
-353 -372 -5 21 391 0
-353 -372 5 -21 391 0
-353 -372 5 21 -391 0
-353 -372 -6 -22 -392 0
-353 -372 -6 22 392 0
-353 -372 6 -22 392 0
-353 -372 6 22 -392 0
-353 -372 -7 -23 -393 0
-353 -372 -7 23 393 0
-353 -372 7 -23 393 0
-353 -372 7 23 -393 0
-353 -372 -8 -24 -394 0
-353 -372 -8 24 394 0
-353 -372 8 -24 394 0
-353 -372 8 24 -394 0
-353 -373 -1 -25 -387 0
-353 -373 -1 25 387 0
-353 -373 1 -25 387 0
-353 -373 1 25 -387 0
-353 -373 -2 -26 -388 0
-353 -373 -2 26 388 0
-353 -373 2 -26 388 0
-353 -373 2 26 -388 0
-353 -373 -3 -27 -389 0
-353 -373 -3 27 389 0
-353 -373 3 -27 389 0
-353 -373 3 27 -389 0
-353 -373 -4 -28 -390 0
-353 -373 -4 28 390 0
-353 -373 4 -28 390 0
-353 -373 4 28 -390 0
-353 -373 -5 -29 -391 0
-353 -373 -5 29 391 0
-353 -373 5 -29 391 0
-353 -373 5 29 -391 0
-353 -373 -6 -30 -392 0
-353 -373 -6 30 392 0
-353 -373 6 -30 392 0
-353 -373 6 30 -392 0
-353 -373 -7 -31 -393 0
-353 -373 -7 31 393 0
-353 -373 7 -31 393 0
-353 -373 7 31 -393 0
-353 -373 -8 -32 -394 0
-353 -373 -8 32 394 0
-353 -373 8 -32 394 0
-353 -373 8 32 -394 0
-353 -374 -1 -33 -387 0
-353 -374 -1 33 387 0
-353 -374 1 -33 387 0
-353 -374 1 33 -387 0
-353 -374 -2 -34 -388 0
-353 -374 -2 34 388 0
-353 -374 2 -34 388 0
-353 -374 2 34 -388 0
-353 -374 -3 -35 -389 0
-353 -374 -3 35 389 0
-353 -374 3 -35 389 0
-353 -374 3 35 -389 0
-353 -374 -4 -36 -390 0
-353 -374 -4 36 390 0
-353 -374 4 -36 390 0
-353 -374 4 36 -390 0
-353 -374 -5 -37 -391 0
-353 -374 -5 37 391 0
-353 -374 5 -37 391 0
-353 -374 5 37 -391 0
-353 -374 -6 -38 -392 0
-353 -374 -6 38 392 0
-353 -374 6 -38 392 0
-353 -374 6 38 -392 0
-353 -374 -7 -39 -393 0
-353 -374 -7 39 393 0
-353 -374 7 -39 393 0
-353 -374 7 39 -393 0
-353 -374 -8 -40 -394 0
-353 -374 -8 40 394 0
-353 -374 8 -40 394 0
-353 -374 8 40 -394 0
-353 -375 -1 -41 -387 0
-353 -375 -1 41 387 0
-353 -375 1 -41 387 0
-353 -375 1 41 -387 0
-353 -375 -2 -42 -388 0
-353 -375 -2 42 388 0
-353 -375 2 -42 388 0
-353 -375 2 42 -388 0
-353 -375 -3 -43 -389 0
-353 -375 -3 43 389 0
-353 -375 3 -43 389 0
-353 -375 3 43 -389 0
-353 -375 -4 -44 -390 0
-353 -375 -4 44 390 0
-353 -375 4 -44 390 0
-353 -375 4 44 -390 0
-353 -375 -5 -45 -391 0
-353 -375 -5 45 391 0
-353 -375 5 -45 391 0
-353 -375 5 45 -391 0
-353 -375 -6 -46 -392 0
-353 -375 -6 46 392 0
-353 -375 6 -46 392 0
-353 -375 6 46 -392 0
-353 -375 -7 -47 -393 0
-353 -375 -7 47 393 0
-353 -375 7 -47 393 0
-353 -375 7 47 -393 0
-353 -375 -8 -48 -394 0
-353 -375 -8 48 394 0
-353 -375 8 -48 394 0
-353 -375 8 48 -394 0
-353 -376 -1 -49 -387 0
-353 -376 -1 49 387 0
-353 -376 1 -49 387 0
-353 -376 1 49 -387 0
-353 -376 -2 -50 -388 0
-353 -376 -2 50 388 0
-353 -376 2 -50 388 0
-353 -376 2 50 -388 0
-353 -376 -3 -51 -389 0
-353 -376 -3 51 389 0
-353 -376 3 -51 389 0
-353 -376 3 51 -389 0
-353 -376 -4 -52 -390 0
-353 -376 -4 52 390 0
-353 -376 4 -52 390 0
-353 -376 4 52 -390 0
-353 -376 -5 -53 -391 0
-353 -376 -5 53 391 0
-353 -376 5 -53 391 0
-353 -376 5 53 -391 0
-353 -376 -6 -54 -392 0
-353 -376 -6 54 392 0
-353 -376 6 -54 392 0
-353 -376 6 54 -392 0
-353 -376 -7 -55 -393 0
-353 -376 -7 55 393 0
-353 -376 7 -55 393 0
-353 -376 7 55 -393 0
-353 -376 -8 -56 -394 0
-353 -376 -8 56 394 0
-353 -376 8 -56 394 0
-353 -376 8 56 -394 0
-353 -377 -1 -57 -387 0
-353 -377 -1 57 387 0
-353 -377 1 -57 387 0
-353 -377 1 57 -387 0
-353 -377 -2 -58 -388 0
-353 -377 -2 58 388 0
-353 -377 2 -58 388 0
-353 -377 2 58 -388 0
-353 -377 -3 -59 -389 0
-353 -377 -3 59 389 0
-353 -377 3 -59 389 0
-353 -377 3 59 -389 0
-353 -377 -4 -60 -390 0
-353 -377 -4 60 390 0
-353 -377 4 -60 390 0
-353 -377 4 60 -390 0
-353 -377 -5 -61 -391 0
-353 -377 -5 61 391 0
-353 -377 5 -61 391 0
-353 -377 5 61 -391 0
-353 -377 -6 -62 -392 0
-353 -377 -6 62 392 0
-353 -377 6 -62 392 0
-353 -377 6 62 -392 0
-353 -377 -7 -63 -393 0
-353 -377 -7 63 393 0
-353 -377 7 -63 393 0
-353 -377 7 63 -393 0
-353 -377 -8 -64 -394 0
-353 -377 -8 64 394 0
-353 -377 8 -64 394 0
-353 -377 8 64 -394 0
-353 -378 -1 -81 -387 0
-353 -378 -1 81 387 0
-353 -378 1 -81 387 0
-353 -378 1 81 -387 0
-353 -378 -2 -82 -388 0
-353 -378 -2 82 388 0
-353 -378 2 -82 388 0
-353 -378 2 82 -388 0
-353 -378 -3 -83 -389 0
-353 -378 -3 83 389 0
-353 -378 3 -83 389 0
-353 -378 3 83 -389 0
-353 -378 -4 -84 -390 0
-353 -378 -4 84 390 0
-353 -378 4 -84 390 0
-353 -378 4 84 -390 0
-353 -378 -5 -85 -391 0
-353 -378 -5 85 391 0
-353 -378 5 -85 391 0
-353 -378 5 85 -391 0
-353 -378 -6 -86 -392 0
-353 -378 -6 86 392 0
-353 -378 6 -86 392 0
-353 -378 6 86 -392 0
-353 -378 -7 -87 -393 0
-353 -378 -7 87 393 0
-353 -378 7 -87 393 0
-353 -378 7 87 -393 0
-353 -378 -8 -88 -394 0
-353 -378 -8 88 394 0
-353 -378 8 -88 394 0
-353 -378 8 88 -394 0
-353 -379 -1 -107 -387 0
-353 -379 -1 107 387 0
-353 -379 1 -107 387 0
-353 -379 1 107 -387 0
-353 -379 -2 -108 -388 0
-353 -379 -2 108 388 0
-353 -379 2 -108 388 0
-353 -379 2 108 -388 0
-353 -379 -3 -109 -389 0
-353 -379 -3 109 389 0
-353 -379 3 -109 389 0
-353 -379 3 109 -389 0
-353 -379 -4 -110 -390 0
-353 -379 -4 110 390 0
-353 -379 4 -110 390 0
-353 -379 4 110 -390 0
-353 -379 -5 -111 -391 0
-353 -379 -5 111 391 0
-353 -379 5 -111 391 0
-353 -379 5 111 -391 0
-353 -379 -6 -112 -392 0
-353 -379 -6 112 392 0
-353 -379 6 -112 392 0
-353 -379 6 112 -392 0
-353 -379 -7 -113 -393 0
-353 -379 -7 113 393 0
-353 -379 7 -113 393 0
-353 -379 7 113 -393 0
-353 -379 -8 -114 -394 0
-353 -379 -8 114 394 0
-353 -379 8 -114 394 0
-353 -379 8 114 -394 0
-353 -380 -1 -135 -387 0
-353 -380 -1 135 387 0
-353 -380 1 -135 387 0
-353 -380 1 135 -387 0
-353 -380 -2 -136 -388 0
-353 -380 -2 136 388 0
-353 -380 2 -136 388 0
-353 -380 2 136 -388 0
-353 -380 -3 -137 -389 0
-353 -380 -3 137 389 0
-353 -380 3 -137 389 0
-353 -380 3 137 -389 0
-353 -380 -4 -138 -390 0
-353 -380 -4 138 390 0
-353 -380 4 -138 390 0
-353 -380 4 138 -390 0
-353 -380 -5 -139 -391 0
-353 -380 -5 139 391 0
-353 -380 5 -139 391 0
-353 -380 5 139 -391 0
-353 -380 -6 -140 -392 0
-353 -380 -6 140 392 0
-353 -380 6 -140 392 0
-353 -380 6 140 -392 0
-353 -380 -7 -141 -393 0
-353 -380 -7 141 393 0
-353 -380 7 -141 393 0
-353 -380 7 141 -393 0
-353 -380 -8 -142 -394 0
-353 -380 -8 142 394 0
-353 -380 8 -142 394 0
-353 -380 8 142 -394 0
-353 -381 -1 -165 -387 0
-353 -381 -1 165 387 0
-353 -381 1 -165 387 0
-353 -381 1 165 -387 0
-353 -381 -2 -166 -388 0
-353 -381 -2 166 388 0
-353 -381 2 -166 388 0
-353 -381 2 166 -388 0
-353 -381 -3 -167 -389 0
-353 -381 -3 167 389 0
-353 -381 3 -167 389 0
-353 -381 3 167 -389 0
-353 -381 -4 -168 -390 0
-353 -381 -4 168 390 0
-353 -381 4 -168 390 0
-353 -381 4 168 -390 0
-353 -381 -5 -169 -391 0
-353 -381 -5 169 391 0
-353 -381 5 -169 391 0
-353 -381 5 169 -391 0
-353 -381 -6 -170 -392 0
-353 -381 -6 170 392 0
-353 -381 6 -170 392 0
-353 -381 6 170 -392 0
-353 -381 -7 -171 -393 0
-353 -381 -7 171 393 0
-353 -381 7 -171 393 0
-353 -381 7 171 -393 0
-353 -381 -8 -172 -394 0
-353 -381 -8 172 394 0
-353 -381 8 -172 394 0
-353 -381 8 172 -394 0
-353 -382 -1 -197 -387 0
-353 -382 -1 197 387 0
-353 -382 1 -197 387 0
-353 -382 1 197 -387 0
-353 -382 -2 -198 -388 0
-353 -382 -2 198 388 0
-353 -382 2 -198 388 0
-353 -382 2 198 -388 0
-353 -382 -3 -199 -389 0
-353 -382 -3 199 389 0
-353 -382 3 -199 389 0
-353 -382 3 199 -389 0
-353 -382 -4 -200 -390 0
-353 -382 -4 200 390 0
-353 -382 4 -200 390 0
-353 -382 4 200 -390 0
-353 -382 -5 -201 -391 0
-353 -382 -5 201 391 0
-353 -382 5 -201 391 0
-353 -382 5 201 -391 0
-353 -382 -6 -202 -392 0
-353 -382 -6 202 392 0
-353 -382 6 -202 392 0
-353 -382 6 202 -392 0
-353 -382 -7 -203 -393 0
-353 -382 -7 203 393 0
-353 -382 7 -203 393 0
-353 -382 7 203 -393 0
-353 -382 -8 -204 -394 0
-353 -382 -8 204 394 0
-353 -382 8 -204 394 0
-353 -382 8 204 -394 0
-353 -383 -1 -231 -387 0
-353 -383 -1 231 387 0
-353 -383 1 -231 387 0
-353 -383 1 231 -387 0
-353 -383 -2 -232 -388 0
-353 -383 -2 232 388 0
-353 -383 2 -232 388 0
-353 -383 2 232 -388 0
-353 -383 -3 -233 -389 0
-353 -383 -3 233 389 0
-353 -383 3 -233 389 0
-353 -383 3 233 -389 0
-353 -383 -4 -234 -390 0
-353 -383 -4 234 390 0
-353 -383 4 -234 390 0
-353 -383 4 234 -390 0
-353 -383 -5 -235 -391 0
-353 -383 -5 235 391 0
-353 -383 5 -235 391 0
-353 -383 5 235 -391 0
-353 -383 -6 -236 -392 0
-353 -383 -6 236 392 0
-353 -383 6 -236 392 0
-353 -383 6 236 -392 0
-353 -383 -7 -237 -393 0
-353 -383 -7 237 393 0
-353 -383 7 -237 393 0
-353 -383 7 237 -393 0
-353 -383 -8 -238 -394 0
-353 -383 -8 238 394 0
-353 -383 8 -238 394 0
-353 -383 8 238 -394 0
-353 -384 -1 -267 -387 0
-353 -384 -1 267 387 0
-353 -384 1 -267 387 0
-353 -384 1 267 -387 0
-353 -384 -2 -268 -388 0
-353 -384 -2 268 388 0
-353 -384 2 -268 388 0
-353 -384 2 268 -388 0
-353 -384 -3 -269 -389 0
-353 -384 -3 269 389 0
-353 -384 3 -269 389 0
-353 -384 3 269 -389 0
-353 -384 -4 -270 -390 0
-353 -384 -4 270 390 0
-353 -384 4 -270 390 0
-353 -384 4 270 -390 0
-353 -384 -5 -271 -391 0
-353 -384 -5 271 391 0
-353 -384 5 -271 391 0
-353 -384 5 271 -391 0
-353 -384 -6 -272 -392 0
-353 -384 -6 272 392 0
-353 -384 6 -272 392 0
-353 -384 6 272 -392 0
-353 -384 -7 -273 -393 0
-353 -384 -7 273 393 0
-353 -384 7 -273 393 0
-353 -384 7 273 -393 0
-353 -384 -8 -274 -394 0
-353 -384 -8 274 394 0
-353 -384 8 -274 394 0
-353 -384 8 274 -394 0
-353 -385 -1 -305 -387 0
-353 -385 -1 305 387 0
-353 -385 1 -305 387 0
-353 -385 1 305 -387 0
-353 -385 -2 -306 -388 0
-353 -385 -2 306 388 0
-353 -385 2 -306 388 0
-353 -385 2 306 -388 0
-353 -385 -3 -307 -389 0
-353 -385 -3 307 389 0
-353 -385 3 -307 389 0
-353 -385 3 307 -389 0
-353 -385 -4 -308 -390 0
-353 -385 -4 308 390 0
-353 -385 4 -308 390 0
-353 -385 4 308 -390 0
-353 -385 -5 -309 -391 0
-353 -385 -5 309 391 0
-353 -385 5 -309 391 0
-353 -385 5 309 -391 0
-353 -385 -6 -310 -392 0
-353 -385 -6 310 392 0
-353 -385 6 -310 392 0
-353 -385 6 310 -392 0
-353 -385 -7 -311 -393 0
-353 -385 -7 311 393 0
-353 -385 7 -311 393 0
-353 -385 7 311 -393 0
-353 -385 -8 -312 -394 0
-353 -385 -8 312 394 0
-353 -385 8 -312 394 0
-353 -385 8 312 -394 0
-353 -386 -1 -345 -387 0
-353 -386 -1 345 387 0
-353 -386 1 -345 387 0
-353 -386 1 345 -387 0
-353 -386 -2 -346 -388 0
-353 -386 -2 346 388 0
-353 -386 2 -346 388 0
-353 -386 2 346 -388 0
-353 -386 -3 -347 -389 0
-353 -386 -3 347 389 0
-353 -386 3 -347 389 0
-353 -386 3 347 -389 0
-353 -386 -4 -348 -390 0
-353 -386 -4 348 390 0
-353 -386 4 -348 390 0
-353 -386 4 348 -390 0
-353 -386 -5 -349 -391 0
-353 -386 -5 349 391 0
-353 -386 5 -349 391 0
-353 -386 5 349 -391 0
-353 -386 -6 -350 -392 0
-353 -386 -6 350 392 0
-353 -386 6 -350 392 0
-353 -386 6 350 -392 0
-353 -386 -7 -351 -393 0
-353 -386 -7 351 393 0
-353 -386 7 -351 393 0
-353 -386 7 351 -393 0
-353 -386 -8 -352 -394 0
-353 -386 -8 352 394 0
-353 -386 8 -352 394 0
-353 -386 8 352 -394 0
-354 -372 -9 -17 -387 0
-354 -372 -9 17 387 0
-354 -372 9 -17 387 0
-354 -372 9 17 -387 0
-354 -372 -10 -18 -388 0
-354 -372 -10 18 388 0
-354 -372 10 -18 388 0
-354 -372 10 18 -388 0
-354 -372 -11 -19 -389 0
-354 -372 -11 19 389 0
-354 -372 11 -19 389 0
-354 -372 11 19 -389 0
-354 -372 -12 -20 -390 0
-354 -372 -12 20 390 0
-354 -372 12 -20 390 0
-354 -372 12 20 -390 0
-354 -372 -13 -21 -391 0
-354 -372 -13 21 391 0
-354 -372 13 -21 391 0
-354 -372 13 21 -391 0
-354 -372 -14 -22 -392 0
-354 -372 -14 22 392 0
-354 -372 14 -22 392 0
-354 -372 14 22 -392 0
-354 -372 -15 -23 -393 0
-354 -372 -15 23 393 0
-354 -372 15 -23 393 0
-354 -372 15 23 -393 0
-354 -372 -16 -24 -394 0
-354 -372 -16 24 394 0
-354 -372 16 -24 394 0
-354 -372 16 24 -394 0
-354 -373 -9 -25 -387 0
-354 -373 -9 25 387 0
-354 -373 9 -25 387 0
-354 -373 9 25 -387 0
-354 -373 -10 -26 -388 0
-354 -373 -10 26 388 0
-354 -373 10 -26 388 0
-354 -373 10 26 -388 0
-354 -373 -11 -27 -389 0
-354 -373 -11 27 389 0
-354 -373 11 -27 389 0
-354 -373 11 27 -389 0
-354 -373 -12 -28 -390 0
-354 -373 -12 28 390 0
-354 -373 12 -28 390 0
-354 -373 12 28 -390 0
-354 -373 -13 -29 -391 0
-354 -373 -13 29 391 0
-354 -373 13 -29 391 0
-354 -373 13 29 -391 0
-354 -373 -14 -30 -392 0
-354 -373 -14 30 392 0
-354 -373 14 -30 392 0
-354 -373 14 30 -392 0
-354 -373 -15 -31 -393 0
-354 -373 -15 31 393 0
-354 -373 15 -31 393 0
-354 -373 15 31 -393 0
-354 -373 -16 -32 -394 0
-354 -373 -16 32 394 0
-354 -373 16 -32 394 0
-354 -373 16 32 -394 0
-354 -374 -9 -33 -387 0
-354 -374 -9 33 387 0
-354 -374 9 -33 387 0
-354 -374 9 33 -387 0
-354 -374 -10 -34 -388 0
-354 -374 -10 34 388 0
-354 -374 10 -34 388 0
-354 -374 10 34 -388 0
-354 -374 -11 -35 -389 0
-354 -374 -11 35 389 0
-354 -374 11 -35 389 0
-354 -374 11 35 -389 0
-354 -374 -12 -36 -390 0
-354 -374 -12 36 390 0
-354 -374 12 -36 390 0
-354 -374 12 36 -390 0
-354 -374 -13 -37 -391 0
-354 -374 -13 37 391 0
-354 -374 13 -37 391 0
-354 -374 13 37 -391 0
-354 -374 -14 -38 -392 0
-354 -374 -14 38 392 0
-354 -374 14 -38 392 0
-354 -374 14 38 -392 0
-354 -374 -15 -39 -393 0
-354 -374 -15 39 393 0
-354 -374 15 -39 393 0
-354 -374 15 39 -393 0
-354 -374 -16 -40 -394 0
-354 -374 -16 40 394 0
-354 -374 16 -40 394 0
-354 -374 16 40 -394 0
-354 -375 -9 -41 -387 0
-354 -375 -9 41 387 0
-354 -375 9 -41 387 0
-354 -375 9 41 -387 0
-354 -375 -10 -42 -388 0
-354 -375 -10 42 388 0
-354 -375 10 -42 388 0
-354 -375 10 42 -388 0
-354 -375 -11 -43 -389 0
-354 -375 -11 43 389 0
-354 -375 11 -43 389 0
-354 -375 11 43 -389 0
-354 -375 -12 -44 -390 0
-354 -375 -12 44 390 0
-354 -375 12 -44 390 0
-354 -375 12 44 -390 0
-354 -375 -13 -45 -391 0
-354 -375 -13 45 391 0
-354 -375 13 -45 391 0
-354 -375 13 45 -391 0
-354 -375 -14 -46 -392 0
-354 -375 -14 46 392 0
-354 -375 14 -46 392 0
-354 -375 14 46 -392 0
-354 -375 -15 -47 -393 0
-354 -375 -15 47 393 0
-354 -375 15 -47 393 0
-354 -375 15 47 -393 0
-354 -375 -16 -48 -394 0
-354 -375 -16 48 394 0
-354 -375 16 -48 394 0
-354 -375 16 48 -394 0
-354 -376 -9 -49 -387 0
-354 -376 -9 49 387 0
-354 -376 9 -49 387 0
-354 -376 9 49 -387 0
-354 -376 -10 -50 -388 0
-354 -376 -10 50 388 0
-354 -376 10 -50 388 0
-354 -376 10 50 -388 0
-354 -376 -11 -51 -389 0
-354 -376 -11 51 389 0
-354 -376 11 -51 389 0
-354 -376 11 51 -389 0
-354 -376 -12 -52 -390 0
-354 -376 -12 52 390 0
-354 -376 12 -52 390 0
-354 -376 12 52 -390 0
-354 -376 -13 -53 -391 0
-354 -376 -13 53 391 0
-354 -376 13 -53 391 0
-354 -376 13 53 -391 0
-354 -376 -14 -54 -392 0
-354 -376 -14 54 392 0
-354 -376 14 -54 392 0
-354 -376 14 54 -392 0
-354 -376 -15 -55 -393 0
-354 -376 -15 55 393 0
-354 -376 15 -55 393 0
-354 -376 15 55 -393 0
-354 -376 -16 -56 -394 0
-354 -376 -16 56 394 0
-354 -376 16 -56 394 0
-354 -376 16 56 -394 0
-354 -377 -9 -57 -387 0
-354 -377 -9 57 387 0
-354 -377 9 -57 387 0
-354 -377 9 57 -387 0
-354 -377 -10 -58 -388 0
-354 -377 -10 58 388 0
-354 -377 10 -58 388 0
-354 -377 10 58 -388 0
-354 -377 -11 -59 -389 0
-354 -377 -11 59 389 0
-354 -377 11 -59 389 0
-354 -377 11 59 -389 0
-354 -377 -12 -60 -390 0
-354 -377 -12 60 390 0
-354 -377 12 -60 390 0
-354 -377 12 60 -390 0
-354 -377 -13 -61 -391 0
-354 -377 -13 61 391 0
-354 -377 13 -61 391 0
-354 -377 13 61 -391 0
-354 -377 -14 -62 -392 0
-354 -377 -14 62 392 0
-354 -377 14 -62 392 0
-354 -377 14 62 -392 0
-354 -377 -15 -63 -393 0
-354 -377 -15 63 393 0
-354 -377 15 -63 393 0
-354 -377 15 63 -393 0
-354 -377 -16 -64 -394 0
-354 -377 -16 64 394 0
-354 -377 16 -64 394 0
-354 -377 16 64 -394 0
-354 -378 -9 -81 -387 0
-354 -378 -9 81 387 0
-354 -378 9 -81 387 0
-354 -378 9 81 -387 0
-354 -378 -10 -82 -388 0
-354 -378 -10 82 388 0
-354 -378 10 -82 388 0
-354 -378 10 82 -388 0
-354 -378 -11 -83 -389 0
-354 -378 -11 83 389 0
-354 -378 11 -83 389 0
-354 -378 11 83 -389 0
-354 -378 -12 -84 -390 0
-354 -378 -12 84 390 0
-354 -378 12 -84 390 0
-354 -378 12 84 -390 0
-354 -378 -13 -85 -391 0
-354 -378 -13 85 391 0
-354 -378 13 -85 391 0
-354 -378 13 85 -391 0
-354 -378 -14 -86 -392 0
-354 -378 -14 86 392 0
-354 -378 14 -86 392 0
-354 -378 14 86 -392 0
-354 -378 -15 -87 -393 0
-354 -378 -15 87 393 0
-354 -378 15 -87 393 0
-354 -378 15 87 -393 0
-354 -378 -16 -88 -394 0
-354 -378 -16 88 394 0
-354 -378 16 -88 394 0
-354 -378 16 88 -394 0
-354 -379 -9 -107 -387 0
-354 -379 -9 107 387 0
-354 -379 9 -107 387 0
-354 -379 9 107 -387 0
-354 -379 -10 -108 -388 0
-354 -379 -10 108 388 0
-354 -379 10 -108 388 0
-354 -379 10 108 -388 0
-354 -379 -11 -109 -389 0
-354 -379 -11 109 389 0
-354 -379 11 -109 389 0
-354 -379 11 109 -389 0
-354 -379 -12 -110 -390 0
-354 -379 -12 110 390 0
-354 -379 12 -110 390 0
-354 -379 12 110 -390 0
-354 -379 -13 -111 -391 0
-354 -379 -13 111 391 0
-354 -379 13 -111 391 0
-354 -379 13 111 -391 0
-354 -379 -14 -112 -392 0
-354 -379 -14 112 392 0
-354 -379 14 -112 392 0
-354 -379 14 112 -392 0
-354 -379 -15 -113 -393 0
-354 -379 -15 113 393 0
-354 -379 15 -113 393 0
-354 -379 15 113 -393 0
-354 -379 -16 -114 -394 0
-354 -379 -16 114 394 0
-354 -379 16 -114 394 0
-354 -379 16 114 -394 0
-354 -380 -9 -135 -387 0
-354 -380 -9 135 387 0
-354 -380 9 -135 387 0
-354 -380 9 135 -387 0
-354 -380 -10 -136 -388 0
-354 -380 -10 136 388 0
-354 -380 10 -136 388 0
-354 -380 10 136 -388 0
-354 -380 -11 -137 -389 0
-354 -380 -11 137 389 0
-354 -380 11 -137 389 0
-354 -380 11 137 -389 0
-354 -380 -12 -138 -390 0
-354 -380 -12 138 390 0
-354 -380 12 -138 390 0
-354 -380 12 138 -390 0
-354 -380 -13 -139 -391 0
-354 -380 -13 139 391 0
-354 -380 13 -139 391 0
-354 -380 13 139 -391 0
-354 -380 -14 -140 -392 0
-354 -380 -14 140 392 0
-354 -380 14 -140 392 0
-354 -380 14 140 -392 0
-354 -380 -15 -141 -393 0
-354 -380 -15 141 393 0
-354 -380 15 -141 393 0
-354 -380 15 141 -393 0
-354 -380 -16 -142 -394 0
-354 -380 -16 142 394 0
-354 -380 16 -142 394 0
-354 -380 16 142 -394 0
-354 -381 -9 -165 -387 0
-354 -381 -9 165 387 0
-354 -381 9 -165 387 0
-354 -381 9 165 -387 0
-354 -381 -10 -166 -388 0
-354 -381 -10 166 388 0
-354 -381 10 -166 388 0
-354 -381 10 166 -388 0
-354 -381 -11 -167 -389 0
-354 -381 -11 167 389 0
-354 -381 11 -167 389 0
-354 -381 11 167 -389 0
-354 -381 -12 -168 -390 0
-354 -381 -12 168 390 0
-354 -381 12 -168 390 0
-354 -381 12 168 -390 0
-354 -381 -13 -169 -391 0
-354 -381 -13 169 391 0
-354 -381 13 -169 391 0
-354 -381 13 169 -391 0
-354 -381 -14 -170 -392 0
-354 -381 -14 170 392 0
-354 -381 14 -170 392 0
-354 -381 14 170 -392 0
-354 -381 -15 -171 -393 0
-354 -381 -15 171 393 0
-354 -381 15 -171 393 0
-354 -381 15 171 -393 0
-354 -381 -16 -172 -394 0
-354 -381 -16 172 394 0
-354 -381 16 -172 394 0
-354 -381 16 172 -394 0
-354 -382 -9 -197 -387 0
-354 -382 -9 197 387 0
-354 -382 9 -197 387 0
-354 -382 9 197 -387 0
-354 -382 -10 -198 -388 0
-354 -382 -10 198 388 0
-354 -382 10 -198 388 0
-354 -382 10 198 -388 0
-354 -382 -11 -199 -389 0
-354 -382 -11 199 389 0
-354 -382 11 -199 389 0
-354 -382 11 199 -389 0
-354 -382 -12 -200 -390 0
-354 -382 -12 200 390 0
-354 -382 12 -200 390 0
-354 -382 12 200 -390 0
-354 -382 -13 -201 -391 0
-354 -382 -13 201 391 0
-354 -382 13 -201 391 0
-354 -382 13 201 -391 0
-354 -382 -14 -202 -392 0
-354 -382 -14 202 392 0
-354 -382 14 -202 392 0
-354 -382 14 202 -392 0
-354 -382 -15 -203 -393 0
-354 -382 -15 203 393 0
-354 -382 15 -203 393 0
-354 -382 15 203 -393 0
-354 -382 -16 -204 -394 0
-354 -382 -16 204 394 0
-354 -382 16 -204 394 0
-354 -382 16 204 -394 0
-354 -383 -9 -231 -387 0
-354 -383 -9 231 387 0
-354 -383 9 -231 387 0
-354 -383 9 231 -387 0
-354 -383 -10 -232 -388 0
-354 -383 -10 232 388 0
-354 -383 10 -232 388 0
-354 -383 10 232 -388 0
-354 -383 -11 -233 -389 0
-354 -383 -11 233 389 0
-354 -383 11 -233 389 0
-354 -383 11 233 -389 0
-354 -383 -12 -234 -390 0
-354 -383 -12 234 390 0
-354 -383 12 -234 390 0
-354 -383 12 234 -390 0
-354 -383 -13 -235 -391 0
-354 -383 -13 235 391 0
-354 -383 13 -235 391 0
-354 -383 13 235 -391 0
-354 -383 -14 -236 -392 0
-354 -383 -14 236 392 0
-354 -383 14 -236 392 0
-354 -383 14 236 -392 0
-354 -383 -15 -237 -393 0
-354 -383 -15 237 393 0
-354 -383 15 -237 393 0
-354 -383 15 237 -393 0
-354 -383 -16 -238 -394 0
-354 -383 -16 238 394 0
-354 -383 16 -238 394 0
-354 -383 16 238 -394 0
-354 -384 -9 -267 -387 0
-354 -384 -9 267 387 0
-354 -384 9 -267 387 0
-354 -384 9 267 -387 0
-354 -384 -10 -268 -388 0
-354 -384 -10 268 388 0
-354 -384 10 -268 388 0
-354 -384 10 268 -388 0
-354 -384 -11 -269 -389 0
-354 -384 -11 269 389 0
-354 -384 11 -269 389 0
-354 -384 11 269 -389 0
-354 -384 -12 -270 -390 0
-354 -384 -12 270 390 0
-354 -384 12 -270 390 0
-354 -384 12 270 -390 0
-354 -384 -13 -271 -391 0
-354 -384 -13 271 391 0
-354 -384 13 -271 391 0
-354 -384 13 271 -391 0
-354 -384 -14 -272 -392 0
-354 -384 -14 272 392 0
-354 -384 14 -272 392 0
-354 -384 14 272 -392 0
-354 -384 -15 -273 -393 0
-354 -384 -15 273 393 0
-354 -384 15 -273 393 0
-354 -384 15 273 -393 0
-354 -384 -16 -274 -394 0
-354 -384 -16 274 394 0
-354 -384 16 -274 394 0
-354 -384 16 274 -394 0
-354 -385 -9 -305 -387 0
-354 -385 -9 305 387 0
-354 -385 9 -305 387 0
-354 -385 9 305 -387 0
-354 -385 -10 -306 -388 0
-354 -385 -10 306 388 0
-354 -385 10 -306 388 0
-354 -385 10 306 -388 0
-354 -385 -11 -307 -389 0
-354 -385 -11 307 389 0
-354 -385 11 -307 389 0
-354 -385 11 307 -389 0
-354 -385 -12 -308 -390 0
-354 -385 -12 308 390 0
-354 -385 12 -308 390 0
-354 -385 12 308 -390 0
-354 -385 -13 -309 -391 0
-354 -385 -13 309 391 0
-354 -385 13 -309 391 0
-354 -385 13 309 -391 0
-354 -385 -14 -310 -392 0
-354 -385 -14 310 392 0
-354 -385 14 -310 392 0
-354 -385 14 310 -392 0
-354 -385 -15 -311 -393 0
-354 -385 -15 311 393 0
-354 -385 15 -311 393 0
-354 -385 15 311 -393 0
-354 -385 -16 -312 -394 0
-354 -385 -16 312 394 0
-354 -385 16 -312 394 0
-354 -385 16 312 -394 0
-354 -386 -9 -345 -387 0
-354 -386 -9 345 387 0
-354 -386 9 -345 387 0
-354 -386 9 345 -387 0
-354 -386 -10 -346 -388 0
-354 -386 -10 346 388 0
-354 -386 10 -346 388 0
-354 -386 10 346 -388 0
-354 -386 -11 -347 -389 0
-354 -386 -11 347 389 0
-354 -386 11 -347 389 0
-354 -386 11 347 -389 0
-354 -386 -12 -348 -390 0
-354 -386 -12 348 390 0
-354 -386 12 -348 390 0
-354 -386 12 348 -390 0
-354 -386 -13 -349 -391 0
-354 -386 -13 349 391 0
-354 -386 13 -349 391 0
-354 -386 13 349 -391 0
-354 -386 -14 -350 -392 0
-354 -386 -14 350 392 0
-354 -386 14 -350 392 0
-354 -386 14 350 -392 0
-354 -386 -15 -351 -393 0
-354 -386 -15 351 393 0
-354 -386 15 -351 393 0
-354 -386 15 351 -393 0
-354 -386 -16 -352 -394 0
-354 -386 -16 352 394 0
-354 -386 16 -352 394 0
-354 -386 16 352 -394 0
-355 -373 -17 -25 -387 0
-355 -373 -17 25 387 0
-355 -373 17 -25 387 0
-355 -373 17 25 -387 0
-355 -373 -18 -26 -388 0
-355 -373 -18 26 388 0
-355 -373 18 -26 388 0
-355 -373 18 26 -388 0
-355 -373 -19 -27 -389 0
-355 -373 -19 27 389 0
-355 -373 19 -27 389 0
-355 -373 19 27 -389 0
-355 -373 -20 -28 -390 0
-355 -373 -20 28 390 0
-355 -373 20 -28 390 0
-355 -373 20 28 -390 0
-355 -373 -21 -29 -391 0
-355 -373 -21 29 391 0
-355 -373 21 -29 391 0
-355 -373 21 29 -391 0
-355 -373 -22 -30 -392 0
-355 -373 -22 30 392 0
-355 -373 22 -30 392 0
-355 -373 22 30 -392 0
-355 -373 -23 -31 -393 0
-355 -373 -23 31 393 0
-355 -373 23 -31 393 0
-355 -373 23 31 -393 0
-355 -373 -24 -32 -394 0
-355 -373 -24 32 394 0
-355 -373 24 -32 394 0
-355 -373 24 32 -394 0
-355 -374 -17 -33 -387 0
-355 -374 -17 33 387 0
-355 -374 17 -33 387 0
-355 -374 17 33 -387 0
-355 -374 -18 -34 -388 0
-355 -374 -18 34 388 0
-355 -374 18 -34 388 0
-355 -374 18 34 -388 0
-355 -374 -19 -35 -389 0
-355 -374 -19 35 389 0
-355 -374 19 -35 389 0
-355 -374 19 35 -389 0
-355 -374 -20 -36 -390 0
-355 -374 -20 36 390 0
-355 -374 20 -36 390 0
-355 -374 20 36 -390 0
-355 -374 -21 -37 -391 0
-355 -374 -21 37 391 0
-355 -374 21 -37 391 0
-355 -374 21 37 -391 0
-355 -374 -22 -38 -392 0
-355 -374 -22 38 392 0
-355 -374 22 -38 392 0
-355 -374 22 38 -392 0
-355 -374 -23 -39 -393 0
-355 -374 -23 39 393 0
-355 -374 23 -39 393 0
-355 -374 23 39 -393 0
-355 -374 -24 -40 -394 0
-355 -374 -24 40 394 0
-355 -374 24 -40 394 0
-355 -374 24 40 -394 0
-355 -375 -17 -41 -387 0
-355 -375 -17 41 387 0
-355 -375 17 -41 387 0
-355 -375 17 41 -387 0
-355 -375 -18 -42 -388 0
-355 -375 -18 42 388 0
-355 -375 18 -42 388 0
-355 -375 18 42 -388 0
-355 -375 -19 -43 -389 0
-355 -375 -19 43 389 0
-355 -375 19 -43 389 0
-355 -375 19 43 -389 0
-355 -375 -20 -44 -390 0
-355 -375 -20 44 390 0
-355 -375 20 -44 390 0
-355 -375 20 44 -390 0
-355 -375 -21 -45 -391 0
-355 -375 -21 45 391 0
-355 -375 21 -45 391 0
-355 -375 21 45 -391 0
-355 -375 -22 -46 -392 0
-355 -375 -22 46 392 0
-355 -375 22 -46 392 0
-355 -375 22 46 -392 0
-355 -375 -23 -47 -393 0
-355 -375 -23 47 393 0
-355 -375 23 -47 393 0
-355 -375 23 47 -393 0
-355 -375 -24 -48 -394 0
-355 -375 -24 48 394 0
-355 -375 24 -48 394 0
-355 -375 24 48 -394 0
-355 -376 -17 -49 -387 0
-355 -376 -17 49 387 0
-355 -376 17 -49 387 0
-355 -376 17 49 -387 0
-355 -376 -18 -50 -388 0
-355 -376 -18 50 388 0
-355 -376 18 -50 388 0
-355 -376 18 50 -388 0
-355 -376 -19 -51 -389 0
-355 -376 -19 51 389 0
-355 -376 19 -51 389 0
-355 -376 19 51 -389 0
-355 -376 -20 -52 -390 0
-355 -376 -20 52 390 0
-355 -376 20 -52 390 0
-355 -376 20 52 -390 0
-355 -376 -21 -53 -391 0
-355 -376 -21 53 391 0
-355 -376 21 -53 391 0
-355 -376 21 53 -391 0
-355 -376 -22 -54 -392 0
-355 -376 -22 54 392 0
-355 -376 22 -54 392 0
-355 -376 22 54 -392 0
-355 -376 -23 -55 -393 0
-355 -376 -23 55 393 0
-355 -376 23 -55 393 0
-355 -376 23 55 -393 0
-355 -376 -24 -56 -394 0
-355 -376 -24 56 394 0
-355 -376 24 -56 394 0
-355 -376 24 56 -394 0
-355 -377 -17 -57 -387 0
-355 -377 -17 57 387 0
-355 -377 17 -57 387 0
-355 -377 17 57 -387 0
-355 -377 -18 -58 -388 0
-355 -377 -18 58 388 0
-355 -377 18 -58 388 0
-355 -377 18 58 -388 0
-355 -377 -19 -59 -389 0
-355 -377 -19 59 389 0
-355 -377 19 -59 389 0
-355 -377 19 59 -389 0
-355 -377 -20 -60 -390 0
-355 -377 -20 60 390 0
-355 -377 20 -60 390 0
-355 -377 20 60 -390 0
-355 -377 -21 -61 -391 0
-355 -377 -21 61 391 0
-355 -377 21 -61 391 0
-355 -377 21 61 -391 0
-355 -377 -22 -62 -392 0
-355 -377 -22 62 392 0
-355 -377 22 -62 392 0
-355 -377 22 62 -392 0
-355 -377 -23 -63 -393 0
-355 -377 -23 63 393 0
-355 -377 23 -63 393 0
-355 -377 23 63 -393 0
-355 -377 -24 -64 -394 0
-355 -377 -24 64 394 0
-355 -377 24 -64 394 0
-355 -377 24 64 -394 0
-355 -378 -17 -81 -387 0
-355 -378 -17 81 387 0
-355 -378 17 -81 387 0
-355 -378 17 81 -387 0
-355 -378 -18 -82 -388 0
-355 -378 -18 82 388 0
-355 -378 18 -82 388 0
-355 -378 18 82 -388 0
-355 -378 -19 -83 -389 0
-355 -378 -19 83 389 0
-355 -378 19 -83 389 0
-355 -378 19 83 -389 0
-355 -378 -20 -84 -390 0
-355 -378 -20 84 390 0
-355 -378 20 -84 390 0
-355 -378 20 84 -390 0
-355 -378 -21 -85 -391 0
-355 -378 -21 85 391 0
-355 -378 21 -85 391 0
-355 -378 21 85 -391 0
-355 -378 -22 -86 -392 0
-355 -378 -22 86 392 0
-355 -378 22 -86 392 0
-355 -378 22 86 -392 0
-355 -378 -23 -87 -393 0
-355 -378 -23 87 393 0
-355 -378 23 -87 393 0
-355 -378 23 87 -393 0
-355 -378 -24 -88 -394 0
-355 -378 -24 88 394 0
-355 -378 24 -88 394 0
-355 -378 24 88 -394 0
-355 -379 -17 -107 -387 0
-355 -379 -17 107 387 0
-355 -379 17 -107 387 0
-355 -379 17 107 -387 0
-355 -379 -18 -108 -388 0
-355 -379 -18 108 388 0
-355 -379 18 -108 388 0
-355 -379 18 108 -388 0
-355 -379 -19 -109 -389 0
-355 -379 -19 109 389 0
-355 -379 19 -109 389 0
-355 -379 19 109 -389 0
-355 -379 -20 -110 -390 0
-355 -379 -20 110 390 0
-355 -379 20 -110 390 0
-355 -379 20 110 -390 0
-355 -379 -21 -111 -391 0
-355 -379 -21 111 391 0
-355 -379 21 -111 391 0
-355 -379 21 111 -391 0
-355 -379 -22 -112 -392 0
-355 -379 -22 112 392 0
-355 -379 22 -112 392 0
-355 -379 22 112 -392 0
-355 -379 -23 -113 -393 0
-355 -379 -23 113 393 0
-355 -379 23 -113 393 0
-355 -379 23 113 -393 0
-355 -379 -24 -114 -394 0
-355 -379 -24 114 394 0
-355 -379 24 -114 394 0
-355 -379 24 114 -394 0
-355 -380 -17 -135 -387 0
-355 -380 -17 135 387 0
-355 -380 17 -135 387 0
-355 -380 17 135 -387 0
-355 -380 -18 -136 -388 0
-355 -380 -18 136 388 0
-355 -380 18 -136 388 0
-355 -380 18 136 -388 0
-355 -380 -19 -137 -389 0
-355 -380 -19 137 389 0
-355 -380 19 -137 389 0
-355 -380 19 137 -389 0
-355 -380 -20 -138 -390 0
-355 -380 -20 138 390 0
-355 -380 20 -138 390 0
-355 -380 20 138 -390 0
-355 -380 -21 -139 -391 0
-355 -380 -21 139 391 0
-355 -380 21 -139 391 0
-355 -380 21 139 -391 0
-355 -380 -22 -140 -392 0
-355 -380 -22 140 392 0
-355 -380 22 -140 392 0
-355 -380 22 140 -392 0
-355 -380 -23 -141 -393 0
-355 -380 -23 141 393 0
-355 -380 23 -141 393 0
-355 -380 23 141 -393 0
-355 -380 -24 -142 -394 0
-355 -380 -24 142 394 0
-355 -380 24 -142 394 0
-355 -380 24 142 -394 0
-355 -381 -17 -165 -387 0
-355 -381 -17 165 387 0
-355 -381 17 -165 387 0
-355 -381 17 165 -387 0
-355 -381 -18 -166 -388 0
-355 -381 -18 166 388 0
-355 -381 18 -166 388 0
-355 -381 18 166 -388 0
-355 -381 -19 -167 -389 0
-355 -381 -19 167 389 0
-355 -381 19 -167 389 0
-355 -381 19 167 -389 0
-355 -381 -20 -168 -390 0
-355 -381 -20 168 390 0
-355 -381 20 -168 390 0
-355 -381 20 168 -390 0
-355 -381 -21 -169 -391 0
-355 -381 -21 169 391 0
-355 -381 21 -169 391 0
-355 -381 21 169 -391 0
-355 -381 -22 -170 -392 0
-355 -381 -22 170 392 0
-355 -381 22 -170 392 0
-355 -381 22 170 -392 0
-355 -381 -23 -171 -393 0
-355 -381 -23 171 393 0
-355 -381 23 -171 393 0
-355 -381 23 171 -393 0
-355 -381 -24 -172 -394 0
-355 -381 -24 172 394 0
-355 -381 24 -172 394 0
-355 -381 24 172 -394 0
-355 -382 -17 -197 -387 0
-355 -382 -17 197 387 0
-355 -382 17 -197 387 0
-355 -382 17 197 -387 0
-355 -382 -18 -198 -388 0
-355 -382 -18 198 388 0
-355 -382 18 -198 388 0
-355 -382 18 198 -388 0
-355 -382 -19 -199 -389 0
-355 -382 -19 199 389 0
-355 -382 19 -199 389 0
-355 -382 19 199 -389 0
-355 -382 -20 -200 -390 0
-355 -382 -20 200 390 0
-355 -382 20 -200 390 0
-355 -382 20 200 -390 0
-355 -382 -21 -201 -391 0
-355 -382 -21 201 391 0
-355 -382 21 -201 391 0
-355 -382 21 201 -391 0
-355 -382 -22 -202 -392 0
-355 -382 -22 202 392 0
-355 -382 22 -202 392 0
-355 -382 22 202 -392 0
-355 -382 -23 -203 -393 0
-355 -382 -23 203 393 0
-355 -382 23 -203 393 0
-355 -382 23 203 -393 0
-355 -382 -24 -204 -394 0
-355 -382 -24 204 394 0
-355 -382 24 -204 394 0
-355 -382 24 204 -394 0
-355 -383 -17 -231 -387 0
-355 -383 -17 231 387 0
-355 -383 17 -231 387 0
-355 -383 17 231 -387 0
-355 -383 -18 -232 -388 0
-355 -383 -18 232 388 0
-355 -383 18 -232 388 0
-355 -383 18 232 -388 0
-355 -383 -19 -233 -389 0
-355 -383 -19 233 389 0
-355 -383 19 -233 389 0
-355 -383 19 233 -389 0
-355 -383 -20 -234 -390 0
-355 -383 -20 234 390 0
-355 -383 20 -234 390 0
-355 -383 20 234 -390 0
-355 -383 -21 -235 -391 0
-355 -383 -21 235 391 0
-355 -383 21 -235 391 0
-355 -383 21 235 -391 0
-355 -383 -22 -236 -392 0
-355 -383 -22 236 392 0
-355 -383 22 -236 392 0
-355 -383 22 236 -392 0
-355 -383 -23 -237 -393 0
-355 -383 -23 237 393 0
-355 -383 23 -237 393 0
-355 -383 23 237 -393 0
-355 -383 -24 -238 -394 0
-355 -383 -24 238 394 0
-355 -383 24 -238 394 0
-355 -383 24 238 -394 0
-355 -384 -17 -267 -387 0
-355 -384 -17 267 387 0
-355 -384 17 -267 387 0
-355 -384 17 267 -387 0
-355 -384 -18 -268 -388 0
-355 -384 -18 268 388 0
-355 -384 18 -268 388 0
-355 -384 18 268 -388 0
-355 -384 -19 -269 -389 0
-355 -384 -19 269 389 0
-355 -384 19 -269 389 0
-355 -384 19 269 -389 0
-355 -384 -20 -270 -390 0
-355 -384 -20 270 390 0
-355 -384 20 -270 390 0
-355 -384 20 270 -390 0
-355 -384 -21 -271 -391 0
-355 -384 -21 271 391 0
-355 -384 21 -271 391 0
-355 -384 21 271 -391 0
-355 -384 -22 -272 -392 0
-355 -384 -22 272 392 0
-355 -384 22 -272 392 0
-355 -384 22 272 -392 0
-355 -384 -23 -273 -393 0
-355 -384 -23 273 393 0
-355 -384 23 -273 393 0
-355 -384 23 273 -393 0
-355 -384 -24 -274 -394 0
-355 -384 -24 274 394 0
-355 -384 24 -274 394 0
-355 -384 24 274 -394 0
-355 -385 -17 -305 -387 0
-355 -385 -17 305 387 0
-355 -385 17 -305 387 0
-355 -385 17 305 -387 0
-355 -385 -18 -306 -388 0
-355 -385 -18 306 388 0
-355 -385 18 -306 388 0
-355 -385 18 306 -388 0
-355 -385 -19 -307 -389 0
-355 -385 -19 307 389 0
-355 -385 19 -307 389 0
-355 -385 19 307 -389 0
-355 -385 -20 -308 -390 0
-355 -385 -20 308 390 0
-355 -385 20 -308 390 0
-355 -385 20 308 -390 0
-355 -385 -21 -309 -391 0
-355 -385 -21 309 391 0
-355 -385 21 -309 391 0
-355 -385 21 309 -391 0
-355 -385 -22 -310 -392 0
-355 -385 -22 310 392 0
-355 -385 22 -310 392 0
-355 -385 22 310 -392 0
-355 -385 -23 -311 -393 0
-355 -385 -23 311 393 0
-355 -385 23 -311 393 0
-355 -385 23 311 -393 0
-355 -385 -24 -312 -394 0
-355 -385 -24 312 394 0
-355 -385 24 -312 394 0
-355 -385 24 312 -394 0
-355 -386 -17 -345 -387 0
-355 -386 -17 345 387 0
-355 -386 17 -345 387 0
-355 -386 17 345 -387 0
-355 -386 -18 -346 -388 0
-355 -386 -18 346 388 0
-355 -386 18 -346 388 0
-355 -386 18 346 -388 0
-355 -386 -19 -347 -389 0
-355 -386 -19 347 389 0
-355 -386 19 -347 389 0
-355 -386 19 347 -389 0
-355 -386 -20 -348 -390 0
-355 -386 -20 348 390 0
-355 -386 20 -348 390 0
-355 -386 20 348 -390 0
-355 -386 -21 -349 -391 0
-355 -386 -21 349 391 0
-355 -386 21 -349 391 0
-355 -386 21 349 -391 0
-355 -386 -22 -350 -392 0
-355 -386 -22 350 392 0
-355 -386 22 -350 392 0
-355 -386 22 350 -392 0
-355 -386 -23 -351 -393 0
-355 -386 -23 351 393 0
-355 -386 23 -351 393 0
-355 -386 23 351 -393 0
-355 -386 -24 -352 -394 0
-355 -386 -24 352 394 0
-355 -386 24 -352 394 0
-355 -386 24 352 -394 0
-356 -374 -25 -33 -387 0
-356 -374 -25 33 387 0
-356 -374 25 -33 387 0
-356 -374 25 33 -387 0
-356 -374 -26 -34 -388 0
-356 -374 -26 34 388 0
-356 -374 26 -34 388 0
-356 -374 26 34 -388 0
-356 -374 -27 -35 -389 0
-356 -374 -27 35 389 0
-356 -374 27 -35 389 0
-356 -374 27 35 -389 0
-356 -374 -28 -36 -390 0
-356 -374 -28 36 390 0
-356 -374 28 -36 390 0
-356 -374 28 36 -390 0
-356 -374 -29 -37 -391 0
-356 -374 -29 37 391 0
-356 -374 29 -37 391 0
-356 -374 29 37 -391 0
-356 -374 -30 -38 -392 0
-356 -374 -30 38 392 0
-356 -374 30 -38 392 0
-356 -374 30 38 -392 0
-356 -374 -31 -39 -393 0
-356 -374 -31 39 393 0
-356 -374 31 -39 393 0
-356 -374 31 39 -393 0
-356 -374 -32 -40 -394 0
-356 -374 -32 40 394 0
-356 -374 32 -40 394 0
-356 -374 32 40 -394 0
-356 -375 -25 -41 -387 0
-356 -375 -25 41 387 0
-356 -375 25 -41 387 0
-356 -375 25 41 -387 0
-356 -375 -26 -42 -388 0
-356 -375 -26 42 388 0
-356 -375 26 -42 388 0
-356 -375 26 42 -388 0
-356 -375 -27 -43 -389 0
-356 -375 -27 43 389 0
-356 -375 27 -43 389 0
-356 -375 27 43 -389 0
-356 -375 -28 -44 -390 0
-356 -375 -28 44 390 0
-356 -375 28 -44 390 0
-356 -375 28 44 -390 0
-356 -375 -29 -45 -391 0
-356 -375 -29 45 391 0
-356 -375 29 -45 391 0
-356 -375 29 45 -391 0
-356 -375 -30 -46 -392 0
-356 -375 -30 46 392 0
-356 -375 30 -46 392 0
-356 -375 30 46 -392 0
-356 -375 -31 -47 -393 0
-356 -375 -31 47 393 0
-356 -375 31 -47 393 0
-356 -375 31 47 -393 0
-356 -375 -32 -48 -394 0
-356 -375 -32 48 394 0
-356 -375 32 -48 394 0
-356 -375 32 48 -394 0
-356 -376 -25 -49 -387 0
-356 -376 -25 49 387 0
-356 -376 25 -49 387 0
-356 -376 25 49 -387 0
-356 -376 -26 -50 -388 0
-356 -376 -26 50 388 0
-356 -376 26 -50 388 0
-356 -376 26 50 -388 0
-356 -376 -27 -51 -389 0
-356 -376 -27 51 389 0
-356 -376 27 -51 389 0
-356 -376 27 51 -389 0
-356 -376 -28 -52 -390 0
-356 -376 -28 52 390 0
-356 -376 28 -52 390 0
-356 -376 28 52 -390 0
-356 -376 -29 -53 -391 0
-356 -376 -29 53 391 0
-356 -376 29 -53 391 0
-356 -376 29 53 -391 0
-356 -376 -30 -54 -392 0
-356 -376 -30 54 392 0
-356 -376 30 -54 392 0
-356 -376 30 54 -392 0
-356 -376 -31 -55 -393 0
-356 -376 -31 55 393 0
-356 -376 31 -55 393 0
-356 -376 31 55 -393 0
-356 -376 -32 -56 -394 0
-356 -376 -32 56 394 0
-356 -376 32 -56 394 0
-356 -376 32 56 -394 0
-356 -377 -25 -57 -387 0
-356 -377 -25 57 387 0
-356 -377 25 -57 387 0
-356 -377 25 57 -387 0
-356 -377 -26 -58 -388 0
-356 -377 -26 58 388 0
-356 -377 26 -58 388 0
-356 -377 26 58 -388 0
-356 -377 -27 -59 -389 0
-356 -377 -27 59 389 0
-356 -377 27 -59 389 0
-356 -377 27 59 -389 0
-356 -377 -28 -60 -390 0
-356 -377 -28 60 390 0
-356 -377 28 -60 390 0
-356 -377 28 60 -390 0
-356 -377 -29 -61 -391 0
-356 -377 -29 61 391 0
-356 -377 29 -61 391 0
-356 -377 29 61 -391 0
-356 -377 -30 -62 -392 0
-356 -377 -30 62 392 0
-356 -377 30 -62 392 0
-356 -377 30 62 -392 0
-356 -377 -31 -63 -393 0
-356 -377 -31 63 393 0
-356 -377 31 -63 393 0
-356 -377 31 63 -393 0
-356 -377 -32 -64 -394 0
-356 -377 -32 64 394 0
-356 -377 32 -64 394 0
-356 -377 32 64 -394 0
-356 -378 -25 -81 -387 0
-356 -378 -25 81 387 0
-356 -378 25 -81 387 0
-356 -378 25 81 -387 0
-356 -378 -26 -82 -388 0
-356 -378 -26 82 388 0
-356 -378 26 -82 388 0
-356 -378 26 82 -388 0
-356 -378 -27 -83 -389 0
-356 -378 -27 83 389 0
-356 -378 27 -83 389 0
-356 -378 27 83 -389 0
-356 -378 -28 -84 -390 0
-356 -378 -28 84 390 0
-356 -378 28 -84 390 0
-356 -378 28 84 -390 0
-356 -378 -29 -85 -391 0
-356 -378 -29 85 391 0
-356 -378 29 -85 391 0
-356 -378 29 85 -391 0
-356 -378 -30 -86 -392 0
-356 -378 -30 86 392 0
-356 -378 30 -86 392 0
-356 -378 30 86 -392 0
-356 -378 -31 -87 -393 0
-356 -378 -31 87 393 0
-356 -378 31 -87 393 0
-356 -378 31 87 -393 0
-356 -378 -32 -88 -394 0
-356 -378 -32 88 394 0
-356 -378 32 -88 394 0
-356 -378 32 88 -394 0
-356 -379 -25 -107 -387 0
-356 -379 -25 107 387 0
-356 -379 25 -107 387 0
-356 -379 25 107 -387 0
-356 -379 -26 -108 -388 0
-356 -379 -26 108 388 0
-356 -379 26 -108 388 0
-356 -379 26 108 -388 0
-356 -379 -27 -109 -389 0
-356 -379 -27 109 389 0
-356 -379 27 -109 389 0
-356 -379 27 109 -389 0
-356 -379 -28 -110 -390 0
-356 -379 -28 110 390 0
-356 -379 28 -110 390 0
-356 -379 28 110 -390 0
-356 -379 -29 -111 -391 0
-356 -379 -29 111 391 0
-356 -379 29 -111 391 0
-356 -379 29 111 -391 0
-356 -379 -30 -112 -392 0
-356 -379 -30 112 392 0
-356 -379 30 -112 392 0
-356 -379 30 112 -392 0
-356 -379 -31 -113 -393 0
-356 -379 -31 113 393 0
-356 -379 31 -113 393 0
-356 -379 31 113 -393 0
-356 -379 -32 -114 -394 0
-356 -379 -32 114 394 0
-356 -379 32 -114 394 0
-356 -379 32 114 -394 0
-356 -380 -25 -135 -387 0
-356 -380 -25 135 387 0
-356 -380 25 -135 387 0
-356 -380 25 135 -387 0
-356 -380 -26 -136 -388 0
-356 -380 -26 136 388 0
-356 -380 26 -136 388 0
-356 -380 26 136 -388 0
-356 -380 -27 -137 -389 0
-356 -380 -27 137 389 0
-356 -380 27 -137 389 0
-356 -380 27 137 -389 0
-356 -380 -28 -138 -390 0
-356 -380 -28 138 390 0
-356 -380 28 -138 390 0
-356 -380 28 138 -390 0
-356 -380 -29 -139 -391 0
-356 -380 -29 139 391 0
-356 -380 29 -139 391 0
-356 -380 29 139 -391 0
-356 -380 -30 -140 -392 0
-356 -380 -30 140 392 0
-356 -380 30 -140 392 0
-356 -380 30 140 -392 0
-356 -380 -31 -141 -393 0
-356 -380 -31 141 393 0
-356 -380 31 -141 393 0
-356 -380 31 141 -393 0
-356 -380 -32 -142 -394 0
-356 -380 -32 142 394 0
-356 -380 32 -142 394 0
-356 -380 32 142 -394 0
-356 -381 -25 -165 -387 0
-356 -381 -25 165 387 0
-356 -381 25 -165 387 0
-356 -381 25 165 -387 0
-356 -381 -26 -166 -388 0
-356 -381 -26 166 388 0
-356 -381 26 -166 388 0
-356 -381 26 166 -388 0
-356 -381 -27 -167 -389 0
-356 -381 -27 167 389 0
-356 -381 27 -167 389 0
-356 -381 27 167 -389 0
-356 -381 -28 -168 -390 0
-356 -381 -28 168 390 0
-356 -381 28 -168 390 0
-356 -381 28 168 -390 0
-356 -381 -29 -169 -391 0
-356 -381 -29 169 391 0
-356 -381 29 -169 391 0
-356 -381 29 169 -391 0
-356 -381 -30 -170 -392 0
-356 -381 -30 170 392 0
-356 -381 30 -170 392 0
-356 -381 30 170 -392 0
-356 -381 -31 -171 -393 0
-356 -381 -31 171 393 0
-356 -381 31 -171 393 0
-356 -381 31 171 -393 0
-356 -381 -32 -172 -394 0
-356 -381 -32 172 394 0
-356 -381 32 -172 394 0
-356 -381 32 172 -394 0
-356 -382 -25 -197 -387 0
-356 -382 -25 197 387 0
-356 -382 25 -197 387 0
-356 -382 25 197 -387 0
-356 -382 -26 -198 -388 0
-356 -382 -26 198 388 0
-356 -382 26 -198 388 0
-356 -382 26 198 -388 0
-356 -382 -27 -199 -389 0
-356 -382 -27 199 389 0
-356 -382 27 -199 389 0
-356 -382 27 199 -389 0
-356 -382 -28 -200 -390 0
-356 -382 -28 200 390 0
-356 -382 28 -200 390 0
-356 -382 28 200 -390 0
-356 -382 -29 -201 -391 0
-356 -382 -29 201 391 0
-356 -382 29 -201 391 0
-356 -382 29 201 -391 0
-356 -382 -30 -202 -392 0
-356 -382 -30 202 392 0
-356 -382 30 -202 392 0
-356 -382 30 202 -392 0
-356 -382 -31 -203 -393 0
-356 -382 -31 203 393 0
-356 -382 31 -203 393 0
-356 -382 31 203 -393 0
-356 -382 -32 -204 -394 0
-356 -382 -32 204 394 0
-356 -382 32 -204 394 0
-356 -382 32 204 -394 0
-356 -383 -25 -231 -387 0
-356 -383 -25 231 387 0
-356 -383 25 -231 387 0
-356 -383 25 231 -387 0
-356 -383 -26 -232 -388 0
-356 -383 -26 232 388 0
-356 -383 26 -232 388 0
-356 -383 26 232 -388 0
-356 -383 -27 -233 -389 0
-356 -383 -27 233 389 0
-356 -383 27 -233 389 0
-356 -383 27 233 -389 0
-356 -383 -28 -234 -390 0
-356 -383 -28 234 390 0
-356 -383 28 -234 390 0
-356 -383 28 234 -390 0
-356 -383 -29 -235 -391 0
-356 -383 -29 235 391 0
-356 -383 29 -235 391 0
-356 -383 29 235 -391 0
-356 -383 -30 -236 -392 0
-356 -383 -30 236 392 0
-356 -383 30 -236 392 0
-356 -383 30 236 -392 0
-356 -383 -31 -237 -393 0
-356 -383 -31 237 393 0
-356 -383 31 -237 393 0
-356 -383 31 237 -393 0
-356 -383 -32 -238 -394 0
-356 -383 -32 238 394 0
-356 -383 32 -238 394 0
-356 -383 32 238 -394 0
-356 -384 -25 -267 -387 0
-356 -384 -25 267 387 0
-356 -384 25 -267 387 0
-356 -384 25 267 -387 0
-356 -384 -26 -268 -388 0
-356 -384 -26 268 388 0
-356 -384 26 -268 388 0
-356 -384 26 268 -388 0
-356 -384 -27 -269 -389 0
-356 -384 -27 269 389 0
-356 -384 27 -269 389 0
-356 -384 27 269 -389 0
-356 -384 -28 -270 -390 0
-356 -384 -28 270 390 0
-356 -384 28 -270 390 0
-356 -384 28 270 -390 0
-356 -384 -29 -271 -391 0
-356 -384 -29 271 391 0
-356 -384 29 -271 391 0
-356 -384 29 271 -391 0
-356 -384 -30 -272 -392 0
-356 -384 -30 272 392 0
-356 -384 30 -272 392 0
-356 -384 30 272 -392 0
-356 -384 -31 -273 -393 0
-356 -384 -31 273 393 0
-356 -384 31 -273 393 0
-356 -384 31 273 -393 0
-356 -384 -32 -274 -394 0
-356 -384 -32 274 394 0
-356 -384 32 -274 394 0
-356 -384 32 274 -394 0
-356 -385 -25 -305 -387 0
-356 -385 -25 305 387 0
-356 -385 25 -305 387 0
-356 -385 25 305 -387 0
-356 -385 -26 -306 -388 0
-356 -385 -26 306 388 0
-356 -385 26 -306 388 0
-356 -385 26 306 -388 0
-356 -385 -27 -307 -389 0
-356 -385 -27 307 389 0
-356 -385 27 -307 389 0
-356 -385 27 307 -389 0
-356 -385 -28 -308 -390 0
-356 -385 -28 308 390 0
-356 -385 28 -308 390 0
-356 -385 28 308 -390 0
-356 -385 -29 -309 -391 0
-356 -385 -29 309 391 0
-356 -385 29 -309 391 0
-356 -385 29 309 -391 0
-356 -385 -30 -310 -392 0
-356 -385 -30 310 392 0
-356 -385 30 -310 392 0
-356 -385 30 310 -392 0
-356 -385 -31 -311 -393 0
-356 -385 -31 311 393 0
-356 -385 31 -311 393 0
-356 -385 31 311 -393 0
-356 -385 -32 -312 -394 0
-356 -385 -32 312 394 0
-356 -385 32 -312 394 0
-356 -385 32 312 -394 0
-356 -386 -25 -345 -387 0
-356 -386 -25 345 387 0
-356 -386 25 -345 387 0
-356 -386 25 345 -387 0
-356 -386 -26 -346 -388 0
-356 -386 -26 346 388 0
-356 -386 26 -346 388 0
-356 -386 26 346 -388 0
-356 -386 -27 -347 -389 0
-356 -386 -27 347 389 0
-356 -386 27 -347 389 0
-356 -386 27 347 -389 0
-356 -386 -28 -348 -390 0
-356 -386 -28 348 390 0
-356 -386 28 -348 390 0
-356 -386 28 348 -390 0
-356 -386 -29 -349 -391 0
-356 -386 -29 349 391 0
-356 -386 29 -349 391 0
-356 -386 29 349 -391 0
-356 -386 -30 -350 -392 0
-356 -386 -30 350 392 0
-356 -386 30 -350 392 0
-356 -386 30 350 -392 0
-356 -386 -31 -351 -393 0
-356 -386 -31 351 393 0
-356 -386 31 -351 393 0
-356 -386 31 351 -393 0
-356 -386 -32 -352 -394 0
-356 -386 -32 352 394 0
-356 -386 32 -352 394 0
-356 -386 32 352 -394 0
-357 -375 -33 -41 -387 0
-357 -375 -33 41 387 0
-357 -375 33 -41 387 0
-357 -375 33 41 -387 0
-357 -375 -34 -42 -388 0
-357 -375 -34 42 388 0
-357 -375 34 -42 388 0
-357 -375 34 42 -388 0
-357 -375 -35 -43 -389 0
-357 -375 -35 43 389 0
-357 -375 35 -43 389 0
-357 -375 35 43 -389 0
-357 -375 -36 -44 -390 0
-357 -375 -36 44 390 0
-357 -375 36 -44 390 0
-357 -375 36 44 -390 0
-357 -375 -37 -45 -391 0
-357 -375 -37 45 391 0
-357 -375 37 -45 391 0
-357 -375 37 45 -391 0
-357 -375 -38 -46 -392 0
-357 -375 -38 46 392 0
-357 -375 38 -46 392 0
-357 -375 38 46 -392 0
-357 -375 -39 -47 -393 0
-357 -375 -39 47 393 0
-357 -375 39 -47 393 0
-357 -375 39 47 -393 0
-357 -375 -40 -48 -394 0
-357 -375 -40 48 394 0
-357 -375 40 -48 394 0
-357 -375 40 48 -394 0
-357 -376 -33 -49 -387 0
-357 -376 -33 49 387 0
-357 -376 33 -49 387 0
-357 -376 33 49 -387 0
-357 -376 -34 -50 -388 0
-357 -376 -34 50 388 0
-357 -376 34 -50 388 0
-357 -376 34 50 -388 0
-357 -376 -35 -51 -389 0
-357 -376 -35 51 389 0
-357 -376 35 -51 389 0
-357 -376 35 51 -389 0
-357 -376 -36 -52 -390 0
-357 -376 -36 52 390 0
-357 -376 36 -52 390 0
-357 -376 36 52 -390 0
-357 -376 -37 -53 -391 0
-357 -376 -37 53 391 0
-357 -376 37 -53 391 0
-357 -376 37 53 -391 0
-357 -376 -38 -54 -392 0
-357 -376 -38 54 392 0
-357 -376 38 -54 392 0
-357 -376 38 54 -392 0
-357 -376 -39 -55 -393 0
-357 -376 -39 55 393 0
-357 -376 39 -55 393 0
-357 -376 39 55 -393 0
-357 -376 -40 -56 -394 0
-357 -376 -40 56 394 0
-357 -376 40 -56 394 0
-357 -376 40 56 -394 0
-357 -377 -33 -57 -387 0
-357 -377 -33 57 387 0
-357 -377 33 -57 387 0
-357 -377 33 57 -387 0
-357 -377 -34 -58 -388 0
-357 -377 -34 58 388 0
-357 -377 34 -58 388 0
-357 -377 34 58 -388 0
-357 -377 -35 -59 -389 0
-357 -377 -35 59 389 0
-357 -377 35 -59 389 0
-357 -377 35 59 -389 0
-357 -377 -36 -60 -390 0
-357 -377 -36 60 390 0
-357 -377 36 -60 390 0
-357 -377 36 60 -390 0
-357 -377 -37 -61 -391 0
-357 -377 -37 61 391 0
-357 -377 37 -61 391 0
-357 -377 37 61 -391 0
-357 -377 -38 -62 -392 0
-357 -377 -38 62 392 0
-357 -377 38 -62 392 0
-357 -377 38 62 -392 0
-357 -377 -39 -63 -393 0
-357 -377 -39 63 393 0
-357 -377 39 -63 393 0
-357 -377 39 63 -393 0
-357 -377 -40 -64 -394 0
-357 -377 -40 64 394 0
-357 -377 40 -64 394 0
-357 -377 40 64 -394 0
-357 -378 -33 -81 -387 0
-357 -378 -33 81 387 0
-357 -378 33 -81 387 0
-357 -378 33 81 -387 0
-357 -378 -34 -82 -388 0
-357 -378 -34 82 388 0
-357 -378 34 -82 388 0
-357 -378 34 82 -388 0
-357 -378 -35 -83 -389 0
-357 -378 -35 83 389 0
-357 -378 35 -83 389 0
-357 -378 35 83 -389 0
-357 -378 -36 -84 -390 0
-357 -378 -36 84 390 0
-357 -378 36 -84 390 0
-357 -378 36 84 -390 0
-357 -378 -37 -85 -391 0
-357 -378 -37 85 391 0
-357 -378 37 -85 391 0
-357 -378 37 85 -391 0
-357 -378 -38 -86 -392 0
-357 -378 -38 86 392 0
-357 -378 38 -86 392 0
-357 -378 38 86 -392 0
-357 -378 -39 -87 -393 0
-357 -378 -39 87 393 0
-357 -378 39 -87 393 0
-357 -378 39 87 -393 0
-357 -378 -40 -88 -394 0
-357 -378 -40 88 394 0
-357 -378 40 -88 394 0
-357 -378 40 88 -394 0
-357 -379 -33 -107 -387 0
-357 -379 -33 107 387 0
-357 -379 33 -107 387 0
-357 -379 33 107 -387 0
-357 -379 -34 -108 -388 0
-357 -379 -34 108 388 0
-357 -379 34 -108 388 0
-357 -379 34 108 -388 0
-357 -379 -35 -109 -389 0
-357 -379 -35 109 389 0
-357 -379 35 -109 389 0
-357 -379 35 109 -389 0
-357 -379 -36 -110 -390 0
-357 -379 -36 110 390 0
-357 -379 36 -110 390 0
-357 -379 36 110 -390 0
-357 -379 -37 -111 -391 0
-357 -379 -37 111 391 0
-357 -379 37 -111 391 0
-357 -379 37 111 -391 0
-357 -379 -38 -112 -392 0
-357 -379 -38 112 392 0
-357 -379 38 -112 392 0
-357 -379 38 112 -392 0
-357 -379 -39 -113 -393 0
-357 -379 -39 113 393 0
-357 -379 39 -113 393 0
-357 -379 39 113 -393 0
-357 -379 -40 -114 -394 0
-357 -379 -40 114 394 0
-357 -379 40 -114 394 0
-357 -379 40 114 -394 0
-357 -380 -33 -135 -387 0
-357 -380 -33 135 387 0
-357 -380 33 -135 387 0
-357 -380 33 135 -387 0
-357 -380 -34 -136 -388 0
-357 -380 -34 136 388 0
-357 -380 34 -136 388 0
-357 -380 34 136 -388 0
-357 -380 -35 -137 -389 0
-357 -380 -35 137 389 0
-357 -380 35 -137 389 0
-357 -380 35 137 -389 0
-357 -380 -36 -138 -390 0
-357 -380 -36 138 390 0
-357 -380 36 -138 390 0
-357 -380 36 138 -390 0
-357 -380 -37 -139 -391 0
-357 -380 -37 139 391 0
-357 -380 37 -139 391 0
-357 -380 37 139 -391 0
-357 -380 -38 -140 -392 0
-357 -380 -38 140 392 0
-357 -380 38 -140 392 0
-357 -380 38 140 -392 0
-357 -380 -39 -141 -393 0
-357 -380 -39 141 393 0
-357 -380 39 -141 393 0
-357 -380 39 141 -393 0
-357 -380 -40 -142 -394 0
-357 -380 -40 142 394 0
-357 -380 40 -142 394 0
-357 -380 40 142 -394 0
-357 -381 -33 -165 -387 0
-357 -381 -33 165 387 0
-357 -381 33 -165 387 0
-357 -381 33 165 -387 0
-357 -381 -34 -166 -388 0
-357 -381 -34 166 388 0
-357 -381 34 -166 388 0
-357 -381 34 166 -388 0
-357 -381 -35 -167 -389 0
-357 -381 -35 167 389 0
-357 -381 35 -167 389 0
-357 -381 35 167 -389 0
-357 -381 -36 -168 -390 0
-357 -381 -36 168 390 0
-357 -381 36 -168 390 0
-357 -381 36 168 -390 0
-357 -381 -37 -169 -391 0
-357 -381 -37 169 391 0
-357 -381 37 -169 391 0
-357 -381 37 169 -391 0
-357 -381 -38 -170 -392 0
-357 -381 -38 170 392 0
-357 -381 38 -170 392 0
-357 -381 38 170 -392 0
-357 -381 -39 -171 -393 0
-357 -381 -39 171 393 0
-357 -381 39 -171 393 0
-357 -381 39 171 -393 0
-357 -381 -40 -172 -394 0
-357 -381 -40 172 394 0
-357 -381 40 -172 394 0
-357 -381 40 172 -394 0
-357 -382 -33 -197 -387 0
-357 -382 -33 197 387 0
-357 -382 33 -197 387 0
-357 -382 33 197 -387 0
-357 -382 -34 -198 -388 0
-357 -382 -34 198 388 0
-357 -382 34 -198 388 0
-357 -382 34 198 -388 0
-357 -382 -35 -199 -389 0
-357 -382 -35 199 389 0
-357 -382 35 -199 389 0
-357 -382 35 199 -389 0
-357 -382 -36 -200 -390 0
-357 -382 -36 200 390 0
-357 -382 36 -200 390 0
-357 -382 36 200 -390 0
-357 -382 -37 -201 -391 0
-357 -382 -37 201 391 0
-357 -382 37 -201 391 0
-357 -382 37 201 -391 0
-357 -382 -38 -202 -392 0
-357 -382 -38 202 392 0
-357 -382 38 -202 392 0
-357 -382 38 202 -392 0
-357 -382 -39 -203 -393 0
-357 -382 -39 203 393 0
-357 -382 39 -203 393 0
-357 -382 39 203 -393 0
-357 -382 -40 -204 -394 0
-357 -382 -40 204 394 0
-357 -382 40 -204 394 0
-357 -382 40 204 -394 0
-357 -383 -33 -231 -387 0
-357 -383 -33 231 387 0
-357 -383 33 -231 387 0
-357 -383 33 231 -387 0
-357 -383 -34 -232 -388 0
-357 -383 -34 232 388 0
-357 -383 34 -232 388 0
-357 -383 34 232 -388 0
-357 -383 -35 -233 -389 0
-357 -383 -35 233 389 0
-357 -383 35 -233 389 0
-357 -383 35 233 -389 0
-357 -383 -36 -234 -390 0
-357 -383 -36 234 390 0
-357 -383 36 -234 390 0
-357 -383 36 234 -390 0
-357 -383 -37 -235 -391 0
-357 -383 -37 235 391 0
-357 -383 37 -235 391 0
-357 -383 37 235 -391 0
-357 -383 -38 -236 -392 0
-357 -383 -38 236 392 0
-357 -383 38 -236 392 0
-357 -383 38 236 -392 0
-357 -383 -39 -237 -393 0
-357 -383 -39 237 393 0
-357 -383 39 -237 393 0
-357 -383 39 237 -393 0
-357 -383 -40 -238 -394 0
-357 -383 -40 238 394 0
-357 -383 40 -238 394 0
-357 -383 40 238 -394 0
-357 -384 -33 -267 -387 0
-357 -384 -33 267 387 0
-357 -384 33 -267 387 0
-357 -384 33 267 -387 0
-357 -384 -34 -268 -388 0
-357 -384 -34 268 388 0
-357 -384 34 -268 388 0
-357 -384 34 268 -388 0
-357 -384 -35 -269 -389 0
-357 -384 -35 269 389 0
-357 -384 35 -269 389 0
-357 -384 35 269 -389 0
-357 -384 -36 -270 -390 0
-357 -384 -36 270 390 0
-357 -384 36 -270 390 0
-357 -384 36 270 -390 0
-357 -384 -37 -271 -391 0
-357 -384 -37 271 391 0
-357 -384 37 -271 391 0
-357 -384 37 271 -391 0
-357 -384 -38 -272 -392 0
-357 -384 -38 272 392 0
-357 -384 38 -272 392 0
-357 -384 38 272 -392 0
-357 -384 -39 -273 -393 0
-357 -384 -39 273 393 0
-357 -384 39 -273 393 0
-357 -384 39 273 -393 0
-357 -384 -40 -274 -394 0
-357 -384 -40 274 394 0
-357 -384 40 -274 394 0
-357 -384 40 274 -394 0
-357 -385 -33 -305 -387 0
-357 -385 -33 305 387 0
-357 -385 33 -305 387 0
-357 -385 33 305 -387 0
-357 -385 -34 -306 -388 0
-357 -385 -34 306 388 0
-357 -385 34 -306 388 0
-357 -385 34 306 -388 0
-357 -385 -35 -307 -389 0
-357 -385 -35 307 389 0
-357 -385 35 -307 389 0
-357 -385 35 307 -389 0
-357 -385 -36 -308 -390 0
-357 -385 -36 308 390 0
-357 -385 36 -308 390 0
-357 -385 36 308 -390 0
-357 -385 -37 -309 -391 0
-357 -385 -37 309 391 0
-357 -385 37 -309 391 0
-357 -385 37 309 -391 0
-357 -385 -38 -310 -392 0
-357 -385 -38 310 392 0
-357 -385 38 -310 392 0
-357 -385 38 310 -392 0
-357 -385 -39 -311 -393 0
-357 -385 -39 311 393 0
-357 -385 39 -311 393 0
-357 -385 39 311 -393 0
-357 -385 -40 -312 -394 0
-357 -385 -40 312 394 0
-357 -385 40 -312 394 0
-357 -385 40 312 -394 0
-357 -386 -33 -345 -387 0
-357 -386 -33 345 387 0
-357 -386 33 -345 387 0
-357 -386 33 345 -387 0
-357 -386 -34 -346 -388 0
-357 -386 -34 346 388 0
-357 -386 34 -346 388 0
-357 -386 34 346 -388 0
-357 -386 -35 -347 -389 0
-357 -386 -35 347 389 0
-357 -386 35 -347 389 0
-357 -386 35 347 -389 0
-357 -386 -36 -348 -390 0
-357 -386 -36 348 390 0
-357 -386 36 -348 390 0
-357 -386 36 348 -390 0
-357 -386 -37 -349 -391 0
-357 -386 -37 349 391 0
-357 -386 37 -349 391 0
-357 -386 37 349 -391 0
-357 -386 -38 -350 -392 0
-357 -386 -38 350 392 0
-357 -386 38 -350 392 0
-357 -386 38 350 -392 0
-357 -386 -39 -351 -393 0
-357 -386 -39 351 393 0
-357 -386 39 -351 393 0
-357 -386 39 351 -393 0
-357 -386 -40 -352 -394 0
-357 -386 -40 352 394 0
-357 -386 40 -352 394 0
-357 -386 40 352 -394 0
-358 -376 -41 -49 -387 0
-358 -376 -41 49 387 0
-358 -376 41 -49 387 0
-358 -376 41 49 -387 0
-358 -376 -42 -50 -388 0
-358 -376 -42 50 388 0
-358 -376 42 -50 388 0
-358 -376 42 50 -388 0
-358 -376 -43 -51 -389 0
-358 -376 -43 51 389 0
-358 -376 43 -51 389 0
-358 -376 43 51 -389 0
-358 -376 -44 -52 -390 0
-358 -376 -44 52 390 0
-358 -376 44 -52 390 0
-358 -376 44 52 -390 0
-358 -376 -45 -53 -391 0
-358 -376 -45 53 391 0
-358 -376 45 -53 391 0
-358 -376 45 53 -391 0
-358 -376 -46 -54 -392 0
-358 -376 -46 54 392 0
-358 -376 46 -54 392 0
-358 -376 46 54 -392 0
-358 -376 -47 -55 -393 0
-358 -376 -47 55 393 0
-358 -376 47 -55 393 0
-358 -376 47 55 -393 0
-358 -376 -48 -56 -394 0
-358 -376 -48 56 394 0
-358 -376 48 -56 394 0
-358 -376 48 56 -394 0
-358 -377 -41 -57 -387 0
-358 -377 -41 57 387 0
-358 -377 41 -57 387 0
-358 -377 41 57 -387 0
-358 -377 -42 -58 -388 0
-358 -377 -42 58 388 0
-358 -377 42 -58 388 0
-358 -377 42 58 -388 0
-358 -377 -43 -59 -389 0
-358 -377 -43 59 389 0
-358 -377 43 -59 389 0
-358 -377 43 59 -389 0
-358 -377 -44 -60 -390 0
-358 -377 -44 60 390 0
-358 -377 44 -60 390 0
-358 -377 44 60 -390 0
-358 -377 -45 -61 -391 0
-358 -377 -45 61 391 0
-358 -377 45 -61 391 0
-358 -377 45 61 -391 0
-358 -377 -46 -62 -392 0
-358 -377 -46 62 392 0
-358 -377 46 -62 392 0
-358 -377 46 62 -392 0
-358 -377 -47 -63 -393 0
-358 -377 -47 63 393 0
-358 -377 47 -63 393 0
-358 -377 47 63 -393 0
-358 -377 -48 -64 -394 0
-358 -377 -48 64 394 0
-358 -377 48 -64 394 0
-358 -377 48 64 -394 0
-358 -378 -41 -81 -387 0
-358 -378 -41 81 387 0
-358 -378 41 -81 387 0
-358 -378 41 81 -387 0
-358 -378 -42 -82 -388 0
-358 -378 -42 82 388 0
-358 -378 42 -82 388 0
-358 -378 42 82 -388 0
-358 -378 -43 -83 -389 0
-358 -378 -43 83 389 0
-358 -378 43 -83 389 0
-358 -378 43 83 -389 0
-358 -378 -44 -84 -390 0
-358 -378 -44 84 390 0
-358 -378 44 -84 390 0
-358 -378 44 84 -390 0
-358 -378 -45 -85 -391 0
-358 -378 -45 85 391 0
-358 -378 45 -85 391 0
-358 -378 45 85 -391 0
-358 -378 -46 -86 -392 0
-358 -378 -46 86 392 0
-358 -378 46 -86 392 0
-358 -378 46 86 -392 0
-358 -378 -47 -87 -393 0
-358 -378 -47 87 393 0
-358 -378 47 -87 393 0
-358 -378 47 87 -393 0
-358 -378 -48 -88 -394 0
-358 -378 -48 88 394 0
-358 -378 48 -88 394 0
-358 -378 48 88 -394 0
-358 -379 -41 -107 -387 0
-358 -379 -41 107 387 0
-358 -379 41 -107 387 0
-358 -379 41 107 -387 0
-358 -379 -42 -108 -388 0
-358 -379 -42 108 388 0
-358 -379 42 -108 388 0
-358 -379 42 108 -388 0
-358 -379 -43 -109 -389 0
-358 -379 -43 109 389 0
-358 -379 43 -109 389 0
-358 -379 43 109 -389 0
-358 -379 -44 -110 -390 0
-358 -379 -44 110 390 0
-358 -379 44 -110 390 0
-358 -379 44 110 -390 0
-358 -379 -45 -111 -391 0
-358 -379 -45 111 391 0
-358 -379 45 -111 391 0
-358 -379 45 111 -391 0
-358 -379 -46 -112 -392 0
-358 -379 -46 112 392 0
-358 -379 46 -112 392 0
-358 -379 46 112 -392 0
-358 -379 -47 -113 -393 0
-358 -379 -47 113 393 0
-358 -379 47 -113 393 0
-358 -379 47 113 -393 0
-358 -379 -48 -114 -394 0
-358 -379 -48 114 394 0
-358 -379 48 -114 394 0
-358 -379 48 114 -394 0
-358 -380 -41 -135 -387 0
-358 -380 -41 135 387 0
-358 -380 41 -135 387 0
-358 -380 41 135 -387 0
-358 -380 -42 -136 -388 0
-358 -380 -42 136 388 0
-358 -380 42 -136 388 0
-358 -380 42 136 -388 0
-358 -380 -43 -137 -389 0
-358 -380 -43 137 389 0
-358 -380 43 -137 389 0
-358 -380 43 137 -389 0
-358 -380 -44 -138 -390 0
-358 -380 -44 138 390 0
-358 -380 44 -138 390 0
-358 -380 44 138 -390 0
-358 -380 -45 -139 -391 0
-358 -380 -45 139 391 0
-358 -380 45 -139 391 0
-358 -380 45 139 -391 0
-358 -380 -46 -140 -392 0
-358 -380 -46 140 392 0
-358 -380 46 -140 392 0
-358 -380 46 140 -392 0
-358 -380 -47 -141 -393 0
-358 -380 -47 141 393 0
-358 -380 47 -141 393 0
-358 -380 47 141 -393 0
-358 -380 -48 -142 -394 0
-358 -380 -48 142 394 0
-358 -380 48 -142 394 0
-358 -380 48 142 -394 0
-358 -381 -41 -165 -387 0
-358 -381 -41 165 387 0
-358 -381 41 -165 387 0
-358 -381 41 165 -387 0
-358 -381 -42 -166 -388 0
-358 -381 -42 166 388 0
-358 -381 42 -166 388 0
-358 -381 42 166 -388 0
-358 -381 -43 -167 -389 0
-358 -381 -43 167 389 0
-358 -381 43 -167 389 0
-358 -381 43 167 -389 0
-358 -381 -44 -168 -390 0
-358 -381 -44 168 390 0
-358 -381 44 -168 390 0
-358 -381 44 168 -390 0
-358 -381 -45 -169 -391 0
-358 -381 -45 169 391 0
-358 -381 45 -169 391 0
-358 -381 45 169 -391 0
-358 -381 -46 -170 -392 0
-358 -381 -46 170 392 0
-358 -381 46 -170 392 0
-358 -381 46 170 -392 0
-358 -381 -47 -171 -393 0
-358 -381 -47 171 393 0
-358 -381 47 -171 393 0
-358 -381 47 171 -393 0
-358 -381 -48 -172 -394 0
-358 -381 -48 172 394 0
-358 -381 48 -172 394 0
-358 -381 48 172 -394 0
-358 -382 -41 -197 -387 0
-358 -382 -41 197 387 0
-358 -382 41 -197 387 0
-358 -382 41 197 -387 0
-358 -382 -42 -198 -388 0
-358 -382 -42 198 388 0
-358 -382 42 -198 388 0
-358 -382 42 198 -388 0
-358 -382 -43 -199 -389 0
-358 -382 -43 199 389 0
-358 -382 43 -199 389 0
-358 -382 43 199 -389 0
-358 -382 -44 -200 -390 0
-358 -382 -44 200 390 0
-358 -382 44 -200 390 0
-358 -382 44 200 -390 0
-358 -382 -45 -201 -391 0
-358 -382 -45 201 391 0
-358 -382 45 -201 391 0
-358 -382 45 201 -391 0
-358 -382 -46 -202 -392 0
-358 -382 -46 202 392 0
-358 -382 46 -202 392 0
-358 -382 46 202 -392 0
-358 -382 -47 -203 -393 0
-358 -382 -47 203 393 0
-358 -382 47 -203 393 0
-358 -382 47 203 -393 0
-358 -382 -48 -204 -394 0
-358 -382 -48 204 394 0
-358 -382 48 -204 394 0
-358 -382 48 204 -394 0
-358 -383 -41 -231 -387 0
-358 -383 -41 231 387 0
-358 -383 41 -231 387 0
-358 -383 41 231 -387 0
-358 -383 -42 -232 -388 0
-358 -383 -42 232 388 0
-358 -383 42 -232 388 0
-358 -383 42 232 -388 0
-358 -383 -43 -233 -389 0
-358 -383 -43 233 389 0
-358 -383 43 -233 389 0
-358 -383 43 233 -389 0
-358 -383 -44 -234 -390 0
-358 -383 -44 234 390 0
-358 -383 44 -234 390 0
-358 -383 44 234 -390 0
-358 -383 -45 -235 -391 0
-358 -383 -45 235 391 0
-358 -383 45 -235 391 0
-358 -383 45 235 -391 0
-358 -383 -46 -236 -392 0
-358 -383 -46 236 392 0
-358 -383 46 -236 392 0
-358 -383 46 236 -392 0
-358 -383 -47 -237 -393 0
-358 -383 -47 237 393 0
-358 -383 47 -237 393 0
-358 -383 47 237 -393 0
-358 -383 -48 -238 -394 0
-358 -383 -48 238 394 0
-358 -383 48 -238 394 0
-358 -383 48 238 -394 0
-358 -384 -41 -267 -387 0
-358 -384 -41 267 387 0
-358 -384 41 -267 387 0
-358 -384 41 267 -387 0
-358 -384 -42 -268 -388 0
-358 -384 -42 268 388 0
-358 -384 42 -268 388 0
-358 -384 42 268 -388 0
-358 -384 -43 -269 -389 0
-358 -384 -43 269 389 0
-358 -384 43 -269 389 0
-358 -384 43 269 -389 0
-358 -384 -44 -270 -390 0
-358 -384 -44 270 390 0
-358 -384 44 -270 390 0
-358 -384 44 270 -390 0
-358 -384 -45 -271 -391 0
-358 -384 -45 271 391 0
-358 -384 45 -271 391 0
-358 -384 45 271 -391 0
-358 -384 -46 -272 -392 0
-358 -384 -46 272 392 0
-358 -384 46 -272 392 0
-358 -384 46 272 -392 0
-358 -384 -47 -273 -393 0
-358 -384 -47 273 393 0
-358 -384 47 -273 393 0
-358 -384 47 273 -393 0
-358 -384 -48 -274 -394 0
-358 -384 -48 274 394 0
-358 -384 48 -274 394 0
-358 -384 48 274 -394 0
-358 -385 -41 -305 -387 0
-358 -385 -41 305 387 0
-358 -385 41 -305 387 0
-358 -385 41 305 -387 0
-358 -385 -42 -306 -388 0
-358 -385 -42 306 388 0
-358 -385 42 -306 388 0
-358 -385 42 306 -388 0
-358 -385 -43 -307 -389 0
-358 -385 -43 307 389 0
-358 -385 43 -307 389 0
-358 -385 43 307 -389 0
-358 -385 -44 -308 -390 0
-358 -385 -44 308 390 0
-358 -385 44 -308 390 0
-358 -385 44 308 -390 0
-358 -385 -45 -309 -391 0
-358 -385 -45 309 391 0
-358 -385 45 -309 391 0
-358 -385 45 309 -391 0
-358 -385 -46 -310 -392 0
-358 -385 -46 310 392 0
-358 -385 46 -310 392 0
-358 -385 46 310 -392 0
-358 -385 -47 -311 -393 0
-358 -385 -47 311 393 0
-358 -385 47 -311 393 0
-358 -385 47 311 -393 0
-358 -385 -48 -312 -394 0
-358 -385 -48 312 394 0
-358 -385 48 -312 394 0
-358 -385 48 312 -394 0
-358 -386 -41 -345 -387 0
-358 -386 -41 345 387 0
-358 -386 41 -345 387 0
-358 -386 41 345 -387 0
-358 -386 -42 -346 -388 0
-358 -386 -42 346 388 0
-358 -386 42 -346 388 0
-358 -386 42 346 -388 0
-358 -386 -43 -347 -389 0
-358 -386 -43 347 389 0
-358 -386 43 -347 389 0
-358 -386 43 347 -389 0
-358 -386 -44 -348 -390 0
-358 -386 -44 348 390 0
-358 -386 44 -348 390 0
-358 -386 44 348 -390 0
-358 -386 -45 -349 -391 0
-358 -386 -45 349 391 0
-358 -386 45 -349 391 0
-358 -386 45 349 -391 0
-358 -386 -46 -350 -392 0
-358 -386 -46 350 392 0
-358 -386 46 -350 392 0
-358 -386 46 350 -392 0
-358 -386 -47 -351 -393 0
-358 -386 -47 351 393 0
-358 -386 47 -351 393 0
-358 -386 47 351 -393 0
-358 -386 -48 -352 -394 0
-358 -386 -48 352 394 0
-358 -386 48 -352 394 0
-358 -386 48 352 -394 0
-359 -377 -49 -57 -387 0
-359 -377 -49 57 387 0
-359 -377 49 -57 387 0
-359 -377 49 57 -387 0
-359 -377 -50 -58 -388 0
-359 -377 -50 58 388 0
-359 -377 50 -58 388 0
-359 -377 50 58 -388 0
-359 -377 -51 -59 -389 0
-359 -377 -51 59 389 0
-359 -377 51 -59 389 0
-359 -377 51 59 -389 0
-359 -377 -52 -60 -390 0
-359 -377 -52 60 390 0
-359 -377 52 -60 390 0
-359 -377 52 60 -390 0
-359 -377 -53 -61 -391 0
-359 -377 -53 61 391 0
-359 -377 53 -61 391 0
-359 -377 53 61 -391 0
-359 -377 -54 -62 -392 0
-359 -377 -54 62 392 0
-359 -377 54 -62 392 0
-359 -377 54 62 -392 0
-359 -377 -55 -63 -393 0
-359 -377 -55 63 393 0
-359 -377 55 -63 393 0
-359 -377 55 63 -393 0
-359 -377 -56 -64 -394 0
-359 -377 -56 64 394 0
-359 -377 56 -64 394 0
-359 -377 56 64 -394 0
-359 -378 -49 -81 -387 0
-359 -378 -49 81 387 0
-359 -378 49 -81 387 0
-359 -378 49 81 -387 0
-359 -378 -50 -82 -388 0
-359 -378 -50 82 388 0
-359 -378 50 -82 388 0
-359 -378 50 82 -388 0
-359 -378 -51 -83 -389 0
-359 -378 -51 83 389 0
-359 -378 51 -83 389 0
-359 -378 51 83 -389 0
-359 -378 -52 -84 -390 0
-359 -378 -52 84 390 0
-359 -378 52 -84 390 0
-359 -378 52 84 -390 0
-359 -378 -53 -85 -391 0
-359 -378 -53 85 391 0
-359 -378 53 -85 391 0
-359 -378 53 85 -391 0
-359 -378 -54 -86 -392 0
-359 -378 -54 86 392 0
-359 -378 54 -86 392 0
-359 -378 54 86 -392 0
-359 -378 -55 -87 -393 0
-359 -378 -55 87 393 0
-359 -378 55 -87 393 0
-359 -378 55 87 -393 0
-359 -378 -56 -88 -394 0
-359 -378 -56 88 394 0
-359 -378 56 -88 394 0
-359 -378 56 88 -394 0
-359 -379 -49 -107 -387 0
-359 -379 -49 107 387 0
-359 -379 49 -107 387 0
-359 -379 49 107 -387 0
-359 -379 -50 -108 -388 0
-359 -379 -50 108 388 0
-359 -379 50 -108 388 0
-359 -379 50 108 -388 0
-359 -379 -51 -109 -389 0
-359 -379 -51 109 389 0
-359 -379 51 -109 389 0
-359 -379 51 109 -389 0
-359 -379 -52 -110 -390 0
-359 -379 -52 110 390 0
-359 -379 52 -110 390 0
-359 -379 52 110 -390 0
-359 -379 -53 -111 -391 0
-359 -379 -53 111 391 0
-359 -379 53 -111 391 0
-359 -379 53 111 -391 0
-359 -379 -54 -112 -392 0
-359 -379 -54 112 392 0
-359 -379 54 -112 392 0
-359 -379 54 112 -392 0
-359 -379 -55 -113 -393 0
-359 -379 -55 113 393 0
-359 -379 55 -113 393 0
-359 -379 55 113 -393 0
-359 -379 -56 -114 -394 0
-359 -379 -56 114 394 0
-359 -379 56 -114 394 0
-359 -379 56 114 -394 0
-359 -380 -49 -135 -387 0
-359 -380 -49 135 387 0
-359 -380 49 -135 387 0
-359 -380 49 135 -387 0
-359 -380 -50 -136 -388 0
-359 -380 -50 136 388 0
-359 -380 50 -136 388 0
-359 -380 50 136 -388 0
-359 -380 -51 -137 -389 0
-359 -380 -51 137 389 0
-359 -380 51 -137 389 0
-359 -380 51 137 -389 0
-359 -380 -52 -138 -390 0
-359 -380 -52 138 390 0
-359 -380 52 -138 390 0
-359 -380 52 138 -390 0
-359 -380 -53 -139 -391 0
-359 -380 -53 139 391 0
-359 -380 53 -139 391 0
-359 -380 53 139 -391 0
-359 -380 -54 -140 -392 0
-359 -380 -54 140 392 0
-359 -380 54 -140 392 0
-359 -380 54 140 -392 0
-359 -380 -55 -141 -393 0
-359 -380 -55 141 393 0
-359 -380 55 -141 393 0
-359 -380 55 141 -393 0
-359 -380 -56 -142 -394 0
-359 -380 -56 142 394 0
-359 -380 56 -142 394 0
-359 -380 56 142 -394 0
-359 -381 -49 -165 -387 0
-359 -381 -49 165 387 0
-359 -381 49 -165 387 0
-359 -381 49 165 -387 0
-359 -381 -50 -166 -388 0
-359 -381 -50 166 388 0
-359 -381 50 -166 388 0
-359 -381 50 166 -388 0
-359 -381 -51 -167 -389 0
-359 -381 -51 167 389 0
-359 -381 51 -167 389 0
-359 -381 51 167 -389 0
-359 -381 -52 -168 -390 0
-359 -381 -52 168 390 0
-359 -381 52 -168 390 0
-359 -381 52 168 -390 0
-359 -381 -53 -169 -391 0
-359 -381 -53 169 391 0
-359 -381 53 -169 391 0
-359 -381 53 169 -391 0
-359 -381 -54 -170 -392 0
-359 -381 -54 170 392 0
-359 -381 54 -170 392 0
-359 -381 54 170 -392 0
-359 -381 -55 -171 -393 0
-359 -381 -55 171 393 0
-359 -381 55 -171 393 0
-359 -381 55 171 -393 0
-359 -381 -56 -172 -394 0
-359 -381 -56 172 394 0
-359 -381 56 -172 394 0
-359 -381 56 172 -394 0
-359 -382 -49 -197 -387 0
-359 -382 -49 197 387 0
-359 -382 49 -197 387 0
-359 -382 49 197 -387 0
-359 -382 -50 -198 -388 0
-359 -382 -50 198 388 0
-359 -382 50 -198 388 0
-359 -382 50 198 -388 0
-359 -382 -51 -199 -389 0
-359 -382 -51 199 389 0
-359 -382 51 -199 389 0
-359 -382 51 199 -389 0
-359 -382 -52 -200 -390 0
-359 -382 -52 200 390 0
-359 -382 52 -200 390 0
-359 -382 52 200 -390 0
-359 -382 -53 -201 -391 0
-359 -382 -53 201 391 0
-359 -382 53 -201 391 0
-359 -382 53 201 -391 0
-359 -382 -54 -202 -392 0
-359 -382 -54 202 392 0
-359 -382 54 -202 392 0
-359 -382 54 202 -392 0
-359 -382 -55 -203 -393 0
-359 -382 -55 203 393 0
-359 -382 55 -203 393 0
-359 -382 55 203 -393 0
-359 -382 -56 -204 -394 0
-359 -382 -56 204 394 0
-359 -382 56 -204 394 0
-359 -382 56 204 -394 0
-359 -383 -49 -231 -387 0
-359 -383 -49 231 387 0
-359 -383 49 -231 387 0
-359 -383 49 231 -387 0
-359 -383 -50 -232 -388 0
-359 -383 -50 232 388 0
-359 -383 50 -232 388 0
-359 -383 50 232 -388 0
-359 -383 -51 -233 -389 0
-359 -383 -51 233 389 0
-359 -383 51 -233 389 0
-359 -383 51 233 -389 0
-359 -383 -52 -234 -390 0
-359 -383 -52 234 390 0
-359 -383 52 -234 390 0
-359 -383 52 234 -390 0
-359 -383 -53 -235 -391 0
-359 -383 -53 235 391 0
-359 -383 53 -235 391 0
-359 -383 53 235 -391 0
-359 -383 -54 -236 -392 0
-359 -383 -54 236 392 0
-359 -383 54 -236 392 0
-359 -383 54 236 -392 0
-359 -383 -55 -237 -393 0
-359 -383 -55 237 393 0
-359 -383 55 -237 393 0
-359 -383 55 237 -393 0
-359 -383 -56 -238 -394 0
-359 -383 -56 238 394 0
-359 -383 56 -238 394 0
-359 -383 56 238 -394 0
-359 -384 -49 -267 -387 0
-359 -384 -49 267 387 0
-359 -384 49 -267 387 0
-359 -384 49 267 -387 0
-359 -384 -50 -268 -388 0
-359 -384 -50 268 388 0
-359 -384 50 -268 388 0
-359 -384 50 268 -388 0
-359 -384 -51 -269 -389 0
-359 -384 -51 269 389 0
-359 -384 51 -269 389 0
-359 -384 51 269 -389 0
-359 -384 -52 -270 -390 0
-359 -384 -52 270 390 0
-359 -384 52 -270 390 0
-359 -384 52 270 -390 0
-359 -384 -53 -271 -391 0
-359 -384 -53 271 391 0
-359 -384 53 -271 391 0
-359 -384 53 271 -391 0
-359 -384 -54 -272 -392 0
-359 -384 -54 272 392 0
-359 -384 54 -272 392 0
-359 -384 54 272 -392 0
-359 -384 -55 -273 -393 0
-359 -384 -55 273 393 0
-359 -384 55 -273 393 0
-359 -384 55 273 -393 0
-359 -384 -56 -274 -394 0
-359 -384 -56 274 394 0
-359 -384 56 -274 394 0
-359 -384 56 274 -394 0
-359 -385 -49 -305 -387 0
-359 -385 -49 305 387 0
-359 -385 49 -305 387 0
-359 -385 49 305 -387 0
-359 -385 -50 -306 -388 0
-359 -385 -50 306 388 0
-359 -385 50 -306 388 0
-359 -385 50 306 -388 0
-359 -385 -51 -307 -389 0
-359 -385 -51 307 389 0
-359 -385 51 -307 389 0
-359 -385 51 307 -389 0
-359 -385 -52 -308 -390 0
-359 -385 -52 308 390 0
-359 -385 52 -308 390 0
-359 -385 52 308 -390 0
-359 -385 -53 -309 -391 0
-359 -385 -53 309 391 0
-359 -385 53 -309 391 0
-359 -385 53 309 -391 0
-359 -385 -54 -310 -392 0
-359 -385 -54 310 392 0
-359 -385 54 -310 392 0
-359 -385 54 310 -392 0
-359 -385 -55 -311 -393 0
-359 -385 -55 311 393 0
-359 -385 55 -311 393 0
-359 -385 55 311 -393 0
-359 -385 -56 -312 -394 0
-359 -385 -56 312 394 0
-359 -385 56 -312 394 0
-359 -385 56 312 -394 0
-359 -386 -49 -345 -387 0
-359 -386 -49 345 387 0
-359 -386 49 -345 387 0
-359 -386 49 345 -387 0
-359 -386 -50 -346 -388 0
-359 -386 -50 346 388 0
-359 -386 50 -346 388 0
-359 -386 50 346 -388 0
-359 -386 -51 -347 -389 0
-359 -386 -51 347 389 0
-359 -386 51 -347 389 0
-359 -386 51 347 -389 0
-359 -386 -52 -348 -390 0
-359 -386 -52 348 390 0
-359 -386 52 -348 390 0
-359 -386 52 348 -390 0
-359 -386 -53 -349 -391 0
-359 -386 -53 349 391 0
-359 -386 53 -349 391 0
-359 -386 53 349 -391 0
-359 -386 -54 -350 -392 0
-359 -386 -54 350 392 0
-359 -386 54 -350 392 0
-359 -386 54 350 -392 0
-359 -386 -55 -351 -393 0
-359 -386 -55 351 393 0
-359 -386 55 -351 393 0
-359 -386 55 351 -393 0
-359 -386 -56 -352 -394 0
-359 -386 -56 352 394 0
-359 -386 56 -352 394 0
-359 -386 56 352 -394 0
-360 -378 -57 -81 -387 0
-360 -378 -57 81 387 0
-360 -378 57 -81 387 0
-360 -378 57 81 -387 0
-360 -378 -58 -82 -388 0
-360 -378 -58 82 388 0
-360 -378 58 -82 388 0
-360 -378 58 82 -388 0
-360 -378 -59 -83 -389 0
-360 -378 -59 83 389 0
-360 -378 59 -83 389 0
-360 -378 59 83 -389 0
-360 -378 -60 -84 -390 0
-360 -378 -60 84 390 0
-360 -378 60 -84 390 0
-360 -378 60 84 -390 0
-360 -378 -61 -85 -391 0
-360 -378 -61 85 391 0
-360 -378 61 -85 391 0
-360 -378 61 85 -391 0
-360 -378 -62 -86 -392 0
-360 -378 -62 86 392 0
-360 -378 62 -86 392 0
-360 -378 62 86 -392 0
-360 -378 -63 -87 -393 0
-360 -378 -63 87 393 0
-360 -378 63 -87 393 0
-360 -378 63 87 -393 0
-360 -378 -64 -88 -394 0
-360 -378 -64 88 394 0
-360 -378 64 -88 394 0
-360 -378 64 88 -394 0
-360 -379 -57 -107 -387 0
-360 -379 -57 107 387 0
-360 -379 57 -107 387 0
-360 -379 57 107 -387 0
-360 -379 -58 -108 -388 0
-360 -379 -58 108 388 0
-360 -379 58 -108 388 0
-360 -379 58 108 -388 0
-360 -379 -59 -109 -389 0
-360 -379 -59 109 389 0
-360 -379 59 -109 389 0
-360 -379 59 109 -389 0
-360 -379 -60 -110 -390 0
-360 -379 -60 110 390 0
-360 -379 60 -110 390 0
-360 -379 60 110 -390 0
-360 -379 -61 -111 -391 0
-360 -379 -61 111 391 0
-360 -379 61 -111 391 0
-360 -379 61 111 -391 0
-360 -379 -62 -112 -392 0
-360 -379 -62 112 392 0
-360 -379 62 -112 392 0
-360 -379 62 112 -392 0
-360 -379 -63 -113 -393 0
-360 -379 -63 113 393 0
-360 -379 63 -113 393 0
-360 -379 63 113 -393 0
-360 -379 -64 -114 -394 0
-360 -379 -64 114 394 0
-360 -379 64 -114 394 0
-360 -379 64 114 -394 0
-360 -380 -57 -135 -387 0
-360 -380 -57 135 387 0
-360 -380 57 -135 387 0
-360 -380 57 135 -387 0
-360 -380 -58 -136 -388 0
-360 -380 -58 136 388 0
-360 -380 58 -136 388 0
-360 -380 58 136 -388 0
-360 -380 -59 -137 -389 0
-360 -380 -59 137 389 0
-360 -380 59 -137 389 0
-360 -380 59 137 -389 0
-360 -380 -60 -138 -390 0
-360 -380 -60 138 390 0
-360 -380 60 -138 390 0
-360 -380 60 138 -390 0
-360 -380 -61 -139 -391 0
-360 -380 -61 139 391 0
-360 -380 61 -139 391 0
-360 -380 61 139 -391 0
-360 -380 -62 -140 -392 0
-360 -380 -62 140 392 0
-360 -380 62 -140 392 0
-360 -380 62 140 -392 0
-360 -380 -63 -141 -393 0
-360 -380 -63 141 393 0
-360 -380 63 -141 393 0
-360 -380 63 141 -393 0
-360 -380 -64 -142 -394 0
-360 -380 -64 142 394 0
-360 -380 64 -142 394 0
-360 -380 64 142 -394 0
-360 -381 -57 -165 -387 0
-360 -381 -57 165 387 0
-360 -381 57 -165 387 0
-360 -381 57 165 -387 0
-360 -381 -58 -166 -388 0
-360 -381 -58 166 388 0
-360 -381 58 -166 388 0
-360 -381 58 166 -388 0
-360 -381 -59 -167 -389 0
-360 -381 -59 167 389 0
-360 -381 59 -167 389 0
-360 -381 59 167 -389 0
-360 -381 -60 -168 -390 0
-360 -381 -60 168 390 0
-360 -381 60 -168 390 0
-360 -381 60 168 -390 0
-360 -381 -61 -169 -391 0
-360 -381 -61 169 391 0
-360 -381 61 -169 391 0
-360 -381 61 169 -391 0
-360 -381 -62 -170 -392 0
-360 -381 -62 170 392 0
-360 -381 62 -170 392 0
-360 -381 62 170 -392 0
-360 -381 -63 -171 -393 0
-360 -381 -63 171 393 0
-360 -381 63 -171 393 0
-360 -381 63 171 -393 0
-360 -381 -64 -172 -394 0
-360 -381 -64 172 394 0
-360 -381 64 -172 394 0
-360 -381 64 172 -394 0
-360 -382 -57 -197 -387 0
-360 -382 -57 197 387 0
-360 -382 57 -197 387 0
-360 -382 57 197 -387 0
-360 -382 -58 -198 -388 0
-360 -382 -58 198 388 0
-360 -382 58 -198 388 0
-360 -382 58 198 -388 0
-360 -382 -59 -199 -389 0
-360 -382 -59 199 389 0
-360 -382 59 -199 389 0
-360 -382 59 199 -389 0
-360 -382 -60 -200 -390 0
-360 -382 -60 200 390 0
-360 -382 60 -200 390 0
-360 -382 60 200 -390 0
-360 -382 -61 -201 -391 0
-360 -382 -61 201 391 0
-360 -382 61 -201 391 0
-360 -382 61 201 -391 0
-360 -382 -62 -202 -392 0
-360 -382 -62 202 392 0
-360 -382 62 -202 392 0
-360 -382 62 202 -392 0
-360 -382 -63 -203 -393 0
-360 -382 -63 203 393 0
-360 -382 63 -203 393 0
-360 -382 63 203 -393 0
-360 -382 -64 -204 -394 0
-360 -382 -64 204 394 0
-360 -382 64 -204 394 0
-360 -382 64 204 -394 0
-360 -383 -57 -231 -387 0
-360 -383 -57 231 387 0
-360 -383 57 -231 387 0
-360 -383 57 231 -387 0
-360 -383 -58 -232 -388 0
-360 -383 -58 232 388 0
-360 -383 58 -232 388 0
-360 -383 58 232 -388 0
-360 -383 -59 -233 -389 0
-360 -383 -59 233 389 0
-360 -383 59 -233 389 0
-360 -383 59 233 -389 0
-360 -383 -60 -234 -390 0
-360 -383 -60 234 390 0
-360 -383 60 -234 390 0
-360 -383 60 234 -390 0
-360 -383 -61 -235 -391 0
-360 -383 -61 235 391 0
-360 -383 61 -235 391 0
-360 -383 61 235 -391 0
-360 -383 -62 -236 -392 0
-360 -383 -62 236 392 0
-360 -383 62 -236 392 0
-360 -383 62 236 -392 0
-360 -383 -63 -237 -393 0
-360 -383 -63 237 393 0
-360 -383 63 -237 393 0
-360 -383 63 237 -393 0
-360 -383 -64 -238 -394 0
-360 -383 -64 238 394 0
-360 -383 64 -238 394 0
-360 -383 64 238 -394 0
-360 -384 -57 -267 -387 0
-360 -384 -57 267 387 0
-360 -384 57 -267 387 0
-360 -384 57 267 -387 0
-360 -384 -58 -268 -388 0
-360 -384 -58 268 388 0
-360 -384 58 -268 388 0
-360 -384 58 268 -388 0
-360 -384 -59 -269 -389 0
-360 -384 -59 269 389 0
-360 -384 59 -269 389 0
-360 -384 59 269 -389 0
-360 -384 -60 -270 -390 0
-360 -384 -60 270 390 0
-360 -384 60 -270 390 0
-360 -384 60 270 -390 0
-360 -384 -61 -271 -391 0
-360 -384 -61 271 391 0
-360 -384 61 -271 391 0
-360 -384 61 271 -391 0
-360 -384 -62 -272 -392 0
-360 -384 -62 272 392 0
-360 -384 62 -272 392 0
-360 -384 62 272 -392 0
-360 -384 -63 -273 -393 0
-360 -384 -63 273 393 0
-360 -384 63 -273 393 0
-360 -384 63 273 -393 0
-360 -384 -64 -274 -394 0
-360 -384 -64 274 394 0
-360 -384 64 -274 394 0
-360 -384 64 274 -394 0
-360 -385 -57 -305 -387 0
-360 -385 -57 305 387 0
-360 -385 57 -305 387 0
-360 -385 57 305 -387 0
-360 -385 -58 -306 -388 0
-360 -385 -58 306 388 0
-360 -385 58 -306 388 0
-360 -385 58 306 -388 0
-360 -385 -59 -307 -389 0
-360 -385 -59 307 389 0
-360 -385 59 -307 389 0
-360 -385 59 307 -389 0
-360 -385 -60 -308 -390 0
-360 -385 -60 308 390 0
-360 -385 60 -308 390 0
-360 -385 60 308 -390 0
-360 -385 -61 -309 -391 0
-360 -385 -61 309 391 0
-360 -385 61 -309 391 0
-360 -385 61 309 -391 0
-360 -385 -62 -310 -392 0
-360 -385 -62 310 392 0
-360 -385 62 -310 392 0
-360 -385 62 310 -392 0
-360 -385 -63 -311 -393 0
-360 -385 -63 311 393 0
-360 -385 63 -311 393 0
-360 -385 63 311 -393 0
-360 -385 -64 -312 -394 0
-360 -385 -64 312 394 0
-360 -385 64 -312 394 0
-360 -385 64 312 -394 0
-360 -386 -57 -345 -387 0
-360 -386 -57 345 387 0
-360 -386 57 -345 387 0
-360 -386 57 345 -387 0
-360 -386 -58 -346 -388 0
-360 -386 -58 346 388 0
-360 -386 58 -346 388 0
-360 -386 58 346 -388 0
-360 -386 -59 -347 -389 0
-360 -386 -59 347 389 0
-360 -386 59 -347 389 0
-360 -386 59 347 -389 0
-360 -386 -60 -348 -390 0
-360 -386 -60 348 390 0
-360 -386 60 -348 390 0
-360 -386 60 348 -390 0
-360 -386 -61 -349 -391 0
-360 -386 -61 349 391 0
-360 -386 61 -349 391 0
-360 -386 61 349 -391 0
-360 -386 -62 -350 -392 0
-360 -386 -62 350 392 0
-360 -386 62 -350 392 0
-360 -386 62 350 -392 0
-360 -386 -63 -351 -393 0
-360 -386 -63 351 393 0
-360 -386 63 -351 393 0
-360 -386 63 351 -393 0
-360 -386 -64 -352 -394 0
-360 -386 -64 352 394 0
-360 -386 64 -352 394 0
-360 -386 64 352 -394 0
-361 -379 -81 -107 -387 0
-361 -379 -81 107 387 0
-361 -379 81 -107 387 0
-361 -379 81 107 -387 0
-361 -379 -82 -108 -388 0
-361 -379 -82 108 388 0
-361 -379 82 -108 388 0
-361 -379 82 108 -388 0
-361 -379 -83 -109 -389 0
-361 -379 -83 109 389 0
-361 -379 83 -109 389 0
-361 -379 83 109 -389 0
-361 -379 -84 -110 -390 0
-361 -379 -84 110 390 0
-361 -379 84 -110 390 0
-361 -379 84 110 -390 0
-361 -379 -85 -111 -391 0
-361 -379 -85 111 391 0
-361 -379 85 -111 391 0
-361 -379 85 111 -391 0
-361 -379 -86 -112 -392 0
-361 -379 -86 112 392 0
-361 -379 86 -112 392 0
-361 -379 86 112 -392 0
-361 -379 -87 -113 -393 0
-361 -379 -87 113 393 0
-361 -379 87 -113 393 0
-361 -379 87 113 -393 0
-361 -379 -88 -114 -394 0
-361 -379 -88 114 394 0
-361 -379 88 -114 394 0
-361 -379 88 114 -394 0
-361 -380 -81 -135 -387 0
-361 -380 -81 135 387 0
-361 -380 81 -135 387 0
-361 -380 81 135 -387 0
-361 -380 -82 -136 -388 0
-361 -380 -82 136 388 0
-361 -380 82 -136 388 0
-361 -380 82 136 -388 0
-361 -380 -83 -137 -389 0
-361 -380 -83 137 389 0
-361 -380 83 -137 389 0
-361 -380 83 137 -389 0
-361 -380 -84 -138 -390 0
-361 -380 -84 138 390 0
-361 -380 84 -138 390 0
-361 -380 84 138 -390 0
-361 -380 -85 -139 -391 0
-361 -380 -85 139 391 0
-361 -380 85 -139 391 0
-361 -380 85 139 -391 0
-361 -380 -86 -140 -392 0
-361 -380 -86 140 392 0
-361 -380 86 -140 392 0
-361 -380 86 140 -392 0
-361 -380 -87 -141 -393 0
-361 -380 -87 141 393 0
-361 -380 87 -141 393 0
-361 -380 87 141 -393 0
-361 -380 -88 -142 -394 0
-361 -380 -88 142 394 0
-361 -380 88 -142 394 0
-361 -380 88 142 -394 0
-361 -381 -81 -165 -387 0
-361 -381 -81 165 387 0
-361 -381 81 -165 387 0
-361 -381 81 165 -387 0
-361 -381 -82 -166 -388 0
-361 -381 -82 166 388 0
-361 -381 82 -166 388 0
-361 -381 82 166 -388 0
-361 -381 -83 -167 -389 0
-361 -381 -83 167 389 0
-361 -381 83 -167 389 0
-361 -381 83 167 -389 0
-361 -381 -84 -168 -390 0
-361 -381 -84 168 390 0
-361 -381 84 -168 390 0
-361 -381 84 168 -390 0
-361 -381 -85 -169 -391 0
-361 -381 -85 169 391 0
-361 -381 85 -169 391 0
-361 -381 85 169 -391 0
-361 -381 -86 -170 -392 0
-361 -381 -86 170 392 0
-361 -381 86 -170 392 0
-361 -381 86 170 -392 0
-361 -381 -87 -171 -393 0
-361 -381 -87 171 393 0
-361 -381 87 -171 393 0
-361 -381 87 171 -393 0
-361 -381 -88 -172 -394 0
-361 -381 -88 172 394 0
-361 -381 88 -172 394 0
-361 -381 88 172 -394 0
-361 -382 -81 -197 -387 0
-361 -382 -81 197 387 0
-361 -382 81 -197 387 0
-361 -382 81 197 -387 0
-361 -382 -82 -198 -388 0
-361 -382 -82 198 388 0
-361 -382 82 -198 388 0
-361 -382 82 198 -388 0
-361 -382 -83 -199 -389 0
-361 -382 -83 199 389 0
-361 -382 83 -199 389 0
-361 -382 83 199 -389 0
-361 -382 -84 -200 -390 0
-361 -382 -84 200 390 0
-361 -382 84 -200 390 0
-361 -382 84 200 -390 0
-361 -382 -85 -201 -391 0
-361 -382 -85 201 391 0
-361 -382 85 -201 391 0
-361 -382 85 201 -391 0
-361 -382 -86 -202 -392 0
-361 -382 -86 202 392 0
-361 -382 86 -202 392 0
-361 -382 86 202 -392 0
-361 -382 -87 -203 -393 0
-361 -382 -87 203 393 0
-361 -382 87 -203 393 0
-361 -382 87 203 -393 0
-361 -382 -88 -204 -394 0
-361 -382 -88 204 394 0
-361 -382 88 -204 394 0
-361 -382 88 204 -394 0
-361 -383 -81 -231 -387 0
-361 -383 -81 231 387 0
-361 -383 81 -231 387 0
-361 -383 81 231 -387 0
-361 -383 -82 -232 -388 0
-361 -383 -82 232 388 0
-361 -383 82 -232 388 0
-361 -383 82 232 -388 0
-361 -383 -83 -233 -389 0
-361 -383 -83 233 389 0
-361 -383 83 -233 389 0
-361 -383 83 233 -389 0
-361 -383 -84 -234 -390 0
-361 -383 -84 234 390 0
-361 -383 84 -234 390 0
-361 -383 84 234 -390 0
-361 -383 -85 -235 -391 0
-361 -383 -85 235 391 0
-361 -383 85 -235 391 0
-361 -383 85 235 -391 0
-361 -383 -86 -236 -392 0
-361 -383 -86 236 392 0
-361 -383 86 -236 392 0
-361 -383 86 236 -392 0
-361 -383 -87 -237 -393 0
-361 -383 -87 237 393 0
-361 -383 87 -237 393 0
-361 -383 87 237 -393 0
-361 -383 -88 -238 -394 0
-361 -383 -88 238 394 0
-361 -383 88 -238 394 0
-361 -383 88 238 -394 0
-361 -384 -81 -267 -387 0
-361 -384 -81 267 387 0
-361 -384 81 -267 387 0
-361 -384 81 267 -387 0
-361 -384 -82 -268 -388 0
-361 -384 -82 268 388 0
-361 -384 82 -268 388 0
-361 -384 82 268 -388 0
-361 -384 -83 -269 -389 0
-361 -384 -83 269 389 0
-361 -384 83 -269 389 0
-361 -384 83 269 -389 0
-361 -384 -84 -270 -390 0
-361 -384 -84 270 390 0
-361 -384 84 -270 390 0
-361 -384 84 270 -390 0
-361 -384 -85 -271 -391 0
-361 -384 -85 271 391 0
-361 -384 85 -271 391 0
-361 -384 85 271 -391 0
-361 -384 -86 -272 -392 0
-361 -384 -86 272 392 0
-361 -384 86 -272 392 0
-361 -384 86 272 -392 0
-361 -384 -87 -273 -393 0
-361 -384 -87 273 393 0
-361 -384 87 -273 393 0
-361 -384 87 273 -393 0
-361 -384 -88 -274 -394 0
-361 -384 -88 274 394 0
-361 -384 88 -274 394 0
-361 -384 88 274 -394 0
-361 -385 -81 -305 -387 0
-361 -385 -81 305 387 0
-361 -385 81 -305 387 0
-361 -385 81 305 -387 0
-361 -385 -82 -306 -388 0
-361 -385 -82 306 388 0
-361 -385 82 -306 388 0
-361 -385 82 306 -388 0
-361 -385 -83 -307 -389 0
-361 -385 -83 307 389 0
-361 -385 83 -307 389 0
-361 -385 83 307 -389 0
-361 -385 -84 -308 -390 0
-361 -385 -84 308 390 0
-361 -385 84 -308 390 0
-361 -385 84 308 -390 0
-361 -385 -85 -309 -391 0
-361 -385 -85 309 391 0
-361 -385 85 -309 391 0
-361 -385 85 309 -391 0
-361 -385 -86 -310 -392 0
-361 -385 -86 310 392 0
-361 -385 86 -310 392 0
-361 -385 86 310 -392 0
-361 -385 -87 -311 -393 0
-361 -385 -87 311 393 0
-361 -385 87 -311 393 0
-361 -385 87 311 -393 0
-361 -385 -88 -312 -394 0
-361 -385 -88 312 394 0
-361 -385 88 -312 394 0
-361 -385 88 312 -394 0
-361 -386 -81 -345 -387 0
-361 -386 -81 345 387 0
-361 -386 81 -345 387 0
-361 -386 81 345 -387 0
-361 -386 -82 -346 -388 0
-361 -386 -82 346 388 0
-361 -386 82 -346 388 0
-361 -386 82 346 -388 0
-361 -386 -83 -347 -389 0
-361 -386 -83 347 389 0
-361 -386 83 -347 389 0
-361 -386 83 347 -389 0
-361 -386 -84 -348 -390 0
-361 -386 -84 348 390 0
-361 -386 84 -348 390 0
-361 -386 84 348 -390 0
-361 -386 -85 -349 -391 0
-361 -386 -85 349 391 0
-361 -386 85 -349 391 0
-361 -386 85 349 -391 0
-361 -386 -86 -350 -392 0
-361 -386 -86 350 392 0
-361 -386 86 -350 392 0
-361 -386 86 350 -392 0
-361 -386 -87 -351 -393 0
-361 -386 -87 351 393 0
-361 -386 87 -351 393 0
-361 -386 87 351 -393 0
-361 -386 -88 -352 -394 0
-361 -386 -88 352 394 0
-361 -386 88 -352 394 0
-361 -386 88 352 -394 0
-362 -380 -107 -135 -387 0
-362 -380 -107 135 387 0
-362 -380 107 -135 387 0
-362 -380 107 135 -387 0
-362 -380 -108 -136 -388 0
-362 -380 -108 136 388 0
-362 -380 108 -136 388 0
-362 -380 108 136 -388 0
-362 -380 -109 -137 -389 0
-362 -380 -109 137 389 0
-362 -380 109 -137 389 0
-362 -380 109 137 -389 0
-362 -380 -110 -138 -390 0
-362 -380 -110 138 390 0
-362 -380 110 -138 390 0
-362 -380 110 138 -390 0
-362 -380 -111 -139 -391 0
-362 -380 -111 139 391 0
-362 -380 111 -139 391 0
-362 -380 111 139 -391 0
-362 -380 -112 -140 -392 0
-362 -380 -112 140 392 0
-362 -380 112 -140 392 0
-362 -380 112 140 -392 0
-362 -380 -113 -141 -393 0
-362 -380 -113 141 393 0
-362 -380 113 -141 393 0
-362 -380 113 141 -393 0
-362 -380 -114 -142 -394 0
-362 -380 -114 142 394 0
-362 -380 114 -142 394 0
-362 -380 114 142 -394 0
-362 -381 -107 -165 -387 0
-362 -381 -107 165 387 0
-362 -381 107 -165 387 0
-362 -381 107 165 -387 0
-362 -381 -108 -166 -388 0
-362 -381 -108 166 388 0
-362 -381 108 -166 388 0
-362 -381 108 166 -388 0
-362 -381 -109 -167 -389 0
-362 -381 -109 167 389 0
-362 -381 109 -167 389 0
-362 -381 109 167 -389 0
-362 -381 -110 -168 -390 0
-362 -381 -110 168 390 0
-362 -381 110 -168 390 0
-362 -381 110 168 -390 0
-362 -381 -111 -169 -391 0
-362 -381 -111 169 391 0
-362 -381 111 -169 391 0
-362 -381 111 169 -391 0
-362 -381 -112 -170 -392 0
-362 -381 -112 170 392 0
-362 -381 112 -170 392 0
-362 -381 112 170 -392 0
-362 -381 -113 -171 -393 0
-362 -381 -113 171 393 0
-362 -381 113 -171 393 0
-362 -381 113 171 -393 0
-362 -381 -114 -172 -394 0
-362 -381 -114 172 394 0
-362 -381 114 -172 394 0
-362 -381 114 172 -394 0
-362 -382 -107 -197 -387 0
-362 -382 -107 197 387 0
-362 -382 107 -197 387 0
-362 -382 107 197 -387 0
-362 -382 -108 -198 -388 0
-362 -382 -108 198 388 0
-362 -382 108 -198 388 0
-362 -382 108 198 -388 0
-362 -382 -109 -199 -389 0
-362 -382 -109 199 389 0
-362 -382 109 -199 389 0
-362 -382 109 199 -389 0
-362 -382 -110 -200 -390 0
-362 -382 -110 200 390 0
-362 -382 110 -200 390 0
-362 -382 110 200 -390 0
-362 -382 -111 -201 -391 0
-362 -382 -111 201 391 0
-362 -382 111 -201 391 0
-362 -382 111 201 -391 0
-362 -382 -112 -202 -392 0
-362 -382 -112 202 392 0
-362 -382 112 -202 392 0
-362 -382 112 202 -392 0
-362 -382 -113 -203 -393 0
-362 -382 -113 203 393 0
-362 -382 113 -203 393 0
-362 -382 113 203 -393 0
-362 -382 -114 -204 -394 0
-362 -382 -114 204 394 0
-362 -382 114 -204 394 0
-362 -382 114 204 -394 0
-362 -383 -107 -231 -387 0
-362 -383 -107 231 387 0
-362 -383 107 -231 387 0
-362 -383 107 231 -387 0
-362 -383 -108 -232 -388 0
-362 -383 -108 232 388 0
-362 -383 108 -232 388 0
-362 -383 108 232 -388 0
-362 -383 -109 -233 -389 0
-362 -383 -109 233 389 0
-362 -383 109 -233 389 0
-362 -383 109 233 -389 0
-362 -383 -110 -234 -390 0
-362 -383 -110 234 390 0
-362 -383 110 -234 390 0
-362 -383 110 234 -390 0
-362 -383 -111 -235 -391 0
-362 -383 -111 235 391 0
-362 -383 111 -235 391 0
-362 -383 111 235 -391 0
-362 -383 -112 -236 -392 0
-362 -383 -112 236 392 0
-362 -383 112 -236 392 0
-362 -383 112 236 -392 0
-362 -383 -113 -237 -393 0
-362 -383 -113 237 393 0
-362 -383 113 -237 393 0
-362 -383 113 237 -393 0
-362 -383 -114 -238 -394 0
-362 -383 -114 238 394 0
-362 -383 114 -238 394 0
-362 -383 114 238 -394 0
-362 -384 -107 -267 -387 0
-362 -384 -107 267 387 0
-362 -384 107 -267 387 0
-362 -384 107 267 -387 0
-362 -384 -108 -268 -388 0
-362 -384 -108 268 388 0
-362 -384 108 -268 388 0
-362 -384 108 268 -388 0
-362 -384 -109 -269 -389 0
-362 -384 -109 269 389 0
-362 -384 109 -269 389 0
-362 -384 109 269 -389 0
-362 -384 -110 -270 -390 0
-362 -384 -110 270 390 0
-362 -384 110 -270 390 0
-362 -384 110 270 -390 0
-362 -384 -111 -271 -391 0
-362 -384 -111 271 391 0
-362 -384 111 -271 391 0
-362 -384 111 271 -391 0
-362 -384 -112 -272 -392 0
-362 -384 -112 272 392 0
-362 -384 112 -272 392 0
-362 -384 112 272 -392 0
-362 -384 -113 -273 -393 0
-362 -384 -113 273 393 0
-362 -384 113 -273 393 0
-362 -384 113 273 -393 0
-362 -384 -114 -274 -394 0
-362 -384 -114 274 394 0
-362 -384 114 -274 394 0
-362 -384 114 274 -394 0
-362 -385 -107 -305 -387 0
-362 -385 -107 305 387 0
-362 -385 107 -305 387 0
-362 -385 107 305 -387 0
-362 -385 -108 -306 -388 0
-362 -385 -108 306 388 0
-362 -385 108 -306 388 0
-362 -385 108 306 -388 0
-362 -385 -109 -307 -389 0
-362 -385 -109 307 389 0
-362 -385 109 -307 389 0
-362 -385 109 307 -389 0
-362 -385 -110 -308 -390 0
-362 -385 -110 308 390 0
-362 -385 110 -308 390 0
-362 -385 110 308 -390 0
-362 -385 -111 -309 -391 0
-362 -385 -111 309 391 0
-362 -385 111 -309 391 0
-362 -385 111 309 -391 0
-362 -385 -112 -310 -392 0
-362 -385 -112 310 392 0
-362 -385 112 -310 392 0
-362 -385 112 310 -392 0
-362 -385 -113 -311 -393 0
-362 -385 -113 311 393 0
-362 -385 113 -311 393 0
-362 -385 113 311 -393 0
-362 -385 -114 -312 -394 0
-362 -385 -114 312 394 0
-362 -385 114 -312 394 0
-362 -385 114 312 -394 0
-362 -386 -107 -345 -387 0
-362 -386 -107 345 387 0
-362 -386 107 -345 387 0
-362 -386 107 345 -387 0
-362 -386 -108 -346 -388 0
-362 -386 -108 346 388 0
-362 -386 108 -346 388 0
-362 -386 108 346 -388 0
-362 -386 -109 -347 -389 0
-362 -386 -109 347 389 0
-362 -386 109 -347 389 0
-362 -386 109 347 -389 0
-362 -386 -110 -348 -390 0
-362 -386 -110 348 390 0
-362 -386 110 -348 390 0
-362 -386 110 348 -390 0
-362 -386 -111 -349 -391 0
-362 -386 -111 349 391 0
-362 -386 111 -349 391 0
-362 -386 111 349 -391 0
-362 -386 -112 -350 -392 0
-362 -386 -112 350 392 0
-362 -386 112 -350 392 0
-362 -386 112 350 -392 0
-362 -386 -113 -351 -393 0
-362 -386 -113 351 393 0
-362 -386 113 -351 393 0
-362 -386 113 351 -393 0
-362 -386 -114 -352 -394 0
-362 -386 -114 352 394 0
-362 -386 114 -352 394 0
-362 -386 114 352 -394 0
-363 -381 -135 -165 -387 0
-363 -381 -135 165 387 0
-363 -381 135 -165 387 0
-363 -381 135 165 -387 0
-363 -381 -136 -166 -388 0
-363 -381 -136 166 388 0
-363 -381 136 -166 388 0
-363 -381 136 166 -388 0
-363 -381 -137 -167 -389 0
-363 -381 -137 167 389 0
-363 -381 137 -167 389 0
-363 -381 137 167 -389 0
-363 -381 -138 -168 -390 0
-363 -381 -138 168 390 0
-363 -381 138 -168 390 0
-363 -381 138 168 -390 0
-363 -381 -139 -169 -391 0
-363 -381 -139 169 391 0
-363 -381 139 -169 391 0
-363 -381 139 169 -391 0
-363 -381 -140 -170 -392 0
-363 -381 -140 170 392 0
-363 -381 140 -170 392 0
-363 -381 140 170 -392 0
-363 -381 -141 -171 -393 0
-363 -381 -141 171 393 0
-363 -381 141 -171 393 0
-363 -381 141 171 -393 0
-363 -381 -142 -172 -394 0
-363 -381 -142 172 394 0
-363 -381 142 -172 394 0
-363 -381 142 172 -394 0
-363 -382 -135 -197 -387 0
-363 -382 -135 197 387 0
-363 -382 135 -197 387 0
-363 -382 135 197 -387 0
-363 -382 -136 -198 -388 0
-363 -382 -136 198 388 0
-363 -382 136 -198 388 0
-363 -382 136 198 -388 0
-363 -382 -137 -199 -389 0
-363 -382 -137 199 389 0
-363 -382 137 -199 389 0
-363 -382 137 199 -389 0
-363 -382 -138 -200 -390 0
-363 -382 -138 200 390 0
-363 -382 138 -200 390 0
-363 -382 138 200 -390 0
-363 -382 -139 -201 -391 0
-363 -382 -139 201 391 0
-363 -382 139 -201 391 0
-363 -382 139 201 -391 0
-363 -382 -140 -202 -392 0
-363 -382 -140 202 392 0
-363 -382 140 -202 392 0
-363 -382 140 202 -392 0
-363 -382 -141 -203 -393 0
-363 -382 -141 203 393 0
-363 -382 141 -203 393 0
-363 -382 141 203 -393 0
-363 -382 -142 -204 -394 0
-363 -382 -142 204 394 0
-363 -382 142 -204 394 0
-363 -382 142 204 -394 0
-363 -383 -135 -231 -387 0
-363 -383 -135 231 387 0
-363 -383 135 -231 387 0
-363 -383 135 231 -387 0
-363 -383 -136 -232 -388 0
-363 -383 -136 232 388 0
-363 -383 136 -232 388 0
-363 -383 136 232 -388 0
-363 -383 -137 -233 -389 0
-363 -383 -137 233 389 0
-363 -383 137 -233 389 0
-363 -383 137 233 -389 0
-363 -383 -138 -234 -390 0
-363 -383 -138 234 390 0
-363 -383 138 -234 390 0
-363 -383 138 234 -390 0
-363 -383 -139 -235 -391 0
-363 -383 -139 235 391 0
-363 -383 139 -235 391 0
-363 -383 139 235 -391 0
-363 -383 -140 -236 -392 0
-363 -383 -140 236 392 0
-363 -383 140 -236 392 0
-363 -383 140 236 -392 0
-363 -383 -141 -237 -393 0
-363 -383 -141 237 393 0
-363 -383 141 -237 393 0
-363 -383 141 237 -393 0
-363 -383 -142 -238 -394 0
-363 -383 -142 238 394 0
-363 -383 142 -238 394 0
-363 -383 142 238 -394 0
-363 -384 -135 -267 -387 0
-363 -384 -135 267 387 0
-363 -384 135 -267 387 0
-363 -384 135 267 -387 0
-363 -384 -136 -268 -388 0
-363 -384 -136 268 388 0
-363 -384 136 -268 388 0
-363 -384 136 268 -388 0
-363 -384 -137 -269 -389 0
-363 -384 -137 269 389 0
-363 -384 137 -269 389 0
-363 -384 137 269 -389 0
-363 -384 -138 -270 -390 0
-363 -384 -138 270 390 0
-363 -384 138 -270 390 0
-363 -384 138 270 -390 0
-363 -384 -139 -271 -391 0
-363 -384 -139 271 391 0
-363 -384 139 -271 391 0
-363 -384 139 271 -391 0
-363 -384 -140 -272 -392 0
-363 -384 -140 272 392 0
-363 -384 140 -272 392 0
-363 -384 140 272 -392 0
-363 -384 -141 -273 -393 0
-363 -384 -141 273 393 0
-363 -384 141 -273 393 0
-363 -384 141 273 -393 0
-363 -384 -142 -274 -394 0
-363 -384 -142 274 394 0
-363 -384 142 -274 394 0
-363 -384 142 274 -394 0
-363 -385 -135 -305 -387 0
-363 -385 -135 305 387 0
-363 -385 135 -305 387 0
-363 -385 135 305 -387 0
-363 -385 -136 -306 -388 0
-363 -385 -136 306 388 0
-363 -385 136 -306 388 0
-363 -385 136 306 -388 0
-363 -385 -137 -307 -389 0
-363 -385 -137 307 389 0
-363 -385 137 -307 389 0
-363 -385 137 307 -389 0
-363 -385 -138 -308 -390 0
-363 -385 -138 308 390 0
-363 -385 138 -308 390 0
-363 -385 138 308 -390 0
-363 -385 -139 -309 -391 0
-363 -385 -139 309 391 0
-363 -385 139 -309 391 0
-363 -385 139 309 -391 0
-363 -385 -140 -310 -392 0
-363 -385 -140 310 392 0
-363 -385 140 -310 392 0
-363 -385 140 310 -392 0
-363 -385 -141 -311 -393 0
-363 -385 -141 311 393 0
-363 -385 141 -311 393 0
-363 -385 141 311 -393 0
-363 -385 -142 -312 -394 0
-363 -385 -142 312 394 0
-363 -385 142 -312 394 0
-363 -385 142 312 -394 0
-363 -386 -135 -345 -387 0
-363 -386 -135 345 387 0
-363 -386 135 -345 387 0
-363 -386 135 345 -387 0
-363 -386 -136 -346 -388 0
-363 -386 -136 346 388 0
-363 -386 136 -346 388 0
-363 -386 136 346 -388 0
-363 -386 -137 -347 -389 0
-363 -386 -137 347 389 0
-363 -386 137 -347 389 0
-363 -386 137 347 -389 0
-363 -386 -138 -348 -390 0
-363 -386 -138 348 390 0
-363 -386 138 -348 390 0
-363 -386 138 348 -390 0
-363 -386 -139 -349 -391 0
-363 -386 -139 349 391 0
-363 -386 139 -349 391 0
-363 -386 139 349 -391 0
-363 -386 -140 -350 -392 0
-363 -386 -140 350 392 0
-363 -386 140 -350 392 0
-363 -386 140 350 -392 0
-363 -386 -141 -351 -393 0
-363 -386 -141 351 393 0
-363 -386 141 -351 393 0
-363 -386 141 351 -393 0
-363 -386 -142 -352 -394 0
-363 -386 -142 352 394 0
-363 -386 142 -352 394 0
-363 -386 142 352 -394 0
-364 -382 -165 -197 -387 0
-364 -382 -165 197 387 0
-364 -382 165 -197 387 0
-364 -382 165 197 -387 0
-364 -382 -166 -198 -388 0
-364 -382 -166 198 388 0
-364 -382 166 -198 388 0
-364 -382 166 198 -388 0
-364 -382 -167 -199 -389 0
-364 -382 -167 199 389 0
-364 -382 167 -199 389 0
-364 -382 167 199 -389 0
-364 -382 -168 -200 -390 0
-364 -382 -168 200 390 0
-364 -382 168 -200 390 0
-364 -382 168 200 -390 0
-364 -382 -169 -201 -391 0
-364 -382 -169 201 391 0
-364 -382 169 -201 391 0
-364 -382 169 201 -391 0
-364 -382 -170 -202 -392 0
-364 -382 -170 202 392 0
-364 -382 170 -202 392 0
-364 -382 170 202 -392 0
-364 -382 -171 -203 -393 0
-364 -382 -171 203 393 0
-364 -382 171 -203 393 0
-364 -382 171 203 -393 0
-364 -382 -172 -204 -394 0
-364 -382 -172 204 394 0
-364 -382 172 -204 394 0
-364 -382 172 204 -394 0
-364 -383 -165 -231 -387 0
-364 -383 -165 231 387 0
-364 -383 165 -231 387 0
-364 -383 165 231 -387 0
-364 -383 -166 -232 -388 0
-364 -383 -166 232 388 0
-364 -383 166 -232 388 0
-364 -383 166 232 -388 0
-364 -383 -167 -233 -389 0
-364 -383 -167 233 389 0
-364 -383 167 -233 389 0
-364 -383 167 233 -389 0
-364 -383 -168 -234 -390 0
-364 -383 -168 234 390 0
-364 -383 168 -234 390 0
-364 -383 168 234 -390 0
-364 -383 -169 -235 -391 0
-364 -383 -169 235 391 0
-364 -383 169 -235 391 0
-364 -383 169 235 -391 0
-364 -383 -170 -236 -392 0
-364 -383 -170 236 392 0
-364 -383 170 -236 392 0
-364 -383 170 236 -392 0
-364 -383 -171 -237 -393 0
-364 -383 -171 237 393 0
-364 -383 171 -237 393 0
-364 -383 171 237 -393 0
-364 -383 -172 -238 -394 0
-364 -383 -172 238 394 0
-364 -383 172 -238 394 0
-364 -383 172 238 -394 0
-364 -384 -165 -267 -387 0
-364 -384 -165 267 387 0
-364 -384 165 -267 387 0
-364 -384 165 267 -387 0
-364 -384 -166 -268 -388 0
-364 -384 -166 268 388 0
-364 -384 166 -268 388 0
-364 -384 166 268 -388 0
-364 -384 -167 -269 -389 0
-364 -384 -167 269 389 0
-364 -384 167 -269 389 0
-364 -384 167 269 -389 0
-364 -384 -168 -270 -390 0
-364 -384 -168 270 390 0
-364 -384 168 -270 390 0
-364 -384 168 270 -390 0
-364 -384 -169 -271 -391 0
-364 -384 -169 271 391 0
-364 -384 169 -271 391 0
-364 -384 169 271 -391 0
-364 -384 -170 -272 -392 0
-364 -384 -170 272 392 0
-364 -384 170 -272 392 0
-364 -384 170 272 -392 0
-364 -384 -171 -273 -393 0
-364 -384 -171 273 393 0
-364 -384 171 -273 393 0
-364 -384 171 273 -393 0
-364 -384 -172 -274 -394 0
-364 -384 -172 274 394 0
-364 -384 172 -274 394 0
-364 -384 172 274 -394 0
-364 -385 -165 -305 -387 0
-364 -385 -165 305 387 0
-364 -385 165 -305 387 0
-364 -385 165 305 -387 0
-364 -385 -166 -306 -388 0
-364 -385 -166 306 388 0
-364 -385 166 -306 388 0
-364 -385 166 306 -388 0
-364 -385 -167 -307 -389 0
-364 -385 -167 307 389 0
-364 -385 167 -307 389 0
-364 -385 167 307 -389 0
-364 -385 -168 -308 -390 0
-364 -385 -168 308 390 0
-364 -385 168 -308 390 0
-364 -385 168 308 -390 0
-364 -385 -169 -309 -391 0
-364 -385 -169 309 391 0
-364 -385 169 -309 391 0
-364 -385 169 309 -391 0
-364 -385 -170 -310 -392 0
-364 -385 -170 310 392 0
-364 -385 170 -310 392 0
-364 -385 170 310 -392 0
-364 -385 -171 -311 -393 0
-364 -385 -171 311 393 0
-364 -385 171 -311 393 0
-364 -385 171 311 -393 0
-364 -385 -172 -312 -394 0
-364 -385 -172 312 394 0
-364 -385 172 -312 394 0
-364 -385 172 312 -394 0
-364 -386 -165 -345 -387 0
-364 -386 -165 345 387 0
-364 -386 165 -345 387 0
-364 -386 165 345 -387 0
-364 -386 -166 -346 -388 0
-364 -386 -166 346 388 0
-364 -386 166 -346 388 0
-364 -386 166 346 -388 0
-364 -386 -167 -347 -389 0
-364 -386 -167 347 389 0
-364 -386 167 -347 389 0
-364 -386 167 347 -389 0
-364 -386 -168 -348 -390 0
-364 -386 -168 348 390 0
-364 -386 168 -348 390 0
-364 -386 168 348 -390 0
-364 -386 -169 -349 -391 0
-364 -386 -169 349 391 0
-364 -386 169 -349 391 0
-364 -386 169 349 -391 0
-364 -386 -170 -350 -392 0
-364 -386 -170 350 392 0
-364 -386 170 -350 392 0
-364 -386 170 350 -392 0
-364 -386 -171 -351 -393 0
-364 -386 -171 351 393 0
-364 -386 171 -351 393 0
-364 -386 171 351 -393 0
-364 -386 -172 -352 -394 0
-364 -386 -172 352 394 0
-364 -386 172 -352 394 0
-364 -386 172 352 -394 0
-365 -383 -197 -231 -387 0
-365 -383 -197 231 387 0
-365 -383 197 -231 387 0
-365 -383 197 231 -387 0
-365 -383 -198 -232 -388 0
-365 -383 -198 232 388 0
-365 -383 198 -232 388 0
-365 -383 198 232 -388 0
-365 -383 -199 -233 -389 0
-365 -383 -199 233 389 0
-365 -383 199 -233 389 0
-365 -383 199 233 -389 0
-365 -383 -200 -234 -390 0
-365 -383 -200 234 390 0
-365 -383 200 -234 390 0
-365 -383 200 234 -390 0
-365 -383 -201 -235 -391 0
-365 -383 -201 235 391 0
-365 -383 201 -235 391 0
-365 -383 201 235 -391 0
-365 -383 -202 -236 -392 0
-365 -383 -202 236 392 0
-365 -383 202 -236 392 0
-365 -383 202 236 -392 0
-365 -383 -203 -237 -393 0
-365 -383 -203 237 393 0
-365 -383 203 -237 393 0
-365 -383 203 237 -393 0
-365 -383 -204 -238 -394 0
-365 -383 -204 238 394 0
-365 -383 204 -238 394 0
-365 -383 204 238 -394 0
-365 -384 -197 -267 -387 0
-365 -384 -197 267 387 0
-365 -384 197 -267 387 0
-365 -384 197 267 -387 0
-365 -384 -198 -268 -388 0
-365 -384 -198 268 388 0
-365 -384 198 -268 388 0
-365 -384 198 268 -388 0
-365 -384 -199 -269 -389 0
-365 -384 -199 269 389 0
-365 -384 199 -269 389 0
-365 -384 199 269 -389 0
-365 -384 -200 -270 -390 0
-365 -384 -200 270 390 0
-365 -384 200 -270 390 0
-365 -384 200 270 -390 0
-365 -384 -201 -271 -391 0
-365 -384 -201 271 391 0
-365 -384 201 -271 391 0
-365 -384 201 271 -391 0
-365 -384 -202 -272 -392 0
-365 -384 -202 272 392 0
-365 -384 202 -272 392 0
-365 -384 202 272 -392 0
-365 -384 -203 -273 -393 0
-365 -384 -203 273 393 0
-365 -384 203 -273 393 0
-365 -384 203 273 -393 0
-365 -384 -204 -274 -394 0
-365 -384 -204 274 394 0
-365 -384 204 -274 394 0
-365 -384 204 274 -394 0
-365 -385 -197 -305 -387 0
-365 -385 -197 305 387 0
-365 -385 197 -305 387 0
-365 -385 197 305 -387 0
-365 -385 -198 -306 -388 0
-365 -385 -198 306 388 0
-365 -385 198 -306 388 0
-365 -385 198 306 -388 0
-365 -385 -199 -307 -389 0
-365 -385 -199 307 389 0
-365 -385 199 -307 389 0
-365 -385 199 307 -389 0
-365 -385 -200 -308 -390 0
-365 -385 -200 308 390 0
-365 -385 200 -308 390 0
-365 -385 200 308 -390 0
-365 -385 -201 -309 -391 0
-365 -385 -201 309 391 0
-365 -385 201 -309 391 0
-365 -385 201 309 -391 0
-365 -385 -202 -310 -392 0
-365 -385 -202 310 392 0
-365 -385 202 -310 392 0
-365 -385 202 310 -392 0
-365 -385 -203 -311 -393 0
-365 -385 -203 311 393 0
-365 -385 203 -311 393 0
-365 -385 203 311 -393 0
-365 -385 -204 -312 -394 0
-365 -385 -204 312 394 0
-365 -385 204 -312 394 0
-365 -385 204 312 -394 0
-365 -386 -197 -345 -387 0
-365 -386 -197 345 387 0
-365 -386 197 -345 387 0
-365 -386 197 345 -387 0
-365 -386 -198 -346 -388 0
-365 -386 -198 346 388 0
-365 -386 198 -346 388 0
-365 -386 198 346 -388 0
-365 -386 -199 -347 -389 0
-365 -386 -199 347 389 0
-365 -386 199 -347 389 0
-365 -386 199 347 -389 0
-365 -386 -200 -348 -390 0
-365 -386 -200 348 390 0
-365 -386 200 -348 390 0
-365 -386 200 348 -390 0
-365 -386 -201 -349 -391 0
-365 -386 -201 349 391 0
-365 -386 201 -349 391 0
-365 -386 201 349 -391 0
-365 -386 -202 -350 -392 0
-365 -386 -202 350 392 0
-365 -386 202 -350 392 0
-365 -386 202 350 -392 0
-365 -386 -203 -351 -393 0
-365 -386 -203 351 393 0
-365 -386 203 -351 393 0
-365 -386 203 351 -393 0
-365 -386 -204 -352 -394 0
-365 -386 -204 352 394 0
-365 -386 204 -352 394 0
-365 -386 204 352 -394 0
-366 -384 -231 -267 -387 0
-366 -384 -231 267 387 0
-366 -384 231 -267 387 0
-366 -384 231 267 -387 0
-366 -384 -232 -268 -388 0
-366 -384 -232 268 388 0
-366 -384 232 -268 388 0
-366 -384 232 268 -388 0
-366 -384 -233 -269 -389 0
-366 -384 -233 269 389 0
-366 -384 233 -269 389 0
-366 -384 233 269 -389 0
-366 -384 -234 -270 -390 0
-366 -384 -234 270 390 0
-366 -384 234 -270 390 0
-366 -384 234 270 -390 0
-366 -384 -235 -271 -391 0
-366 -384 -235 271 391 0
-366 -384 235 -271 391 0
-366 -384 235 271 -391 0
-366 -384 -236 -272 -392 0
-366 -384 -236 272 392 0
-366 -384 236 -272 392 0
-366 -384 236 272 -392 0
-366 -384 -237 -273 -393 0
-366 -384 -237 273 393 0
-366 -384 237 -273 393 0
-366 -384 237 273 -393 0
-366 -384 -238 -274 -394 0
-366 -384 -238 274 394 0
-366 -384 238 -274 394 0
-366 -384 238 274 -394 0
-366 -385 -231 -305 -387 0
-366 -385 -231 305 387 0
-366 -385 231 -305 387 0
-366 -385 231 305 -387 0
-366 -385 -232 -306 -388 0
-366 -385 -232 306 388 0
-366 -385 232 -306 388 0
-366 -385 232 306 -388 0
-366 -385 -233 -307 -389 0
-366 -385 -233 307 389 0
-366 -385 233 -307 389 0
-366 -385 233 307 -389 0
-366 -385 -234 -308 -390 0
-366 -385 -234 308 390 0
-366 -385 234 -308 390 0
-366 -385 234 308 -390 0
-366 -385 -235 -309 -391 0
-366 -385 -235 309 391 0
-366 -385 235 -309 391 0
-366 -385 235 309 -391 0
-366 -385 -236 -310 -392 0
-366 -385 -236 310 392 0
-366 -385 236 -310 392 0
-366 -385 236 310 -392 0
-366 -385 -237 -311 -393 0
-366 -385 -237 311 393 0
-366 -385 237 -311 393 0
-366 -385 237 311 -393 0
-366 -385 -238 -312 -394 0
-366 -385 -238 312 394 0
-366 -385 238 -312 394 0
-366 -385 238 312 -394 0
-366 -386 -231 -345 -387 0
-366 -386 -231 345 387 0
-366 -386 231 -345 387 0
-366 -386 231 345 -387 0
-366 -386 -232 -346 -388 0
-366 -386 -232 346 388 0
-366 -386 232 -346 388 0
-366 -386 232 346 -388 0
-366 -386 -233 -347 -389 0
-366 -386 -233 347 389 0
-366 -386 233 -347 389 0
-366 -386 233 347 -389 0
-366 -386 -234 -348 -390 0
-366 -386 -234 348 390 0
-366 -386 234 -348 390 0
-366 -386 234 348 -390 0
-366 -386 -235 -349 -391 0
-366 -386 -235 349 391 0
-366 -386 235 -349 391 0
-366 -386 235 349 -391 0
-366 -386 -236 -350 -392 0
-366 -386 -236 350 392 0
-366 -386 236 -350 392 0
-366 -386 236 350 -392 0
-366 -386 -237 -351 -393 0
-366 -386 -237 351 393 0
-366 -386 237 -351 393 0
-366 -386 237 351 -393 0
-366 -386 -238 -352 -394 0
-366 -386 -238 352 394 0
-366 -386 238 -352 394 0
-366 -386 238 352 -394 0
-367 -385 -267 -305 -387 0
-367 -385 -267 305 387 0
-367 -385 267 -305 387 0
-367 -385 267 305 -387 0
-367 -385 -268 -306 -388 0
-367 -385 -268 306 388 0
-367 -385 268 -306 388 0
-367 -385 268 306 -388 0
-367 -385 -269 -307 -389 0
-367 -385 -269 307 389 0
-367 -385 269 -307 389 0
-367 -385 269 307 -389 0
-367 -385 -270 -308 -390 0
-367 -385 -270 308 390 0
-367 -385 270 -308 390 0
-367 -385 270 308 -390 0
-367 -385 -271 -309 -391 0
-367 -385 -271 309 391 0
-367 -385 271 -309 391 0
-367 -385 271 309 -391 0
-367 -385 -272 -310 -392 0
-367 -385 -272 310 392 0
-367 -385 272 -310 392 0
-367 -385 272 310 -392 0
-367 -385 -273 -311 -393 0
-367 -385 -273 311 393 0
-367 -385 273 -311 393 0
-367 -385 273 311 -393 0
-367 -385 -274 -312 -394 0
-367 -385 -274 312 394 0
-367 -385 274 -312 394 0
-367 -385 274 312 -394 0
-367 -386 -267 -345 -387 0
-367 -386 -267 345 387 0
-367 -386 267 -345 387 0
-367 -386 267 345 -387 0
-367 -386 -268 -346 -388 0
-367 -386 -268 346 388 0
-367 -386 268 -346 388 0
-367 -386 268 346 -388 0
-367 -386 -269 -347 -389 0
-367 -386 -269 347 389 0
-367 -386 269 -347 389 0
-367 -386 269 347 -389 0
-367 -386 -270 -348 -390 0
-367 -386 -270 348 390 0
-367 -386 270 -348 390 0
-367 -386 270 348 -390 0
-367 -386 -271 -349 -391 0
-367 -386 -271 349 391 0
-367 -386 271 -349 391 0
-367 -386 271 349 -391 0
-367 -386 -272 -350 -392 0
-367 -386 -272 350 392 0
-367 -386 272 -350 392 0
-367 -386 272 350 -392 0
-367 -386 -273 -351 -393 0
-367 -386 -273 351 393 0
-367 -386 273 -351 393 0
-367 -386 273 351 -393 0
-367 -386 -274 -352 -394 0
-367 -386 -274 352 394 0
-367 -386 274 -352 394 0
-367 -386 274 352 -394 0
-368 -386 -305 -345 -387 0
-368 -386 -305 345 387 0
-368 -386 305 -345 387 0
-368 -386 305 345 -387 0
-368 -386 -306 -346 -388 0
-368 -386 -306 346 388 0
-368 -386 306 -346 388 0
-368 -386 306 346 -388 0
-368 -386 -307 -347 -389 0
-368 -386 -307 347 389 0
-368 -386 307 -347 389 0
-368 -386 307 347 -389 0
-368 -386 -308 -348 -390 0
-368 -386 -308 348 390 0
-368 -386 308 -348 390 0
-368 -386 308 348 -390 0
-368 -386 -309 -349 -391 0
-368 -386 -309 349 391 0
-368 -386 309 -349 391 0
-368 -386 309 349 -391 0
-368 -386 -310 -350 -392 0
-368 -386 -310 350 392 0
-368 -386 310 -350 392 0
-368 -386 310 350 -392 0
-368 -386 -311 -351 -393 0
-368 -386 -311 351 393 0
-368 -386 311 -351 393 0
-368 -386 311 351 -393 0
-368 -386 -312 -352 -394 0
-368 -386 -312 352 394 0
-368 -386 312 -352 394 0
-368 -386 312 352 -394 0
387 388 389 390 391 392 393 394 0
-395 81 1 0
-395 -81 -1 0
395 -81 1 0
395 81 -1 0
-396 82 2 0
-396 -82 -2 0
396 -82 2 0
396 82 -2 0
-397 83 3 0
-397 -83 -3 0
397 -83 3 0
397 83 -3 0
-398 84 4 0
-398 -84 -4 0
398 -84 4 0
398 84 -4 0
-399 85 5 0
-399 -85 -5 0
399 -85 5 0
399 85 -5 0
-400 86 6 0
-400 -86 -6 0
400 -86 6 0
400 86 -6 0
-401 87 7 0
-401 -87 -7 0
401 -87 7 0
401 87 -7 0
-402 88 8 0
-402 -88 -8 0
402 -88 8 0
402 88 -8 0
395 396 397 398 399 400 401 402 0
-403 81 9 0
-403 -81 -9 0
403 -81 9 0
403 81 -9 0
-404 82 10 0
-404 -82 -10 0
404 -82 10 0
404 82 -10 0
-405 83 11 0
-405 -83 -11 0
405 -83 11 0
405 83 -11 0
-406 84 12 0
-406 -84 -12 0
406 -84 12 0
406 84 -12 0
-407 85 13 0
-407 -85 -13 0
407 -85 13 0
407 85 -13 0
-408 86 14 0
-408 -86 -14 0
408 -86 14 0
408 86 -14 0
-409 87 15 0
-409 -87 -15 0
409 -87 15 0
409 87 -15 0
-410 88 16 0
-410 -88 -16 0
410 -88 16 0
410 88 -16 0
403 404 405 406 407 408 409 410 0
-411 81 17 0
-411 -81 -17 0
411 -81 17 0
411 81 -17 0
-412 82 18 0
-412 -82 -18 0
412 -82 18 0
412 82 -18 0
-413 83 19 0
-413 -83 -19 0
413 -83 19 0
413 83 -19 0
-414 84 20 0
-414 -84 -20 0
414 -84 20 0
414 84 -20 0
-415 85 21 0
-415 -85 -21 0
415 -85 21 0
415 85 -21 0
-416 86 22 0
-416 -86 -22 0
416 -86 22 0
416 86 -22 0
-417 87 23 0
-417 -87 -23 0
417 -87 23 0
417 87 -23 0
-418 88 24 0
-418 -88 -24 0
418 -88 24 0
418 88 -24 0
411 412 413 414 415 416 417 418 0
-419 81 25 0
-419 -81 -25 0
419 -81 25 0
419 81 -25 0
-420 82 26 0
-420 -82 -26 0
420 -82 26 0
420 82 -26 0
-421 83 27 0
-421 -83 -27 0
421 -83 27 0
421 83 -27 0
-422 84 28 0
-422 -84 -28 0
422 -84 28 0
422 84 -28 0
-423 85 29 0
-423 -85 -29 0
423 -85 29 0
423 85 -29 0
-424 86 30 0
-424 -86 -30 0
424 -86 30 0
424 86 -30 0
-425 87 31 0
-425 -87 -31 0
425 -87 31 0
425 87 -31 0
-426 88 32 0
-426 -88 -32 0
426 -88 32 0
426 88 -32 0
419 420 421 422 423 424 425 426 0
-427 81 33 0
-427 -81 -33 0
427 -81 33 0
427 81 -33 0
-428 82 34 0
-428 -82 -34 0
428 -82 34 0
428 82 -34 0
-429 83 35 0
-429 -83 -35 0
429 -83 35 0
429 83 -35 0
-430 84 36 0
-430 -84 -36 0
430 -84 36 0
430 84 -36 0
-431 85 37 0
-431 -85 -37 0
431 -85 37 0
431 85 -37 0
-432 86 38 0
-432 -86 -38 0
432 -86 38 0
432 86 -38 0
-433 87 39 0
-433 -87 -39 0
433 -87 39 0
433 87 -39 0
-434 88 40 0
-434 -88 -40 0
434 -88 40 0
434 88 -40 0
427 428 429 430 431 432 433 434 0
-435 81 41 0
-435 -81 -41 0
435 -81 41 0
435 81 -41 0
-436 82 42 0
-436 -82 -42 0
436 -82 42 0
436 82 -42 0
-437 83 43 0
-437 -83 -43 0
437 -83 43 0
437 83 -43 0
-438 84 44 0
-438 -84 -44 0
438 -84 44 0
438 84 -44 0
-439 85 45 0
-439 -85 -45 0
439 -85 45 0
439 85 -45 0
-440 86 46 0
-440 -86 -46 0
440 -86 46 0
440 86 -46 0
-441 87 47 0
-441 -87 -47 0
441 -87 47 0
441 87 -47 0
-442 88 48 0
-442 -88 -48 0
442 -88 48 0
442 88 -48 0
435 436 437 438 439 440 441 442 0
-443 81 49 0
-443 -81 -49 0
443 -81 49 0
443 81 -49 0
-444 82 50 0
-444 -82 -50 0
444 -82 50 0
444 82 -50 0
-445 83 51 0
-445 -83 -51 0
445 -83 51 0
445 83 -51 0
-446 84 52 0
-446 -84 -52 0
446 -84 52 0
446 84 -52 0
-447 85 53 0
-447 -85 -53 0
447 -85 53 0
447 85 -53 0
-448 86 54 0
-448 -86 -54 0
448 -86 54 0
448 86 -54 0
-449 87 55 0
-449 -87 -55 0
449 -87 55 0
449 87 -55 0
-450 88 56 0
-450 -88 -56 0
450 -88 56 0
450 88 -56 0
443 444 445 446 447 448 449 450 0
-451 81 57 0
-451 -81 -57 0
451 -81 57 0
451 81 -57 0
-452 82 58 0
-452 -82 -58 0
452 -82 58 0
452 82 -58 0
-453 83 59 0
-453 -83 -59 0
453 -83 59 0
453 83 -59 0
-454 84 60 0
-454 -84 -60 0
454 -84 60 0
454 84 -60 0
-455 85 61 0
-455 -85 -61 0
455 -85 61 0
455 85 -61 0
-456 86 62 0
-456 -86 -62 0
456 -86 62 0
456 86 -62 0
-457 87 63 0
-457 -87 -63 0
457 -87 63 0
457 87 -63 0
-458 88 64 0
-458 -88 -64 0
458 -88 64 0
458 88 -64 0
451 452 453 454 455 456 457 458 0
-459 107 1 0
-459 -107 -1 0
459 -107 1 0
459 107 -1 0
-460 108 2 0
-460 -108 -2 0
460 -108 2 0
460 108 -2 0
-461 109 3 0
-461 -109 -3 0
461 -109 3 0
461 109 -3 0
-462 110 4 0
-462 -110 -4 0
462 -110 4 0
462 110 -4 0
-463 111 5 0
-463 -111 -5 0
463 -111 5 0
463 111 -5 0
-464 112 6 0
-464 -112 -6 0
464 -112 6 0
464 112 -6 0
-465 113 7 0
-465 -113 -7 0
465 -113 7 0
465 113 -7 0
-466 114 8 0
-466 -114 -8 0
466 -114 8 0
466 114 -8 0
459 460 461 462 463 464 465 466 0
-467 107 9 0
-467 -107 -9 0
467 -107 9 0
467 107 -9 0
-468 108 10 0
-468 -108 -10 0
468 -108 10 0
468 108 -10 0
-469 109 11 0
-469 -109 -11 0
469 -109 11 0
469 109 -11 0
-470 110 12 0
-470 -110 -12 0
470 -110 12 0
470 110 -12 0
-471 111 13 0
-471 -111 -13 0
471 -111 13 0
471 111 -13 0
-472 112 14 0
-472 -112 -14 0
472 -112 14 0
472 112 -14 0
-473 113 15 0
-473 -113 -15 0
473 -113 15 0
473 113 -15 0
-474 114 16 0
-474 -114 -16 0
474 -114 16 0
474 114 -16 0
467 468 469 470 471 472 473 474 0
-475 107 17 0
-475 -107 -17 0
475 -107 17 0
475 107 -17 0
-476 108 18 0
-476 -108 -18 0
476 -108 18 0
476 108 -18 0
-477 109 19 0
-477 -109 -19 0
477 -109 19 0
477 109 -19 0
-478 110 20 0
-478 -110 -20 0
478 -110 20 0
478 110 -20 0
-479 111 21 0
-479 -111 -21 0
479 -111 21 0
479 111 -21 0
-480 112 22 0
-480 -112 -22 0
480 -112 22 0
480 112 -22 0
-481 113 23 0
-481 -113 -23 0
481 -113 23 0
481 113 -23 0
-482 114 24 0
-482 -114 -24 0
482 -114 24 0
482 114 -24 0
475 476 477 478 479 480 481 482 0
-483 107 25 0
-483 -107 -25 0
483 -107 25 0
483 107 -25 0
-484 108 26 0
-484 -108 -26 0
484 -108 26 0
484 108 -26 0
-485 109 27 0
-485 -109 -27 0
485 -109 27 0
485 109 -27 0
-486 110 28 0
-486 -110 -28 0
486 -110 28 0
486 110 -28 0
-487 111 29 0
-487 -111 -29 0
487 -111 29 0
487 111 -29 0
-488 112 30 0
-488 -112 -30 0
488 -112 30 0
488 112 -30 0
-489 113 31 0
-489 -113 -31 0
489 -113 31 0
489 113 -31 0
-490 114 32 0
-490 -114 -32 0
490 -114 32 0
490 114 -32 0
483 484 485 486 487 488 489 490 0
-491 107 33 0
-491 -107 -33 0
491 -107 33 0
491 107 -33 0
-492 108 34 0
-492 -108 -34 0
492 -108 34 0
492 108 -34 0
-493 109 35 0
-493 -109 -35 0
493 -109 35 0
493 109 -35 0
-494 110 36 0
-494 -110 -36 0
494 -110 36 0
494 110 -36 0
-495 111 37 0
-495 -111 -37 0
495 -111 37 0
495 111 -37 0
-496 112 38 0
-496 -112 -38 0
496 -112 38 0
496 112 -38 0
-497 113 39 0
-497 -113 -39 0
497 -113 39 0
497 113 -39 0
-498 114 40 0
-498 -114 -40 0
498 -114 40 0
498 114 -40 0
491 492 493 494 495 496 497 498 0
-499 107 41 0
-499 -107 -41 0
499 -107 41 0
499 107 -41 0
-500 108 42 0
-500 -108 -42 0
500 -108 42 0
500 108 -42 0
-501 109 43 0
-501 -109 -43 0
501 -109 43 0
501 109 -43 0
-502 110 44 0
-502 -110 -44 0
502 -110 44 0
502 110 -44 0
-503 111 45 0
-503 -111 -45 0
503 -111 45 0
503 111 -45 0
-504 112 46 0
-504 -112 -46 0
504 -112 46 0
504 112 -46 0
-505 113 47 0
-505 -113 -47 0
505 -113 47 0
505 113 -47 0
-506 114 48 0
-506 -114 -48 0
506 -114 48 0
506 114 -48 0
499 500 501 502 503 504 505 506 0
-507 107 49 0
-507 -107 -49 0
507 -107 49 0
507 107 -49 0
-508 108 50 0
-508 -108 -50 0
508 -108 50 0
508 108 -50 0
-509 109 51 0
-509 -109 -51 0
509 -109 51 0
509 109 -51 0
-510 110 52 0
-510 -110 -52 0
510 -110 52 0
510 110 -52 0
-511 111 53 0
-511 -111 -53 0
511 -111 53 0
511 111 -53 0
-512 112 54 0
-512 -112 -54 0
512 -112 54 0
512 112 -54 0
-513 113 55 0
-513 -113 -55 0
513 -113 55 0
513 113 -55 0
-514 114 56 0
-514 -114 -56 0
514 -114 56 0
514 114 -56 0
507 508 509 510 511 512 513 514 0
-515 107 57 0
-515 -107 -57 0
515 -107 57 0
515 107 -57 0
-516 108 58 0
-516 -108 -58 0
516 -108 58 0
516 108 -58 0
-517 109 59 0
-517 -109 -59 0
517 -109 59 0
517 109 -59 0
-518 110 60 0
-518 -110 -60 0
518 -110 60 0
518 110 -60 0
-519 111 61 0
-519 -111 -61 0
519 -111 61 0
519 111 -61 0
-520 112 62 0
-520 -112 -62 0
520 -112 62 0
520 112 -62 0
-521 113 63 0
-521 -113 -63 0
521 -113 63 0
521 113 -63 0
-522 114 64 0
-522 -114 -64 0
522 -114 64 0
522 114 -64 0
515 516 517 518 519 520 521 522 0
-523 107 81 0
-523 -107 -81 0
523 -107 81 0
523 107 -81 0
-524 108 82 0
-524 -108 -82 0
524 -108 82 0
524 108 -82 0
-525 109 83 0
-525 -109 -83 0
525 -109 83 0
525 109 -83 0
-526 110 84 0
-526 -110 -84 0
526 -110 84 0
526 110 -84 0
-527 111 85 0
-527 -111 -85 0
527 -111 85 0
527 111 -85 0
-528 112 86 0
-528 -112 -86 0
528 -112 86 0
528 112 -86 0
-529 113 87 0
-529 -113 -87 0
529 -113 87 0
529 113 -87 0
-530 114 88 0
-530 -114 -88 0
530 -114 88 0
530 114 -88 0
523 524 525 526 527 528 529 530 0
-531 135 1 0
-531 -135 -1 0
531 -135 1 0
531 135 -1 0
-532 136 2 0
-532 -136 -2 0
532 -136 2 0
532 136 -2 0
-533 137 3 0
-533 -137 -3 0
533 -137 3 0
533 137 -3 0
-534 138 4 0
-534 -138 -4 0
534 -138 4 0
534 138 -4 0
-535 139 5 0
-535 -139 -5 0
535 -139 5 0
535 139 -5 0
-536 140 6 0
-536 -140 -6 0
536 -140 6 0
536 140 -6 0
-537 141 7 0
-537 -141 -7 0
537 -141 7 0
537 141 -7 0
-538 142 8 0
-538 -142 -8 0
538 -142 8 0
538 142 -8 0
531 532 533 534 535 536 537 538 0
-539 135 9 0
-539 -135 -9 0
539 -135 9 0
539 135 -9 0
-540 136 10 0
-540 -136 -10 0
540 -136 10 0
540 136 -10 0
-541 137 11 0
-541 -137 -11 0
541 -137 11 0
541 137 -11 0
-542 138 12 0
-542 -138 -12 0
542 -138 12 0
542 138 -12 0
-543 139 13 0
-543 -139 -13 0
543 -139 13 0
543 139 -13 0
-544 140 14 0
-544 -140 -14 0
544 -140 14 0
544 140 -14 0
-545 141 15 0
-545 -141 -15 0
545 -141 15 0
545 141 -15 0
-546 142 16 0
-546 -142 -16 0
546 -142 16 0
546 142 -16 0
539 540 541 542 543 544 545 546 0
-547 135 17 0
-547 -135 -17 0
547 -135 17 0
547 135 -17 0
-548 136 18 0
-548 -136 -18 0
548 -136 18 0
548 136 -18 0
-549 137 19 0
-549 -137 -19 0
549 -137 19 0
549 137 -19 0
-550 138 20 0
-550 -138 -20 0
550 -138 20 0
550 138 -20 0
-551 139 21 0
-551 -139 -21 0
551 -139 21 0
551 139 -21 0
-552 140 22 0
-552 -140 -22 0
552 -140 22 0
552 140 -22 0
-553 141 23 0
-553 -141 -23 0
553 -141 23 0
553 141 -23 0
-554 142 24 0
-554 -142 -24 0
554 -142 24 0
554 142 -24 0
547 548 549 550 551 552 553 554 0
-555 135 25 0
-555 -135 -25 0
555 -135 25 0
555 135 -25 0
-556 136 26 0
-556 -136 -26 0
556 -136 26 0
556 136 -26 0
-557 137 27 0
-557 -137 -27 0
557 -137 27 0
557 137 -27 0
-558 138 28 0
-558 -138 -28 0
558 -138 28 0
558 138 -28 0
-559 139 29 0
-559 -139 -29 0
559 -139 29 0
559 139 -29 0
-560 140 30 0
-560 -140 -30 0
560 -140 30 0
560 140 -30 0
-561 141 31 0
-561 -141 -31 0
561 -141 31 0
561 141 -31 0
-562 142 32 0
-562 -142 -32 0
562 -142 32 0
562 142 -32 0
555 556 557 558 559 560 561 562 0
-563 135 33 0
-563 -135 -33 0
563 -135 33 0
563 135 -33 0
-564 136 34 0
-564 -136 -34 0
564 -136 34 0
564 136 -34 0
-565 137 35 0
-565 -137 -35 0
565 -137 35 0
565 137 -35 0
-566 138 36 0
-566 -138 -36 0
566 -138 36 0
566 138 -36 0
-567 139 37 0
-567 -139 -37 0
567 -139 37 0
567 139 -37 0
-568 140 38 0
-568 -140 -38 0
568 -140 38 0
568 140 -38 0
-569 141 39 0
-569 -141 -39 0
569 -141 39 0
569 141 -39 0
-570 142 40 0
-570 -142 -40 0
570 -142 40 0
570 142 -40 0
563 564 565 566 567 568 569 570 0
-571 135 41 0
-571 -135 -41 0
571 -135 41 0
571 135 -41 0
-572 136 42 0
-572 -136 -42 0
572 -136 42 0
572 136 -42 0
-573 137 43 0
-573 -137 -43 0
573 -137 43 0
573 137 -43 0
-574 138 44 0
-574 -138 -44 0
574 -138 44 0
574 138 -44 0
-575 139 45 0
-575 -139 -45 0
575 -139 45 0
575 139 -45 0
-576 140 46 0
-576 -140 -46 0
576 -140 46 0
576 140 -46 0
-577 141 47 0
-577 -141 -47 0
577 -141 47 0
577 141 -47 0
-578 142 48 0
-578 -142 -48 0
578 -142 48 0
578 142 -48 0
571 572 573 574 575 576 577 578 0
-579 135 49 0
-579 -135 -49 0
579 -135 49 0
579 135 -49 0
-580 136 50 0
-580 -136 -50 0
580 -136 50 0
580 136 -50 0
-581 137 51 0
-581 -137 -51 0
581 -137 51 0
581 137 -51 0
-582 138 52 0
-582 -138 -52 0
582 -138 52 0
582 138 -52 0
-583 139 53 0
-583 -139 -53 0
583 -139 53 0
583 139 -53 0
-584 140 54 0
-584 -140 -54 0
584 -140 54 0
584 140 -54 0
-585 141 55 0
-585 -141 -55 0
585 -141 55 0
585 141 -55 0
-586 142 56 0
-586 -142 -56 0
586 -142 56 0
586 142 -56 0
579 580 581 582 583 584 585 586 0
-587 135 57 0
-587 -135 -57 0
587 -135 57 0
587 135 -57 0
-588 136 58 0
-588 -136 -58 0
588 -136 58 0
588 136 -58 0
-589 137 59 0
-589 -137 -59 0
589 -137 59 0
589 137 -59 0
-590 138 60 0
-590 -138 -60 0
590 -138 60 0
590 138 -60 0
-591 139 61 0
-591 -139 -61 0
591 -139 61 0
591 139 -61 0
-592 140 62 0
-592 -140 -62 0
592 -140 62 0
592 140 -62 0
-593 141 63 0
-593 -141 -63 0
593 -141 63 0
593 141 -63 0
-594 142 64 0
-594 -142 -64 0
594 -142 64 0
594 142 -64 0
587 588 589 590 591 592 593 594 0
-595 135 81 0
-595 -135 -81 0
595 -135 81 0
595 135 -81 0
-596 136 82 0
-596 -136 -82 0
596 -136 82 0
596 136 -82 0
-597 137 83 0
-597 -137 -83 0
597 -137 83 0
597 137 -83 0
-598 138 84 0
-598 -138 -84 0
598 -138 84 0
598 138 -84 0
-599 139 85 0
-599 -139 -85 0
599 -139 85 0
599 139 -85 0
-600 140 86 0
-600 -140 -86 0
600 -140 86 0
600 140 -86 0
-601 141 87 0
-601 -141 -87 0
601 -141 87 0
601 141 -87 0
-602 142 88 0
-602 -142 -88 0
602 -142 88 0
602 142 -88 0
595 596 597 598 599 600 601 602 0
-603 135 107 0
-603 -135 -107 0
603 -135 107 0
603 135 -107 0
-604 136 108 0
-604 -136 -108 0
604 -136 108 0
604 136 -108 0
-605 137 109 0
-605 -137 -109 0
605 -137 109 0
605 137 -109 0
-606 138 110 0
-606 -138 -110 0
606 -138 110 0
606 138 -110 0
-607 139 111 0
-607 -139 -111 0
607 -139 111 0
607 139 -111 0
-608 140 112 0
-608 -140 -112 0
608 -140 112 0
608 140 -112 0
-609 141 113 0
-609 -141 -113 0
609 -141 113 0
609 141 -113 0
-610 142 114 0
-610 -142 -114 0
610 -142 114 0
610 142 -114 0
603 604 605 606 607 608 609 610 0
-611 165 1 0
-611 -165 -1 0
611 -165 1 0
611 165 -1 0
-612 166 2 0
-612 -166 -2 0
612 -166 2 0
612 166 -2 0
-613 167 3 0
-613 -167 -3 0
613 -167 3 0
613 167 -3 0
-614 168 4 0
-614 -168 -4 0
614 -168 4 0
614 168 -4 0
-615 169 5 0
-615 -169 -5 0
615 -169 5 0
615 169 -5 0
-616 170 6 0
-616 -170 -6 0
616 -170 6 0
616 170 -6 0
-617 171 7 0
-617 -171 -7 0
617 -171 7 0
617 171 -7 0
-618 172 8 0
-618 -172 -8 0
618 -172 8 0
618 172 -8 0
611 612 613 614 615 616 617 618 0
-619 165 9 0
-619 -165 -9 0
619 -165 9 0
619 165 -9 0
-620 166 10 0
-620 -166 -10 0
620 -166 10 0
620 166 -10 0
-621 167 11 0
-621 -167 -11 0
621 -167 11 0
621 167 -11 0
-622 168 12 0
-622 -168 -12 0
622 -168 12 0
622 168 -12 0
-623 169 13 0
-623 -169 -13 0
623 -169 13 0
623 169 -13 0
-624 170 14 0
-624 -170 -14 0
624 -170 14 0
624 170 -14 0
-625 171 15 0
-625 -171 -15 0
625 -171 15 0
625 171 -15 0
-626 172 16 0
-626 -172 -16 0
626 -172 16 0
626 172 -16 0
619 620 621 622 623 624 625 626 0
-627 165 17 0
-627 -165 -17 0
627 -165 17 0
627 165 -17 0
-628 166 18 0
-628 -166 -18 0
628 -166 18 0
628 166 -18 0
-629 167 19 0
-629 -167 -19 0
629 -167 19 0
629 167 -19 0
-630 168 20 0
-630 -168 -20 0
630 -168 20 0
630 168 -20 0
-631 169 21 0
-631 -169 -21 0
631 -169 21 0
631 169 -21 0
-632 170 22 0
-632 -170 -22 0
632 -170 22 0
632 170 -22 0
-633 171 23 0
-633 -171 -23 0
633 -171 23 0
633 171 -23 0
-634 172 24 0
-634 -172 -24 0
634 -172 24 0
634 172 -24 0
627 628 629 630 631 632 633 634 0
-635 165 25 0
-635 -165 -25 0
635 -165 25 0
635 165 -25 0
-636 166 26 0
-636 -166 -26 0
636 -166 26 0
636 166 -26 0
-637 167 27 0
-637 -167 -27 0
637 -167 27 0
637 167 -27 0
-638 168 28 0
-638 -168 -28 0
638 -168 28 0
638 168 -28 0
-639 169 29 0
-639 -169 -29 0
639 -169 29 0
639 169 -29 0
-640 170 30 0
-640 -170 -30 0
640 -170 30 0
640 170 -30 0
-641 171 31 0
-641 -171 -31 0
641 -171 31 0
641 171 -31 0
-642 172 32 0
-642 -172 -32 0
642 -172 32 0
642 172 -32 0
635 636 637 638 639 640 641 642 0
-643 165 33 0
-643 -165 -33 0
643 -165 33 0
643 165 -33 0
-644 166 34 0
-644 -166 -34 0
644 -166 34 0
644 166 -34 0
-645 167 35 0
-645 -167 -35 0
645 -167 35 0
645 167 -35 0
-646 168 36 0
-646 -168 -36 0
646 -168 36 0
646 168 -36 0
-647 169 37 0
-647 -169 -37 0
647 -169 37 0
647 169 -37 0
-648 170 38 0
-648 -170 -38 0
648 -170 38 0
648 170 -38 0
-649 171 39 0
-649 -171 -39 0
649 -171 39 0
649 171 -39 0
-650 172 40 0
-650 -172 -40 0
650 -172 40 0
650 172 -40 0
643 644 645 646 647 648 649 650 0
-651 165 41 0
-651 -165 -41 0
651 -165 41 0
651 165 -41 0
-652 166 42 0
-652 -166 -42 0
652 -166 42 0
652 166 -42 0
-653 167 43 0
-653 -167 -43 0
653 -167 43 0
653 167 -43 0
-654 168 44 0
-654 -168 -44 0
654 -168 44 0
654 168 -44 0
-655 169 45 0
-655 -169 -45 0
655 -169 45 0
655 169 -45 0
-656 170 46 0
-656 -170 -46 0
656 -170 46 0
656 170 -46 0
-657 171 47 0
-657 -171 -47 0
657 -171 47 0
657 171 -47 0
-658 172 48 0
-658 -172 -48 0
658 -172 48 0
658 172 -48 0
651 652 653 654 655 656 657 658 0
-659 165 49 0
-659 -165 -49 0
659 -165 49 0
659 165 -49 0
-660 166 50 0
-660 -166 -50 0
660 -166 50 0
660 166 -50 0
-661 167 51 0
-661 -167 -51 0
661 -167 51 0
661 167 -51 0
-662 168 52 0
-662 -168 -52 0
662 -168 52 0
662 168 -52 0
-663 169 53 0
-663 -169 -53 0
663 -169 53 0
663 169 -53 0
-664 170 54 0
-664 -170 -54 0
664 -170 54 0
664 170 -54 0
-665 171 55 0
-665 -171 -55 0
665 -171 55 0
665 171 -55 0
-666 172 56 0
-666 -172 -56 0
666 -172 56 0
666 172 -56 0
659 660 661 662 663 664 665 666 0
-667 165 57 0
-667 -165 -57 0
667 -165 57 0
667 165 -57 0
-668 166 58 0
-668 -166 -58 0
668 -166 58 0
668 166 -58 0
-669 167 59 0
-669 -167 -59 0
669 -167 59 0
669 167 -59 0
-670 168 60 0
-670 -168 -60 0
670 -168 60 0
670 168 -60 0
-671 169 61 0
-671 -169 -61 0
671 -169 61 0
671 169 -61 0
-672 170 62 0
-672 -170 -62 0
672 -170 62 0
672 170 -62 0
-673 171 63 0
-673 -171 -63 0
673 -171 63 0
673 171 -63 0
-674 172 64 0
-674 -172 -64 0
674 -172 64 0
674 172 -64 0
667 668 669 670 671 672 673 674 0
-675 165 81 0
-675 -165 -81 0
675 -165 81 0
675 165 -81 0
-676 166 82 0
-676 -166 -82 0
676 -166 82 0
676 166 -82 0
-677 167 83 0
-677 -167 -83 0
677 -167 83 0
677 167 -83 0
-678 168 84 0
-678 -168 -84 0
678 -168 84 0
678 168 -84 0
-679 169 85 0
-679 -169 -85 0
679 -169 85 0
679 169 -85 0
-680 170 86 0
-680 -170 -86 0
680 -170 86 0
680 170 -86 0
-681 171 87 0
-681 -171 -87 0
681 -171 87 0
681 171 -87 0
-682 172 88 0
-682 -172 -88 0
682 -172 88 0
682 172 -88 0
675 676 677 678 679 680 681 682 0
-683 165 107 0
-683 -165 -107 0
683 -165 107 0
683 165 -107 0
-684 166 108 0
-684 -166 -108 0
684 -166 108 0
684 166 -108 0
-685 167 109 0
-685 -167 -109 0
685 -167 109 0
685 167 -109 0
-686 168 110 0
-686 -168 -110 0
686 -168 110 0
686 168 -110 0
-687 169 111 0
-687 -169 -111 0
687 -169 111 0
687 169 -111 0
-688 170 112 0
-688 -170 -112 0
688 -170 112 0
688 170 -112 0
-689 171 113 0
-689 -171 -113 0
689 -171 113 0
689 171 -113 0
-690 172 114 0
-690 -172 -114 0
690 -172 114 0
690 172 -114 0
683 684 685 686 687 688 689 690 0
-691 165 135 0
-691 -165 -135 0
691 -165 135 0
691 165 -135 0
-692 166 136 0
-692 -166 -136 0
692 -166 136 0
692 166 -136 0
-693 167 137 0
-693 -167 -137 0
693 -167 137 0
693 167 -137 0
-694 168 138 0
-694 -168 -138 0
694 -168 138 0
694 168 -138 0
-695 169 139 0
-695 -169 -139 0
695 -169 139 0
695 169 -139 0
-696 170 140 0
-696 -170 -140 0
696 -170 140 0
696 170 -140 0
-697 171 141 0
-697 -171 -141 0
697 -171 141 0
697 171 -141 0
-698 172 142 0
-698 -172 -142 0
698 -172 142 0
698 172 -142 0
691 692 693 694 695 696 697 698 0
-699 197 1 0
-699 -197 -1 0
699 -197 1 0
699 197 -1 0
-700 198 2 0
-700 -198 -2 0
700 -198 2 0
700 198 -2 0
-701 199 3 0
-701 -199 -3 0
701 -199 3 0
701 199 -3 0
-702 200 4 0
-702 -200 -4 0
702 -200 4 0
702 200 -4 0
-703 201 5 0
-703 -201 -5 0
703 -201 5 0
703 201 -5 0
-704 202 6 0
-704 -202 -6 0
704 -202 6 0
704 202 -6 0
-705 203 7 0
-705 -203 -7 0
705 -203 7 0
705 203 -7 0
-706 204 8 0
-706 -204 -8 0
706 -204 8 0
706 204 -8 0
699 700 701 702 703 704 705 706 0
-707 197 9 0
-707 -197 -9 0
707 -197 9 0
707 197 -9 0
-708 198 10 0
-708 -198 -10 0
708 -198 10 0
708 198 -10 0
-709 199 11 0
-709 -199 -11 0
709 -199 11 0
709 199 -11 0
-710 200 12 0
-710 -200 -12 0
710 -200 12 0
710 200 -12 0
-711 201 13 0
-711 -201 -13 0
711 -201 13 0
711 201 -13 0
-712 202 14 0
-712 -202 -14 0
712 -202 14 0
712 202 -14 0
-713 203 15 0
-713 -203 -15 0
713 -203 15 0
713 203 -15 0
-714 204 16 0
-714 -204 -16 0
714 -204 16 0
714 204 -16 0
707 708 709 710 711 712 713 714 0
-715 197 17 0
-715 -197 -17 0
715 -197 17 0
715 197 -17 0
-716 198 18 0
-716 -198 -18 0
716 -198 18 0
716 198 -18 0
-717 199 19 0
-717 -199 -19 0
717 -199 19 0
717 199 -19 0
-718 200 20 0
-718 -200 -20 0
718 -200 20 0
718 200 -20 0
-719 201 21 0
-719 -201 -21 0
719 -201 21 0
719 201 -21 0
-720 202 22 0
-720 -202 -22 0
720 -202 22 0
720 202 -22 0
-721 203 23 0
-721 -203 -23 0
721 -203 23 0
721 203 -23 0
-722 204 24 0
-722 -204 -24 0
722 -204 24 0
722 204 -24 0
715 716 717 718 719 720 721 722 0
-723 197 25 0
-723 -197 -25 0
723 -197 25 0
723 197 -25 0
-724 198 26 0
-724 -198 -26 0
724 -198 26 0
724 198 -26 0
-725 199 27 0
-725 -199 -27 0
725 -199 27 0
725 199 -27 0
-726 200 28 0
-726 -200 -28 0
726 -200 28 0
726 200 -28 0
-727 201 29 0
-727 -201 -29 0
727 -201 29 0
727 201 -29 0
-728 202 30 0
-728 -202 -30 0
728 -202 30 0
728 202 -30 0
-729 203 31 0
-729 -203 -31 0
729 -203 31 0
729 203 -31 0
-730 204 32 0
-730 -204 -32 0
730 -204 32 0
730 204 -32 0
723 724 725 726 727 728 729 730 0
-731 197 33 0
-731 -197 -33 0
731 -197 33 0
731 197 -33 0
-732 198 34 0
-732 -198 -34 0
732 -198 34 0
732 198 -34 0
-733 199 35 0
-733 -199 -35 0
733 -199 35 0
733 199 -35 0
-734 200 36 0
-734 -200 -36 0
734 -200 36 0
734 200 -36 0
-735 201 37 0
-735 -201 -37 0
735 -201 37 0
735 201 -37 0
-736 202 38 0
-736 -202 -38 0
736 -202 38 0
736 202 -38 0
-737 203 39 0
-737 -203 -39 0
737 -203 39 0
737 203 -39 0
-738 204 40 0
-738 -204 -40 0
738 -204 40 0
738 204 -40 0
731 732 733 734 735 736 737 738 0
-739 197 41 0
-739 -197 -41 0
739 -197 41 0
739 197 -41 0
-740 198 42 0
-740 -198 -42 0
740 -198 42 0
740 198 -42 0
-741 199 43 0
-741 -199 -43 0
741 -199 43 0
741 199 -43 0
-742 200 44 0
-742 -200 -44 0
742 -200 44 0
742 200 -44 0
-743 201 45 0
-743 -201 -45 0
743 -201 45 0
743 201 -45 0
-744 202 46 0
-744 -202 -46 0
744 -202 46 0
744 202 -46 0
-745 203 47 0
-745 -203 -47 0
745 -203 47 0
745 203 -47 0
-746 204 48 0
-746 -204 -48 0
746 -204 48 0
746 204 -48 0
739 740 741 742 743 744 745 746 0
-747 197 49 0
-747 -197 -49 0
747 -197 49 0
747 197 -49 0
-748 198 50 0
-748 -198 -50 0
748 -198 50 0
748 198 -50 0
-749 199 51 0
-749 -199 -51 0
749 -199 51 0
749 199 -51 0
-750 200 52 0
-750 -200 -52 0
750 -200 52 0
750 200 -52 0
-751 201 53 0
-751 -201 -53 0
751 -201 53 0
751 201 -53 0
-752 202 54 0
-752 -202 -54 0
752 -202 54 0
752 202 -54 0
-753 203 55 0
-753 -203 -55 0
753 -203 55 0
753 203 -55 0
-754 204 56 0
-754 -204 -56 0
754 -204 56 0
754 204 -56 0
747 748 749 750 751 752 753 754 0
-755 197 57 0
-755 -197 -57 0
755 -197 57 0
755 197 -57 0
-756 198 58 0
-756 -198 -58 0
756 -198 58 0
756 198 -58 0
-757 199 59 0
-757 -199 -59 0
757 -199 59 0
757 199 -59 0
-758 200 60 0
-758 -200 -60 0
758 -200 60 0
758 200 -60 0
-759 201 61 0
-759 -201 -61 0
759 -201 61 0
759 201 -61 0
-760 202 62 0
-760 -202 -62 0
760 -202 62 0
760 202 -62 0
-761 203 63 0
-761 -203 -63 0
761 -203 63 0
761 203 -63 0
-762 204 64 0
-762 -204 -64 0
762 -204 64 0
762 204 -64 0
755 756 757 758 759 760 761 762 0
-763 197 81 0
-763 -197 -81 0
763 -197 81 0
763 197 -81 0
-764 198 82 0
-764 -198 -82 0
764 -198 82 0
764 198 -82 0
-765 199 83 0
-765 -199 -83 0
765 -199 83 0
765 199 -83 0
-766 200 84 0
-766 -200 -84 0
766 -200 84 0
766 200 -84 0
-767 201 85 0
-767 -201 -85 0
767 -201 85 0
767 201 -85 0
-768 202 86 0
-768 -202 -86 0
768 -202 86 0
768 202 -86 0
-769 203 87 0
-769 -203 -87 0
769 -203 87 0
769 203 -87 0
-770 204 88 0
-770 -204 -88 0
770 -204 88 0
770 204 -88 0
763 764 765 766 767 768 769 770 0
-771 197 107 0
-771 -197 -107 0
771 -197 107 0
771 197 -107 0
-772 198 108 0
-772 -198 -108 0
772 -198 108 0
772 198 -108 0
-773 199 109 0
-773 -199 -109 0
773 -199 109 0
773 199 -109 0
-774 200 110 0
-774 -200 -110 0
774 -200 110 0
774 200 -110 0
-775 201 111 0
-775 -201 -111 0
775 -201 111 0
775 201 -111 0
-776 202 112 0
-776 -202 -112 0
776 -202 112 0
776 202 -112 0
-777 203 113 0
-777 -203 -113 0
777 -203 113 0
777 203 -113 0
-778 204 114 0
-778 -204 -114 0
778 -204 114 0
778 204 -114 0
771 772 773 774 775 776 777 778 0
-779 197 135 0
-779 -197 -135 0
779 -197 135 0
779 197 -135 0
-780 198 136 0
-780 -198 -136 0
780 -198 136 0
780 198 -136 0
-781 199 137 0
-781 -199 -137 0
781 -199 137 0
781 199 -137 0
-782 200 138 0
-782 -200 -138 0
782 -200 138 0
782 200 -138 0
-783 201 139 0
-783 -201 -139 0
783 -201 139 0
783 201 -139 0
-784 202 140 0
-784 -202 -140 0
784 -202 140 0
784 202 -140 0
-785 203 141 0
-785 -203 -141 0
785 -203 141 0
785 203 -141 0
-786 204 142 0
-786 -204 -142 0
786 -204 142 0
786 204 -142 0
779 780 781 782 783 784 785 786 0
-787 197 165 0
-787 -197 -165 0
787 -197 165 0
787 197 -165 0
-788 198 166 0
-788 -198 -166 0
788 -198 166 0
788 198 -166 0
-789 199 167 0
-789 -199 -167 0
789 -199 167 0
789 199 -167 0
-790 200 168 0
-790 -200 -168 0
790 -200 168 0
790 200 -168 0
-791 201 169 0
-791 -201 -169 0
791 -201 169 0
791 201 -169 0
-792 202 170 0
-792 -202 -170 0
792 -202 170 0
792 202 -170 0
-793 203 171 0
-793 -203 -171 0
793 -203 171 0
793 203 -171 0
-794 204 172 0
-794 -204 -172 0
794 -204 172 0
794 204 -172 0
787 788 789 790 791 792 793 794 0
-795 231 1 0
-795 -231 -1 0
795 -231 1 0
795 231 -1 0
-796 232 2 0
-796 -232 -2 0
796 -232 2 0
796 232 -2 0
-797 233 3 0
-797 -233 -3 0
797 -233 3 0
797 233 -3 0
-798 234 4 0
-798 -234 -4 0
798 -234 4 0
798 234 -4 0
-799 235 5 0
-799 -235 -5 0
799 -235 5 0
799 235 -5 0
-800 236 6 0
-800 -236 -6 0
800 -236 6 0
800 236 -6 0
-801 237 7 0
-801 -237 -7 0
801 -237 7 0
801 237 -7 0
-802 238 8 0
-802 -238 -8 0
802 -238 8 0
802 238 -8 0
795 796 797 798 799 800 801 802 0
-803 231 9 0
-803 -231 -9 0
803 -231 9 0
803 231 -9 0
-804 232 10 0
-804 -232 -10 0
804 -232 10 0
804 232 -10 0
-805 233 11 0
-805 -233 -11 0
805 -233 11 0
805 233 -11 0
-806 234 12 0
-806 -234 -12 0
806 -234 12 0
806 234 -12 0
-807 235 13 0
-807 -235 -13 0
807 -235 13 0
807 235 -13 0
-808 236 14 0
-808 -236 -14 0
808 -236 14 0
808 236 -14 0
-809 237 15 0
-809 -237 -15 0
809 -237 15 0
809 237 -15 0
-810 238 16 0
-810 -238 -16 0
810 -238 16 0
810 238 -16 0
803 804 805 806 807 808 809 810 0
-811 231 17 0
-811 -231 -17 0
811 -231 17 0
811 231 -17 0
-812 232 18 0
-812 -232 -18 0
812 -232 18 0
812 232 -18 0
-813 233 19 0
-813 -233 -19 0
813 -233 19 0
813 233 -19 0
-814 234 20 0
-814 -234 -20 0
814 -234 20 0
814 234 -20 0
-815 235 21 0
-815 -235 -21 0
815 -235 21 0
815 235 -21 0
-816 236 22 0
-816 -236 -22 0
816 -236 22 0
816 236 -22 0
-817 237 23 0
-817 -237 -23 0
817 -237 23 0
817 237 -23 0
-818 238 24 0
-818 -238 -24 0
818 -238 24 0
818 238 -24 0
811 812 813 814 815 816 817 818 0
-819 231 25 0
-819 -231 -25 0
819 -231 25 0
819 231 -25 0
-820 232 26 0
-820 -232 -26 0
820 -232 26 0
820 232 -26 0
-821 233 27 0
-821 -233 -27 0
821 -233 27 0
821 233 -27 0
-822 234 28 0
-822 -234 -28 0
822 -234 28 0
822 234 -28 0
-823 235 29 0
-823 -235 -29 0
823 -235 29 0
823 235 -29 0
-824 236 30 0
-824 -236 -30 0
824 -236 30 0
824 236 -30 0
-825 237 31 0
-825 -237 -31 0
825 -237 31 0
825 237 -31 0
-826 238 32 0
-826 -238 -32 0
826 -238 32 0
826 238 -32 0
819 820 821 822 823 824 825 826 0
-827 231 33 0
-827 -231 -33 0
827 -231 33 0
827 231 -33 0
-828 232 34 0
-828 -232 -34 0
828 -232 34 0
828 232 -34 0
-829 233 35 0
-829 -233 -35 0
829 -233 35 0
829 233 -35 0
-830 234 36 0
-830 -234 -36 0
830 -234 36 0
830 234 -36 0
-831 235 37 0
-831 -235 -37 0
831 -235 37 0
831 235 -37 0
-832 236 38 0
-832 -236 -38 0
832 -236 38 0
832 236 -38 0
-833 237 39 0
-833 -237 -39 0
833 -237 39 0
833 237 -39 0
-834 238 40 0
-834 -238 -40 0
834 -238 40 0
834 238 -40 0
827 828 829 830 831 832 833 834 0
-835 231 41 0
-835 -231 -41 0
835 -231 41 0
835 231 -41 0
-836 232 42 0
-836 -232 -42 0
836 -232 42 0
836 232 -42 0
-837 233 43 0
-837 -233 -43 0
837 -233 43 0
837 233 -43 0
-838 234 44 0
-838 -234 -44 0
838 -234 44 0
838 234 -44 0
-839 235 45 0
-839 -235 -45 0
839 -235 45 0
839 235 -45 0
-840 236 46 0
-840 -236 -46 0
840 -236 46 0
840 236 -46 0
-841 237 47 0
-841 -237 -47 0
841 -237 47 0
841 237 -47 0
-842 238 48 0
-842 -238 -48 0
842 -238 48 0
842 238 -48 0
835 836 837 838 839 840 841 842 0
-843 231 49 0
-843 -231 -49 0
843 -231 49 0
843 231 -49 0
-844 232 50 0
-844 -232 -50 0
844 -232 50 0
844 232 -50 0
-845 233 51 0
-845 -233 -51 0
845 -233 51 0
845 233 -51 0
-846 234 52 0
-846 -234 -52 0
846 -234 52 0
846 234 -52 0
-847 235 53 0
-847 -235 -53 0
847 -235 53 0
847 235 -53 0
-848 236 54 0
-848 -236 -54 0
848 -236 54 0
848 236 -54 0
-849 237 55 0
-849 -237 -55 0
849 -237 55 0
849 237 -55 0
-850 238 56 0
-850 -238 -56 0
850 -238 56 0
850 238 -56 0
843 844 845 846 847 848 849 850 0
-851 231 57 0
-851 -231 -57 0
851 -231 57 0
851 231 -57 0
-852 232 58 0
-852 -232 -58 0
852 -232 58 0
852 232 -58 0
-853 233 59 0
-853 -233 -59 0
853 -233 59 0
853 233 -59 0
-854 234 60 0
-854 -234 -60 0
854 -234 60 0
854 234 -60 0
-855 235 61 0
-855 -235 -61 0
855 -235 61 0
855 235 -61 0
-856 236 62 0
-856 -236 -62 0
856 -236 62 0
856 236 -62 0
-857 237 63 0
-857 -237 -63 0
857 -237 63 0
857 237 -63 0
-858 238 64 0
-858 -238 -64 0
858 -238 64 0
858 238 -64 0
851 852 853 854 855 856 857 858 0
-859 231 81 0
-859 -231 -81 0
859 -231 81 0
859 231 -81 0
-860 232 82 0
-860 -232 -82 0
860 -232 82 0
860 232 -82 0
-861 233 83 0
-861 -233 -83 0
861 -233 83 0
861 233 -83 0
-862 234 84 0
-862 -234 -84 0
862 -234 84 0
862 234 -84 0
-863 235 85 0
-863 -235 -85 0
863 -235 85 0
863 235 -85 0
-864 236 86 0
-864 -236 -86 0
864 -236 86 0
864 236 -86 0
-865 237 87 0
-865 -237 -87 0
865 -237 87 0
865 237 -87 0
-866 238 88 0
-866 -238 -88 0
866 -238 88 0
866 238 -88 0
859 860 861 862 863 864 865 866 0
-867 231 107 0
-867 -231 -107 0
867 -231 107 0
867 231 -107 0
-868 232 108 0
-868 -232 -108 0
868 -232 108 0
868 232 -108 0
-869 233 109 0
-869 -233 -109 0
869 -233 109 0
869 233 -109 0
-870 234 110 0
-870 -234 -110 0
870 -234 110 0
870 234 -110 0
-871 235 111 0
-871 -235 -111 0
871 -235 111 0
871 235 -111 0
-872 236 112 0
-872 -236 -112 0
872 -236 112 0
872 236 -112 0
-873 237 113 0
-873 -237 -113 0
873 -237 113 0
873 237 -113 0
-874 238 114 0
-874 -238 -114 0
874 -238 114 0
874 238 -114 0
867 868 869 870 871 872 873 874 0
-875 231 135 0
-875 -231 -135 0
875 -231 135 0
875 231 -135 0
-876 232 136 0
-876 -232 -136 0
876 -232 136 0
876 232 -136 0
-877 233 137 0
-877 -233 -137 0
877 -233 137 0
877 233 -137 0
-878 234 138 0
-878 -234 -138 0
878 -234 138 0
878 234 -138 0
-879 235 139 0
-879 -235 -139 0
879 -235 139 0
879 235 -139 0
-880 236 140 0
-880 -236 -140 0
880 -236 140 0
880 236 -140 0
-881 237 141 0
-881 -237 -141 0
881 -237 141 0
881 237 -141 0
-882 238 142 0
-882 -238 -142 0
882 -238 142 0
882 238 -142 0
875 876 877 878 879 880 881 882 0
-883 231 165 0
-883 -231 -165 0
883 -231 165 0
883 231 -165 0
-884 232 166 0
-884 -232 -166 0
884 -232 166 0
884 232 -166 0
-885 233 167 0
-885 -233 -167 0
885 -233 167 0
885 233 -167 0
-886 234 168 0
-886 -234 -168 0
886 -234 168 0
886 234 -168 0
-887 235 169 0
-887 -235 -169 0
887 -235 169 0
887 235 -169 0
-888 236 170 0
-888 -236 -170 0
888 -236 170 0
888 236 -170 0
-889 237 171 0
-889 -237 -171 0
889 -237 171 0
889 237 -171 0
-890 238 172 0
-890 -238 -172 0
890 -238 172 0
890 238 -172 0
883 884 885 886 887 888 889 890 0
-891 231 197 0
-891 -231 -197 0
891 -231 197 0
891 231 -197 0
-892 232 198 0
-892 -232 -198 0
892 -232 198 0
892 232 -198 0
-893 233 199 0
-893 -233 -199 0
893 -233 199 0
893 233 -199 0
-894 234 200 0
-894 -234 -200 0
894 -234 200 0
894 234 -200 0
-895 235 201 0
-895 -235 -201 0
895 -235 201 0
895 235 -201 0
-896 236 202 0
-896 -236 -202 0
896 -236 202 0
896 236 -202 0
-897 237 203 0
-897 -237 -203 0
897 -237 203 0
897 237 -203 0
-898 238 204 0
-898 -238 -204 0
898 -238 204 0
898 238 -204 0
891 892 893 894 895 896 897 898 0
-899 267 1 0
-899 -267 -1 0
899 -267 1 0
899 267 -1 0
-900 268 2 0
-900 -268 -2 0
900 -268 2 0
900 268 -2 0
-901 269 3 0
-901 -269 -3 0
901 -269 3 0
901 269 -3 0
-902 270 4 0
-902 -270 -4 0
902 -270 4 0
902 270 -4 0
-903 271 5 0
-903 -271 -5 0
903 -271 5 0
903 271 -5 0
-904 272 6 0
-904 -272 -6 0
904 -272 6 0
904 272 -6 0
-905 273 7 0
-905 -273 -7 0
905 -273 7 0
905 273 -7 0
-906 274 8 0
-906 -274 -8 0
906 -274 8 0
906 274 -8 0
899 900 901 902 903 904 905 906 0
-907 267 9 0
-907 -267 -9 0
907 -267 9 0
907 267 -9 0
-908 268 10 0
-908 -268 -10 0
908 -268 10 0
908 268 -10 0
-909 269 11 0
-909 -269 -11 0
909 -269 11 0
909 269 -11 0
-910 270 12 0
-910 -270 -12 0
910 -270 12 0
910 270 -12 0
-911 271 13 0
-911 -271 -13 0
911 -271 13 0
911 271 -13 0
-912 272 14 0
-912 -272 -14 0
912 -272 14 0
912 272 -14 0
-913 273 15 0
-913 -273 -15 0
913 -273 15 0
913 273 -15 0
-914 274 16 0
-914 -274 -16 0
914 -274 16 0
914 274 -16 0
907 908 909 910 911 912 913 914 0
-915 267 17 0
-915 -267 -17 0
915 -267 17 0
915 267 -17 0
-916 268 18 0
-916 -268 -18 0
916 -268 18 0
916 268 -18 0
-917 269 19 0
-917 -269 -19 0
917 -269 19 0
917 269 -19 0
-918 270 20 0
-918 -270 -20 0
918 -270 20 0
918 270 -20 0
-919 271 21 0
-919 -271 -21 0
919 -271 21 0
919 271 -21 0
-920 272 22 0
-920 -272 -22 0
920 -272 22 0
920 272 -22 0
-921 273 23 0
-921 -273 -23 0
921 -273 23 0
921 273 -23 0
-922 274 24 0
-922 -274 -24 0
922 -274 24 0
922 274 -24 0
915 916 917 918 919 920 921 922 0
-923 267 25 0
-923 -267 -25 0
923 -267 25 0
923 267 -25 0
-924 268 26 0
-924 -268 -26 0
924 -268 26 0
924 268 -26 0
-925 269 27 0
-925 -269 -27 0
925 -269 27 0
925 269 -27 0
-926 270 28 0
-926 -270 -28 0
926 -270 28 0
926 270 -28 0
-927 271 29 0
-927 -271 -29 0
927 -271 29 0
927 271 -29 0
-928 272 30 0
-928 -272 -30 0
928 -272 30 0
928 272 -30 0
-929 273 31 0
-929 -273 -31 0
929 -273 31 0
929 273 -31 0
-930 274 32 0
-930 -274 -32 0
930 -274 32 0
930 274 -32 0
923 924 925 926 927 928 929 930 0
-931 267 33 0
-931 -267 -33 0
931 -267 33 0
931 267 -33 0
-932 268 34 0
-932 -268 -34 0
932 -268 34 0
932 268 -34 0
-933 269 35 0
-933 -269 -35 0
933 -269 35 0
933 269 -35 0
-934 270 36 0
-934 -270 -36 0
934 -270 36 0
934 270 -36 0
-935 271 37 0
-935 -271 -37 0
935 -271 37 0
935 271 -37 0
-936 272 38 0
-936 -272 -38 0
936 -272 38 0
936 272 -38 0
-937 273 39 0
-937 -273 -39 0
937 -273 39 0
937 273 -39 0
-938 274 40 0
-938 -274 -40 0
938 -274 40 0
938 274 -40 0
931 932 933 934 935 936 937 938 0
-939 267 41 0
-939 -267 -41 0
939 -267 41 0
939 267 -41 0
-940 268 42 0
-940 -268 -42 0
940 -268 42 0
940 268 -42 0
-941 269 43 0
-941 -269 -43 0
941 -269 43 0
941 269 -43 0
-942 270 44 0
-942 -270 -44 0
942 -270 44 0
942 270 -44 0
-943 271 45 0
-943 -271 -45 0
943 -271 45 0
943 271 -45 0
-944 272 46 0
-944 -272 -46 0
944 -272 46 0
944 272 -46 0
-945 273 47 0
-945 -273 -47 0
945 -273 47 0
945 273 -47 0
-946 274 48 0
-946 -274 -48 0
946 -274 48 0
946 274 -48 0
939 940 941 942 943 944 945 946 0
-947 267 49 0
-947 -267 -49 0
947 -267 49 0
947 267 -49 0
-948 268 50 0
-948 -268 -50 0
948 -268 50 0
948 268 -50 0
-949 269 51 0
-949 -269 -51 0
949 -269 51 0
949 269 -51 0
-950 270 52 0
-950 -270 -52 0
950 -270 52 0
950 270 -52 0
-951 271 53 0
-951 -271 -53 0
951 -271 53 0
951 271 -53 0
-952 272 54 0
-952 -272 -54 0
952 -272 54 0
952 272 -54 0
-953 273 55 0
-953 -273 -55 0
953 -273 55 0
953 273 -55 0
-954 274 56 0
-954 -274 -56 0
954 -274 56 0
954 274 -56 0
947 948 949 950 951 952 953 954 0
-955 267 57 0
-955 -267 -57 0
955 -267 57 0
955 267 -57 0
-956 268 58 0
-956 -268 -58 0
956 -268 58 0
956 268 -58 0
-957 269 59 0
-957 -269 -59 0
957 -269 59 0
957 269 -59 0
-958 270 60 0
-958 -270 -60 0
958 -270 60 0
958 270 -60 0
-959 271 61 0
-959 -271 -61 0
959 -271 61 0
959 271 -61 0
-960 272 62 0
-960 -272 -62 0
960 -272 62 0
960 272 -62 0
-961 273 63 0
-961 -273 -63 0
961 -273 63 0
961 273 -63 0
-962 274 64 0
-962 -274 -64 0
962 -274 64 0
962 274 -64 0
955 956 957 958 959 960 961 962 0
-963 267 81 0
-963 -267 -81 0
963 -267 81 0
963 267 -81 0
-964 268 82 0
-964 -268 -82 0
964 -268 82 0
964 268 -82 0
-965 269 83 0
-965 -269 -83 0
965 -269 83 0
965 269 -83 0
-966 270 84 0
-966 -270 -84 0
966 -270 84 0
966 270 -84 0
-967 271 85 0
-967 -271 -85 0
967 -271 85 0
967 271 -85 0
-968 272 86 0
-968 -272 -86 0
968 -272 86 0
968 272 -86 0
-969 273 87 0
-969 -273 -87 0
969 -273 87 0
969 273 -87 0
-970 274 88 0
-970 -274 -88 0
970 -274 88 0
970 274 -88 0
963 964 965 966 967 968 969 970 0
-971 267 107 0
-971 -267 -107 0
971 -267 107 0
971 267 -107 0
-972 268 108 0
-972 -268 -108 0
972 -268 108 0
972 268 -108 0
-973 269 109 0
-973 -269 -109 0
973 -269 109 0
973 269 -109 0
-974 270 110 0
-974 -270 -110 0
974 -270 110 0
974 270 -110 0
-975 271 111 0
-975 -271 -111 0
975 -271 111 0
975 271 -111 0
-976 272 112 0
-976 -272 -112 0
976 -272 112 0
976 272 -112 0
-977 273 113 0
-977 -273 -113 0
977 -273 113 0
977 273 -113 0
-978 274 114 0
-978 -274 -114 0
978 -274 114 0
978 274 -114 0
971 972 973 974 975 976 977 978 0
-979 267 135 0
-979 -267 -135 0
979 -267 135 0
979 267 -135 0
-980 268 136 0
-980 -268 -136 0
980 -268 136 0
980 268 -136 0
-981 269 137 0
-981 -269 -137 0
981 -269 137 0
981 269 -137 0
-982 270 138 0
-982 -270 -138 0
982 -270 138 0
982 270 -138 0
-983 271 139 0
-983 -271 -139 0
983 -271 139 0
983 271 -139 0
-984 272 140 0
-984 -272 -140 0
984 -272 140 0
984 272 -140 0
-985 273 141 0
-985 -273 -141 0
985 -273 141 0
985 273 -141 0
-986 274 142 0
-986 -274 -142 0
986 -274 142 0
986 274 -142 0
979 980 981 982 983 984 985 986 0
-987 267 165 0
-987 -267 -165 0
987 -267 165 0
987 267 -165 0
-988 268 166 0
-988 -268 -166 0
988 -268 166 0
988 268 -166 0
-989 269 167 0
-989 -269 -167 0
989 -269 167 0
989 269 -167 0
-990 270 168 0
-990 -270 -168 0
990 -270 168 0
990 270 -168 0
-991 271 169 0
-991 -271 -169 0
991 -271 169 0
991 271 -169 0
-992 272 170 0
-992 -272 -170 0
992 -272 170 0
992 272 -170 0
-993 273 171 0
-993 -273 -171 0
993 -273 171 0
993 273 -171 0
-994 274 172 0
-994 -274 -172 0
994 -274 172 0
994 274 -172 0
987 988 989 990 991 992 993 994 0
-995 267 197 0
-995 -267 -197 0
995 -267 197 0
995 267 -197 0
-996 268 198 0
-996 -268 -198 0
996 -268 198 0
996 268 -198 0
-997 269 199 0
-997 -269 -199 0
997 -269 199 0
997 269 -199 0
-998 270 200 0
-998 -270 -200 0
998 -270 200 0
998 270 -200 0
-999 271 201 0
-999 -271 -201 0
999 -271 201 0
999 271 -201 0
-1000 272 202 0
-1000 -272 -202 0
1000 -272 202 0
1000 272 -202 0
-1001 273 203 0
-1001 -273 -203 0
1001 -273 203 0
1001 273 -203 0
-1002 274 204 0
-1002 -274 -204 0
1002 -274 204 0
1002 274 -204 0
995 996 997 998 999 1000 1001 1002 0
-1003 267 231 0
-1003 -267 -231 0
1003 -267 231 0
1003 267 -231 0
-1004 268 232 0
-1004 -268 -232 0
1004 -268 232 0
1004 268 -232 0
-1005 269 233 0
-1005 -269 -233 0
1005 -269 233 0
1005 269 -233 0
-1006 270 234 0
-1006 -270 -234 0
1006 -270 234 0
1006 270 -234 0
-1007 271 235 0
-1007 -271 -235 0
1007 -271 235 0
1007 271 -235 0
-1008 272 236 0
-1008 -272 -236 0
1008 -272 236 0
1008 272 -236 0
-1009 273 237 0
-1009 -273 -237 0
1009 -273 237 0
1009 273 -237 0
-1010 274 238 0
-1010 -274 -238 0
1010 -274 238 0
1010 274 -238 0
1003 1004 1005 1006 1007 1008 1009 1010 0
-1011 305 1 0
-1011 -305 -1 0
1011 -305 1 0
1011 305 -1 0
-1012 306 2 0
-1012 -306 -2 0
1012 -306 2 0
1012 306 -2 0
-1013 307 3 0
-1013 -307 -3 0
1013 -307 3 0
1013 307 -3 0
-1014 308 4 0
-1014 -308 -4 0
1014 -308 4 0
1014 308 -4 0
-1015 309 5 0
-1015 -309 -5 0
1015 -309 5 0
1015 309 -5 0
-1016 310 6 0
-1016 -310 -6 0
1016 -310 6 0
1016 310 -6 0
-1017 311 7 0
-1017 -311 -7 0
1017 -311 7 0
1017 311 -7 0
-1018 312 8 0
-1018 -312 -8 0
1018 -312 8 0
1018 312 -8 0
1011 1012 1013 1014 1015 1016 1017 1018 0
-1019 305 9 0
-1019 -305 -9 0
1019 -305 9 0
1019 305 -9 0
-1020 306 10 0
-1020 -306 -10 0
1020 -306 10 0
1020 306 -10 0
-1021 307 11 0
-1021 -307 -11 0
1021 -307 11 0
1021 307 -11 0
-1022 308 12 0
-1022 -308 -12 0
1022 -308 12 0
1022 308 -12 0
-1023 309 13 0
-1023 -309 -13 0
1023 -309 13 0
1023 309 -13 0
-1024 310 14 0
-1024 -310 -14 0
1024 -310 14 0
1024 310 -14 0
-1025 311 15 0
-1025 -311 -15 0
1025 -311 15 0
1025 311 -15 0
-1026 312 16 0
-1026 -312 -16 0
1026 -312 16 0
1026 312 -16 0
1019 1020 1021 1022 1023 1024 1025 1026 0
-1027 305 17 0
-1027 -305 -17 0
1027 -305 17 0
1027 305 -17 0
-1028 306 18 0
-1028 -306 -18 0
1028 -306 18 0
1028 306 -18 0
-1029 307 19 0
-1029 -307 -19 0
1029 -307 19 0
1029 307 -19 0
-1030 308 20 0
-1030 -308 -20 0
1030 -308 20 0
1030 308 -20 0
-1031 309 21 0
-1031 -309 -21 0
1031 -309 21 0
1031 309 -21 0
-1032 310 22 0
-1032 -310 -22 0
1032 -310 22 0
1032 310 -22 0
-1033 311 23 0
-1033 -311 -23 0
1033 -311 23 0
1033 311 -23 0
-1034 312 24 0
-1034 -312 -24 0
1034 -312 24 0
1034 312 -24 0
1027 1028 1029 1030 1031 1032 1033 1034 0
-1035 305 25 0
-1035 -305 -25 0
1035 -305 25 0
1035 305 -25 0
-1036 306 26 0
-1036 -306 -26 0
1036 -306 26 0
1036 306 -26 0
-1037 307 27 0
-1037 -307 -27 0
1037 -307 27 0
1037 307 -27 0
-1038 308 28 0
-1038 -308 -28 0
1038 -308 28 0
1038 308 -28 0
-1039 309 29 0
-1039 -309 -29 0
1039 -309 29 0
1039 309 -29 0
-1040 310 30 0
-1040 -310 -30 0
1040 -310 30 0
1040 310 -30 0
-1041 311 31 0
-1041 -311 -31 0
1041 -311 31 0
1041 311 -31 0
-1042 312 32 0
-1042 -312 -32 0
1042 -312 32 0
1042 312 -32 0
1035 1036 1037 1038 1039 1040 1041 1042 0
-1043 305 33 0
-1043 -305 -33 0
1043 -305 33 0
1043 305 -33 0
-1044 306 34 0
-1044 -306 -34 0
1044 -306 34 0
1044 306 -34 0
-1045 307 35 0
-1045 -307 -35 0
1045 -307 35 0
1045 307 -35 0
-1046 308 36 0
-1046 -308 -36 0
1046 -308 36 0
1046 308 -36 0
-1047 309 37 0
-1047 -309 -37 0
1047 -309 37 0
1047 309 -37 0
-1048 310 38 0
-1048 -310 -38 0
1048 -310 38 0
1048 310 -38 0
-1049 311 39 0
-1049 -311 -39 0
1049 -311 39 0
1049 311 -39 0
-1050 312 40 0
-1050 -312 -40 0
1050 -312 40 0
1050 312 -40 0
1043 1044 1045 1046 1047 1048 1049 1050 0
-1051 305 41 0
-1051 -305 -41 0
1051 -305 41 0
1051 305 -41 0
-1052 306 42 0
-1052 -306 -42 0
1052 -306 42 0
1052 306 -42 0
-1053 307 43 0
-1053 -307 -43 0
1053 -307 43 0
1053 307 -43 0
-1054 308 44 0
-1054 -308 -44 0
1054 -308 44 0
1054 308 -44 0
-1055 309 45 0
-1055 -309 -45 0
1055 -309 45 0
1055 309 -45 0
-1056 310 46 0
-1056 -310 -46 0
1056 -310 46 0
1056 310 -46 0
-1057 311 47 0
-1057 -311 -47 0
1057 -311 47 0
1057 311 -47 0
-1058 312 48 0
-1058 -312 -48 0
1058 -312 48 0
1058 312 -48 0
1051 1052 1053 1054 1055 1056 1057 1058 0
-1059 305 49 0
-1059 -305 -49 0
1059 -305 49 0
1059 305 -49 0
-1060 306 50 0
-1060 -306 -50 0
1060 -306 50 0
1060 306 -50 0
-1061 307 51 0
-1061 -307 -51 0
1061 -307 51 0
1061 307 -51 0
-1062 308 52 0
-1062 -308 -52 0
1062 -308 52 0
1062 308 -52 0
-1063 309 53 0
-1063 -309 -53 0
1063 -309 53 0
1063 309 -53 0
-1064 310 54 0
-1064 -310 -54 0
1064 -310 54 0
1064 310 -54 0
-1065 311 55 0
-1065 -311 -55 0
1065 -311 55 0
1065 311 -55 0
-1066 312 56 0
-1066 -312 -56 0
1066 -312 56 0
1066 312 -56 0
1059 1060 1061 1062 1063 1064 1065 1066 0
-1067 305 57 0
-1067 -305 -57 0
1067 -305 57 0
1067 305 -57 0
-1068 306 58 0
-1068 -306 -58 0
1068 -306 58 0
1068 306 -58 0
-1069 307 59 0
-1069 -307 -59 0
1069 -307 59 0
1069 307 -59 0
-1070 308 60 0
-1070 -308 -60 0
1070 -308 60 0
1070 308 -60 0
-1071 309 61 0
-1071 -309 -61 0
1071 -309 61 0
1071 309 -61 0
-1072 310 62 0
-1072 -310 -62 0
1072 -310 62 0
1072 310 -62 0
-1073 311 63 0
-1073 -311 -63 0
1073 -311 63 0
1073 311 -63 0
-1074 312 64 0
-1074 -312 -64 0
1074 -312 64 0
1074 312 -64 0
1067 1068 1069 1070 1071 1072 1073 1074 0
-1075 305 81 0
-1075 -305 -81 0
1075 -305 81 0
1075 305 -81 0
-1076 306 82 0
-1076 -306 -82 0
1076 -306 82 0
1076 306 -82 0
-1077 307 83 0
-1077 -307 -83 0
1077 -307 83 0
1077 307 -83 0
-1078 308 84 0
-1078 -308 -84 0
1078 -308 84 0
1078 308 -84 0
-1079 309 85 0
-1079 -309 -85 0
1079 -309 85 0
1079 309 -85 0
-1080 310 86 0
-1080 -310 -86 0
1080 -310 86 0
1080 310 -86 0
-1081 311 87 0
-1081 -311 -87 0
1081 -311 87 0
1081 311 -87 0
-1082 312 88 0
-1082 -312 -88 0
1082 -312 88 0
1082 312 -88 0
1075 1076 1077 1078 1079 1080 1081 1082 0
-1083 305 107 0
-1083 -305 -107 0
1083 -305 107 0
1083 305 -107 0
-1084 306 108 0
-1084 -306 -108 0
1084 -306 108 0
1084 306 -108 0
-1085 307 109 0
-1085 -307 -109 0
1085 -307 109 0
1085 307 -109 0
-1086 308 110 0
-1086 -308 -110 0
1086 -308 110 0
1086 308 -110 0
-1087 309 111 0
-1087 -309 -111 0
1087 -309 111 0
1087 309 -111 0
-1088 310 112 0
-1088 -310 -112 0
1088 -310 112 0
1088 310 -112 0
-1089 311 113 0
-1089 -311 -113 0
1089 -311 113 0
1089 311 -113 0
-1090 312 114 0
-1090 -312 -114 0
1090 -312 114 0
1090 312 -114 0
1083 1084 1085 1086 1087 1088 1089 1090 0
-1091 305 135 0
-1091 -305 -135 0
1091 -305 135 0
1091 305 -135 0
-1092 306 136 0
-1092 -306 -136 0
1092 -306 136 0
1092 306 -136 0
-1093 307 137 0
-1093 -307 -137 0
1093 -307 137 0
1093 307 -137 0
-1094 308 138 0
-1094 -308 -138 0
1094 -308 138 0
1094 308 -138 0
-1095 309 139 0
-1095 -309 -139 0
1095 -309 139 0
1095 309 -139 0
-1096 310 140 0
-1096 -310 -140 0
1096 -310 140 0
1096 310 -140 0
-1097 311 141 0
-1097 -311 -141 0
1097 -311 141 0
1097 311 -141 0
-1098 312 142 0
-1098 -312 -142 0
1098 -312 142 0
1098 312 -142 0
1091 1092 1093 1094 1095 1096 1097 1098 0
-1099 305 165 0
-1099 -305 -165 0
1099 -305 165 0
1099 305 -165 0
-1100 306 166 0
-1100 -306 -166 0
1100 -306 166 0
1100 306 -166 0
-1101 307 167 0
-1101 -307 -167 0
1101 -307 167 0
1101 307 -167 0
-1102 308 168 0
-1102 -308 -168 0
1102 -308 168 0
1102 308 -168 0
-1103 309 169 0
-1103 -309 -169 0
1103 -309 169 0
1103 309 -169 0
-1104 310 170 0
-1104 -310 -170 0
1104 -310 170 0
1104 310 -170 0
-1105 311 171 0
-1105 -311 -171 0
1105 -311 171 0
1105 311 -171 0
-1106 312 172 0
-1106 -312 -172 0
1106 -312 172 0
1106 312 -172 0
1099 1100 1101 1102 1103 1104 1105 1106 0
-1107 305 197 0
-1107 -305 -197 0
1107 -305 197 0
1107 305 -197 0
-1108 306 198 0
-1108 -306 -198 0
1108 -306 198 0
1108 306 -198 0
-1109 307 199 0
-1109 -307 -199 0
1109 -307 199 0
1109 307 -199 0
-1110 308 200 0
-1110 -308 -200 0
1110 -308 200 0
1110 308 -200 0
-1111 309 201 0
-1111 -309 -201 0
1111 -309 201 0
1111 309 -201 0
-1112 310 202 0
-1112 -310 -202 0
1112 -310 202 0
1112 310 -202 0
-1113 311 203 0
-1113 -311 -203 0
1113 -311 203 0
1113 311 -203 0
-1114 312 204 0
-1114 -312 -204 0
1114 -312 204 0
1114 312 -204 0
1107 1108 1109 1110 1111 1112 1113 1114 0
-1115 305 231 0
-1115 -305 -231 0
1115 -305 231 0
1115 305 -231 0
-1116 306 232 0
-1116 -306 -232 0
1116 -306 232 0
1116 306 -232 0
-1117 307 233 0
-1117 -307 -233 0
1117 -307 233 0
1117 307 -233 0
-1118 308 234 0
-1118 -308 -234 0
1118 -308 234 0
1118 308 -234 0
-1119 309 235 0
-1119 -309 -235 0
1119 -309 235 0
1119 309 -235 0
-1120 310 236 0
-1120 -310 -236 0
1120 -310 236 0
1120 310 -236 0
-1121 311 237 0
-1121 -311 -237 0
1121 -311 237 0
1121 311 -237 0
-1122 312 238 0
-1122 -312 -238 0
1122 -312 238 0
1122 312 -238 0
1115 1116 1117 1118 1119 1120 1121 1122 0
-1123 305 267 0
-1123 -305 -267 0
1123 -305 267 0
1123 305 -267 0
-1124 306 268 0
-1124 -306 -268 0
1124 -306 268 0
1124 306 -268 0
-1125 307 269 0
-1125 -307 -269 0
1125 -307 269 0
1125 307 -269 0
-1126 308 270 0
-1126 -308 -270 0
1126 -308 270 0
1126 308 -270 0
-1127 309 271 0
-1127 -309 -271 0
1127 -309 271 0
1127 309 -271 0
-1128 310 272 0
-1128 -310 -272 0
1128 -310 272 0
1128 310 -272 0
-1129 311 273 0
-1129 -311 -273 0
1129 -311 273 0
1129 311 -273 0
-1130 312 274 0
-1130 -312 -274 0
1130 -312 274 0
1130 312 -274 0
1123 1124 1125 1126 1127 1128 1129 1130 0
-1131 345 1 0
-1131 -345 -1 0
1131 -345 1 0
1131 345 -1 0
-1132 346 2 0
-1132 -346 -2 0
1132 -346 2 0
1132 346 -2 0
-1133 347 3 0
-1133 -347 -3 0
1133 -347 3 0
1133 347 -3 0
-1134 348 4 0
-1134 -348 -4 0
1134 -348 4 0
1134 348 -4 0
-1135 349 5 0
-1135 -349 -5 0
1135 -349 5 0
1135 349 -5 0
-1136 350 6 0
-1136 -350 -6 0
1136 -350 6 0
1136 350 -6 0
-1137 351 7 0
-1137 -351 -7 0
1137 -351 7 0
1137 351 -7 0
-1138 352 8 0
-1138 -352 -8 0
1138 -352 8 0
1138 352 -8 0
1131 1132 1133 1134 1135 1136 1137 1138 0
-1139 345 9 0
-1139 -345 -9 0
1139 -345 9 0
1139 345 -9 0
-1140 346 10 0
-1140 -346 -10 0
1140 -346 10 0
1140 346 -10 0
-1141 347 11 0
-1141 -347 -11 0
1141 -347 11 0
1141 347 -11 0
-1142 348 12 0
-1142 -348 -12 0
1142 -348 12 0
1142 348 -12 0
-1143 349 13 0
-1143 -349 -13 0
1143 -349 13 0
1143 349 -13 0
-1144 350 14 0
-1144 -350 -14 0
1144 -350 14 0
1144 350 -14 0
-1145 351 15 0
-1145 -351 -15 0
1145 -351 15 0
1145 351 -15 0
-1146 352 16 0
-1146 -352 -16 0
1146 -352 16 0
1146 352 -16 0
1139 1140 1141 1142 1143 1144 1145 1146 0
-1147 345 17 0
-1147 -345 -17 0
1147 -345 17 0
1147 345 -17 0
-1148 346 18 0
-1148 -346 -18 0
1148 -346 18 0
1148 346 -18 0
-1149 347 19 0
-1149 -347 -19 0
1149 -347 19 0
1149 347 -19 0
-1150 348 20 0
-1150 -348 -20 0
1150 -348 20 0
1150 348 -20 0
-1151 349 21 0
-1151 -349 -21 0
1151 -349 21 0
1151 349 -21 0
-1152 350 22 0
-1152 -350 -22 0
1152 -350 22 0
1152 350 -22 0
-1153 351 23 0
-1153 -351 -23 0
1153 -351 23 0
1153 351 -23 0
-1154 352 24 0
-1154 -352 -24 0
1154 -352 24 0
1154 352 -24 0
1147 1148 1149 1150 1151 1152 1153 1154 0
-1155 345 25 0
-1155 -345 -25 0
1155 -345 25 0
1155 345 -25 0
-1156 346 26 0
-1156 -346 -26 0
1156 -346 26 0
1156 346 -26 0
-1157 347 27 0
-1157 -347 -27 0
1157 -347 27 0
1157 347 -27 0
-1158 348 28 0
-1158 -348 -28 0
1158 -348 28 0
1158 348 -28 0
-1159 349 29 0
-1159 -349 -29 0
1159 -349 29 0
1159 349 -29 0
-1160 350 30 0
-1160 -350 -30 0
1160 -350 30 0
1160 350 -30 0
-1161 351 31 0
-1161 -351 -31 0
1161 -351 31 0
1161 351 -31 0
-1162 352 32 0
-1162 -352 -32 0
1162 -352 32 0
1162 352 -32 0
1155 1156 1157 1158 1159 1160 1161 1162 0
-1163 345 33 0
-1163 -345 -33 0
1163 -345 33 0
1163 345 -33 0
-1164 346 34 0
-1164 -346 -34 0
1164 -346 34 0
1164 346 -34 0
-1165 347 35 0
-1165 -347 -35 0
1165 -347 35 0
1165 347 -35 0
-1166 348 36 0
-1166 -348 -36 0
1166 -348 36 0
1166 348 -36 0
-1167 349 37 0
-1167 -349 -37 0
1167 -349 37 0
1167 349 -37 0
-1168 350 38 0
-1168 -350 -38 0
1168 -350 38 0
1168 350 -38 0
-1169 351 39 0
-1169 -351 -39 0
1169 -351 39 0
1169 351 -39 0
-1170 352 40 0
-1170 -352 -40 0
1170 -352 40 0
1170 352 -40 0
1163 1164 1165 1166 1167 1168 1169 1170 0
-1171 345 41 0
-1171 -345 -41 0
1171 -345 41 0
1171 345 -41 0
-1172 346 42 0
-1172 -346 -42 0
1172 -346 42 0
1172 346 -42 0
-1173 347 43 0
-1173 -347 -43 0
1173 -347 43 0
1173 347 -43 0
-1174 348 44 0
-1174 -348 -44 0
1174 -348 44 0
1174 348 -44 0
-1175 349 45 0
-1175 -349 -45 0
1175 -349 45 0
1175 349 -45 0
-1176 350 46 0
-1176 -350 -46 0
1176 -350 46 0
1176 350 -46 0
-1177 351 47 0
-1177 -351 -47 0
1177 -351 47 0
1177 351 -47 0
-1178 352 48 0
-1178 -352 -48 0
1178 -352 48 0
1178 352 -48 0
1171 1172 1173 1174 1175 1176 1177 1178 0
-1179 345 49 0
-1179 -345 -49 0
1179 -345 49 0
1179 345 -49 0
-1180 346 50 0
-1180 -346 -50 0
1180 -346 50 0
1180 346 -50 0
-1181 347 51 0
-1181 -347 -51 0
1181 -347 51 0
1181 347 -51 0
-1182 348 52 0
-1182 -348 -52 0
1182 -348 52 0
1182 348 -52 0
-1183 349 53 0
-1183 -349 -53 0
1183 -349 53 0
1183 349 -53 0
-1184 350 54 0
-1184 -350 -54 0
1184 -350 54 0
1184 350 -54 0
-1185 351 55 0
-1185 -351 -55 0
1185 -351 55 0
1185 351 -55 0
-1186 352 56 0
-1186 -352 -56 0
1186 -352 56 0
1186 352 -56 0
1179 1180 1181 1182 1183 1184 1185 1186 0
-1187 345 57 0
-1187 -345 -57 0
1187 -345 57 0
1187 345 -57 0
-1188 346 58 0
-1188 -346 -58 0
1188 -346 58 0
1188 346 -58 0
-1189 347 59 0
-1189 -347 -59 0
1189 -347 59 0
1189 347 -59 0
-1190 348 60 0
-1190 -348 -60 0
1190 -348 60 0
1190 348 -60 0
-1191 349 61 0
-1191 -349 -61 0
1191 -349 61 0
1191 349 -61 0
-1192 350 62 0
-1192 -350 -62 0
1192 -350 62 0
1192 350 -62 0
-1193 351 63 0
-1193 -351 -63 0
1193 -351 63 0
1193 351 -63 0
-1194 352 64 0
-1194 -352 -64 0
1194 -352 64 0
1194 352 -64 0
1187 1188 1189 1190 1191 1192 1193 1194 0
-1195 345 81 0
-1195 -345 -81 0
1195 -345 81 0
1195 345 -81 0
-1196 346 82 0
-1196 -346 -82 0
1196 -346 82 0
1196 346 -82 0
-1197 347 83 0
-1197 -347 -83 0
1197 -347 83 0
1197 347 -83 0
-1198 348 84 0
-1198 -348 -84 0
1198 -348 84 0
1198 348 -84 0
-1199 349 85 0
-1199 -349 -85 0
1199 -349 85 0
1199 349 -85 0
-1200 350 86 0
-1200 -350 -86 0
1200 -350 86 0
1200 350 -86 0
-1201 351 87 0
-1201 -351 -87 0
1201 -351 87 0
1201 351 -87 0
-1202 352 88 0
-1202 -352 -88 0
1202 -352 88 0
1202 352 -88 0
1195 1196 1197 1198 1199 1200 1201 1202 0
-1203 345 107 0
-1203 -345 -107 0
1203 -345 107 0
1203 345 -107 0
-1204 346 108 0
-1204 -346 -108 0
1204 -346 108 0
1204 346 -108 0
-1205 347 109 0
-1205 -347 -109 0
1205 -347 109 0
1205 347 -109 0
-1206 348 110 0
-1206 -348 -110 0
1206 -348 110 0
1206 348 -110 0
-1207 349 111 0
-1207 -349 -111 0
1207 -349 111 0
1207 349 -111 0
-1208 350 112 0
-1208 -350 -112 0
1208 -350 112 0
1208 350 -112 0
-1209 351 113 0
-1209 -351 -113 0
1209 -351 113 0
1209 351 -113 0
-1210 352 114 0
-1210 -352 -114 0
1210 -352 114 0
1210 352 -114 0
1203 1204 1205 1206 1207 1208 1209 1210 0
-1211 345 135 0
-1211 -345 -135 0
1211 -345 135 0
1211 345 -135 0
-1212 346 136 0
-1212 -346 -136 0
1212 -346 136 0
1212 346 -136 0
-1213 347 137 0
-1213 -347 -137 0
1213 -347 137 0
1213 347 -137 0
-1214 348 138 0
-1214 -348 -138 0
1214 -348 138 0
1214 348 -138 0
-1215 349 139 0
-1215 -349 -139 0
1215 -349 139 0
1215 349 -139 0
-1216 350 140 0
-1216 -350 -140 0
1216 -350 140 0
1216 350 -140 0
-1217 351 141 0
-1217 -351 -141 0
1217 -351 141 0
1217 351 -141 0
-1218 352 142 0
-1218 -352 -142 0
1218 -352 142 0
1218 352 -142 0
1211 1212 1213 1214 1215 1216 1217 1218 0
-1219 345 165 0
-1219 -345 -165 0
1219 -345 165 0
1219 345 -165 0
-1220 346 166 0
-1220 -346 -166 0
1220 -346 166 0
1220 346 -166 0
-1221 347 167 0
-1221 -347 -167 0
1221 -347 167 0
1221 347 -167 0
-1222 348 168 0
-1222 -348 -168 0
1222 -348 168 0
1222 348 -168 0
-1223 349 169 0
-1223 -349 -169 0
1223 -349 169 0
1223 349 -169 0
-1224 350 170 0
-1224 -350 -170 0
1224 -350 170 0
1224 350 -170 0
-1225 351 171 0
-1225 -351 -171 0
1225 -351 171 0
1225 351 -171 0
-1226 352 172 0
-1226 -352 -172 0
1226 -352 172 0
1226 352 -172 0
1219 1220 1221 1222 1223 1224 1225 1226 0
-1227 345 197 0
-1227 -345 -197 0
1227 -345 197 0
1227 345 -197 0
-1228 346 198 0
-1228 -346 -198 0
1228 -346 198 0
1228 346 -198 0
-1229 347 199 0
-1229 -347 -199 0
1229 -347 199 0
1229 347 -199 0
-1230 348 200 0
-1230 -348 -200 0
1230 -348 200 0
1230 348 -200 0
-1231 349 201 0
-1231 -349 -201 0
1231 -349 201 0
1231 349 -201 0
-1232 350 202 0
-1232 -350 -202 0
1232 -350 202 0
1232 350 -202 0
-1233 351 203 0
-1233 -351 -203 0
1233 -351 203 0
1233 351 -203 0
-1234 352 204 0
-1234 -352 -204 0
1234 -352 204 0
1234 352 -204 0
1227 1228 1229 1230 1231 1232 1233 1234 0
-1235 345 231 0
-1235 -345 -231 0
1235 -345 231 0
1235 345 -231 0
-1236 346 232 0
-1236 -346 -232 0
1236 -346 232 0
1236 346 -232 0
-1237 347 233 0
-1237 -347 -233 0
1237 -347 233 0
1237 347 -233 0
-1238 348 234 0
-1238 -348 -234 0
1238 -348 234 0
1238 348 -234 0
-1239 349 235 0
-1239 -349 -235 0
1239 -349 235 0
1239 349 -235 0
-1240 350 236 0
-1240 -350 -236 0
1240 -350 236 0
1240 350 -236 0
-1241 351 237 0
-1241 -351 -237 0
1241 -351 237 0
1241 351 -237 0
-1242 352 238 0
-1242 -352 -238 0
1242 -352 238 0
1242 352 -238 0
1235 1236 1237 1238 1239 1240 1241 1242 0
-1243 345 267 0
-1243 -345 -267 0
1243 -345 267 0
1243 345 -267 0
-1244 346 268 0
-1244 -346 -268 0
1244 -346 268 0
1244 346 -268 0
-1245 347 269 0
-1245 -347 -269 0
1245 -347 269 0
1245 347 -269 0
-1246 348 270 0
-1246 -348 -270 0
1246 -348 270 0
1246 348 -270 0
-1247 349 271 0
-1247 -349 -271 0
1247 -349 271 0
1247 349 -271 0
-1248 350 272 0
-1248 -350 -272 0
1248 -350 272 0
1248 350 -272 0
-1249 351 273 0
-1249 -351 -273 0
1249 -351 273 0
1249 351 -273 0
-1250 352 274 0
-1250 -352 -274 0
1250 -352 274 0
1250 352 -274 0
1243 1244 1245 1246 1247 1248 1249 1250 0
-1251 345 305 0
-1251 -345 -305 0
1251 -345 305 0
1251 345 -305 0
-1252 346 306 0
-1252 -346 -306 0
1252 -346 306 0
1252 346 -306 0
-1253 347 307 0
-1253 -347 -307 0
1253 -347 307 0
1253 347 -307 0
-1254 348 308 0
-1254 -348 -308 0
1254 -348 308 0
1254 348 -308 0
-1255 349 309 0
-1255 -349 -309 0
1255 -349 309 0
1255 349 -309 0
-1256 350 310 0
-1256 -350 -310 0
1256 -350 310 0
1256 350 -310 0
-1257 351 311 0
-1257 -351 -311 0
1257 -351 311 0
1257 351 -311 0
-1258 352 312 0
-1258 -352 -312 0
1258 -352 312 0
1258 352 -312 0
1251 1252 1253 1254 1255 1256 1257 1258 0
-1259 387 1 0
-1259 -387 -1 0
1259 -387 1 0
1259 387 -1 0
-1260 388 2 0
-1260 -388 -2 0
1260 -388 2 0
1260 388 -2 0
-1261 389 3 0
-1261 -389 -3 0
1261 -389 3 0
1261 389 -3 0
-1262 390 4 0
-1262 -390 -4 0
1262 -390 4 0
1262 390 -4 0
-1263 391 5 0
-1263 -391 -5 0
1263 -391 5 0
1263 391 -5 0
-1264 392 6 0
-1264 -392 -6 0
1264 -392 6 0
1264 392 -6 0
-1265 393 7 0
-1265 -393 -7 0
1265 -393 7 0
1265 393 -7 0
-1266 394 8 0
-1266 -394 -8 0
1266 -394 8 0
1266 394 -8 0
1259 1260 1261 1262 1263 1264 1265 1266 0
-1267 387 9 0
-1267 -387 -9 0
1267 -387 9 0
1267 387 -9 0
-1268 388 10 0
-1268 -388 -10 0
1268 -388 10 0
1268 388 -10 0
-1269 389 11 0
-1269 -389 -11 0
1269 -389 11 0
1269 389 -11 0
-1270 390 12 0
-1270 -390 -12 0
1270 -390 12 0
1270 390 -12 0
-1271 391 13 0
-1271 -391 -13 0
1271 -391 13 0
1271 391 -13 0
-1272 392 14 0
-1272 -392 -14 0
1272 -392 14 0
1272 392 -14 0
-1273 393 15 0
-1273 -393 -15 0
1273 -393 15 0
1273 393 -15 0
-1274 394 16 0
-1274 -394 -16 0
1274 -394 16 0
1274 394 -16 0
1267 1268 1269 1270 1271 1272 1273 1274 0
-1275 387 17 0
-1275 -387 -17 0
1275 -387 17 0
1275 387 -17 0
-1276 388 18 0
-1276 -388 -18 0
1276 -388 18 0
1276 388 -18 0
-1277 389 19 0
-1277 -389 -19 0
1277 -389 19 0
1277 389 -19 0
-1278 390 20 0
-1278 -390 -20 0
1278 -390 20 0
1278 390 -20 0
-1279 391 21 0
-1279 -391 -21 0
1279 -391 21 0
1279 391 -21 0
-1280 392 22 0
-1280 -392 -22 0
1280 -392 22 0
1280 392 -22 0
-1281 393 23 0
-1281 -393 -23 0
1281 -393 23 0
1281 393 -23 0
-1282 394 24 0
-1282 -394 -24 0
1282 -394 24 0
1282 394 -24 0
1275 1276 1277 1278 1279 1280 1281 1282 0
-1283 387 25 0
-1283 -387 -25 0
1283 -387 25 0
1283 387 -25 0
-1284 388 26 0
-1284 -388 -26 0
1284 -388 26 0
1284 388 -26 0
-1285 389 27 0
-1285 -389 -27 0
1285 -389 27 0
1285 389 -27 0
-1286 390 28 0
-1286 -390 -28 0
1286 -390 28 0
1286 390 -28 0
-1287 391 29 0
-1287 -391 -29 0
1287 -391 29 0
1287 391 -29 0
-1288 392 30 0
-1288 -392 -30 0
1288 -392 30 0
1288 392 -30 0
-1289 393 31 0
-1289 -393 -31 0
1289 -393 31 0
1289 393 -31 0
-1290 394 32 0
-1290 -394 -32 0
1290 -394 32 0
1290 394 -32 0
1283 1284 1285 1286 1287 1288 1289 1290 0
-1291 387 33 0
-1291 -387 -33 0
1291 -387 33 0
1291 387 -33 0
-1292 388 34 0
-1292 -388 -34 0
1292 -388 34 0
1292 388 -34 0
-1293 389 35 0
-1293 -389 -35 0
1293 -389 35 0
1293 389 -35 0
-1294 390 36 0
-1294 -390 -36 0
1294 -390 36 0
1294 390 -36 0
-1295 391 37 0
-1295 -391 -37 0
1295 -391 37 0
1295 391 -37 0
-1296 392 38 0
-1296 -392 -38 0
1296 -392 38 0
1296 392 -38 0
-1297 393 39 0
-1297 -393 -39 0
1297 -393 39 0
1297 393 -39 0
-1298 394 40 0
-1298 -394 -40 0
1298 -394 40 0
1298 394 -40 0
1291 1292 1293 1294 1295 1296 1297 1298 0
-1299 387 41 0
-1299 -387 -41 0
1299 -387 41 0
1299 387 -41 0
-1300 388 42 0
-1300 -388 -42 0
1300 -388 42 0
1300 388 -42 0
-1301 389 43 0
-1301 -389 -43 0
1301 -389 43 0
1301 389 -43 0
-1302 390 44 0
-1302 -390 -44 0
1302 -390 44 0
1302 390 -44 0
-1303 391 45 0
-1303 -391 -45 0
1303 -391 45 0
1303 391 -45 0
-1304 392 46 0
-1304 -392 -46 0
1304 -392 46 0
1304 392 -46 0
-1305 393 47 0
-1305 -393 -47 0
1305 -393 47 0
1305 393 -47 0
-1306 394 48 0
-1306 -394 -48 0
1306 -394 48 0
1306 394 -48 0
1299 1300 1301 1302 1303 1304 1305 1306 0
-1307 387 49 0
-1307 -387 -49 0
1307 -387 49 0
1307 387 -49 0
-1308 388 50 0
-1308 -388 -50 0
1308 -388 50 0
1308 388 -50 0
-1309 389 51 0
-1309 -389 -51 0
1309 -389 51 0
1309 389 -51 0
-1310 390 52 0
-1310 -390 -52 0
1310 -390 52 0
1310 390 -52 0
-1311 391 53 0
-1311 -391 -53 0
1311 -391 53 0
1311 391 -53 0
-1312 392 54 0
-1312 -392 -54 0
1312 -392 54 0
1312 392 -54 0
-1313 393 55 0
-1313 -393 -55 0
1313 -393 55 0
1313 393 -55 0
-1314 394 56 0
-1314 -394 -56 0
1314 -394 56 0
1314 394 -56 0
1307 1308 1309 1310 1311 1312 1313 1314 0
-1315 387 57 0
-1315 -387 -57 0
1315 -387 57 0
1315 387 -57 0
-1316 388 58 0
-1316 -388 -58 0
1316 -388 58 0
1316 388 -58 0
-1317 389 59 0
-1317 -389 -59 0
1317 -389 59 0
1317 389 -59 0
-1318 390 60 0
-1318 -390 -60 0
1318 -390 60 0
1318 390 -60 0
-1319 391 61 0
-1319 -391 -61 0
1319 -391 61 0
1319 391 -61 0
-1320 392 62 0
-1320 -392 -62 0
1320 -392 62 0
1320 392 -62 0
-1321 393 63 0
-1321 -393 -63 0
1321 -393 63 0
1321 393 -63 0
-1322 394 64 0
-1322 -394 -64 0
1322 -394 64 0
1322 394 -64 0
1315 1316 1317 1318 1319 1320 1321 1322 0
-1323 387 81 0
-1323 -387 -81 0
1323 -387 81 0
1323 387 -81 0
-1324 388 82 0
-1324 -388 -82 0
1324 -388 82 0
1324 388 -82 0
-1325 389 83 0
-1325 -389 -83 0
1325 -389 83 0
1325 389 -83 0
-1326 390 84 0
-1326 -390 -84 0
1326 -390 84 0
1326 390 -84 0
-1327 391 85 0
-1327 -391 -85 0
1327 -391 85 0
1327 391 -85 0
-1328 392 86 0
-1328 -392 -86 0
1328 -392 86 0
1328 392 -86 0
-1329 393 87 0
-1329 -393 -87 0
1329 -393 87 0
1329 393 -87 0
-1330 394 88 0
-1330 -394 -88 0
1330 -394 88 0
1330 394 -88 0
1323 1324 1325 1326 1327 1328 1329 1330 0
-1331 387 107 0
-1331 -387 -107 0
1331 -387 107 0
1331 387 -107 0
-1332 388 108 0
-1332 -388 -108 0
1332 -388 108 0
1332 388 -108 0
-1333 389 109 0
-1333 -389 -109 0
1333 -389 109 0
1333 389 -109 0
-1334 390 110 0
-1334 -390 -110 0
1334 -390 110 0
1334 390 -110 0
-1335 391 111 0
-1335 -391 -111 0
1335 -391 111 0
1335 391 -111 0
-1336 392 112 0
-1336 -392 -112 0
1336 -392 112 0
1336 392 -112 0
-1337 393 113 0
-1337 -393 -113 0
1337 -393 113 0
1337 393 -113 0
-1338 394 114 0
-1338 -394 -114 0
1338 -394 114 0
1338 394 -114 0
1331 1332 1333 1334 1335 1336 1337 1338 0
-1339 387 135 0
-1339 -387 -135 0
1339 -387 135 0
1339 387 -135 0
-1340 388 136 0
-1340 -388 -136 0
1340 -388 136 0
1340 388 -136 0
-1341 389 137 0
-1341 -389 -137 0
1341 -389 137 0
1341 389 -137 0
-1342 390 138 0
-1342 -390 -138 0
1342 -390 138 0
1342 390 -138 0
-1343 391 139 0
-1343 -391 -139 0
1343 -391 139 0
1343 391 -139 0
-1344 392 140 0
-1344 -392 -140 0
1344 -392 140 0
1344 392 -140 0
-1345 393 141 0
-1345 -393 -141 0
1345 -393 141 0
1345 393 -141 0
-1346 394 142 0
-1346 -394 -142 0
1346 -394 142 0
1346 394 -142 0
1339 1340 1341 1342 1343 1344 1345 1346 0
-1347 387 165 0
-1347 -387 -165 0
1347 -387 165 0
1347 387 -165 0
-1348 388 166 0
-1348 -388 -166 0
1348 -388 166 0
1348 388 -166 0
-1349 389 167 0
-1349 -389 -167 0
1349 -389 167 0
1349 389 -167 0
-1350 390 168 0
-1350 -390 -168 0
1350 -390 168 0
1350 390 -168 0
-1351 391 169 0
-1351 -391 -169 0
1351 -391 169 0
1351 391 -169 0
-1352 392 170 0
-1352 -392 -170 0
1352 -392 170 0
1352 392 -170 0
-1353 393 171 0
-1353 -393 -171 0
1353 -393 171 0
1353 393 -171 0
-1354 394 172 0
-1354 -394 -172 0
1354 -394 172 0
1354 394 -172 0
1347 1348 1349 1350 1351 1352 1353 1354 0
-1355 387 197 0
-1355 -387 -197 0
1355 -387 197 0
1355 387 -197 0
-1356 388 198 0
-1356 -388 -198 0
1356 -388 198 0
1356 388 -198 0
-1357 389 199 0
-1357 -389 -199 0
1357 -389 199 0
1357 389 -199 0
-1358 390 200 0
-1358 -390 -200 0
1358 -390 200 0
1358 390 -200 0
-1359 391 201 0
-1359 -391 -201 0
1359 -391 201 0
1359 391 -201 0
-1360 392 202 0
-1360 -392 -202 0
1360 -392 202 0
1360 392 -202 0
-1361 393 203 0
-1361 -393 -203 0
1361 -393 203 0
1361 393 -203 0
-1362 394 204 0
-1362 -394 -204 0
1362 -394 204 0
1362 394 -204 0
1355 1356 1357 1358 1359 1360 1361 1362 0
-1363 387 231 0
-1363 -387 -231 0
1363 -387 231 0
1363 387 -231 0
-1364 388 232 0
-1364 -388 -232 0
1364 -388 232 0
1364 388 -232 0
-1365 389 233 0
-1365 -389 -233 0
1365 -389 233 0
1365 389 -233 0
-1366 390 234 0
-1366 -390 -234 0
1366 -390 234 0
1366 390 -234 0
-1367 391 235 0
-1367 -391 -235 0
1367 -391 235 0
1367 391 -235 0
-1368 392 236 0
-1368 -392 -236 0
1368 -392 236 0
1368 392 -236 0
-1369 393 237 0
-1369 -393 -237 0
1369 -393 237 0
1369 393 -237 0
-1370 394 238 0
-1370 -394 -238 0
1370 -394 238 0
1370 394 -238 0
1363 1364 1365 1366 1367 1368 1369 1370 0
-1371 387 267 0
-1371 -387 -267 0
1371 -387 267 0
1371 387 -267 0
-1372 388 268 0
-1372 -388 -268 0
1372 -388 268 0
1372 388 -268 0
-1373 389 269 0
-1373 -389 -269 0
1373 -389 269 0
1373 389 -269 0
-1374 390 270 0
-1374 -390 -270 0
1374 -390 270 0
1374 390 -270 0
-1375 391 271 0
-1375 -391 -271 0
1375 -391 271 0
1375 391 -271 0
-1376 392 272 0
-1376 -392 -272 0
1376 -392 272 0
1376 392 -272 0
-1377 393 273 0
-1377 -393 -273 0
1377 -393 273 0
1377 393 -273 0
-1378 394 274 0
-1378 -394 -274 0
1378 -394 274 0
1378 394 -274 0
1371 1372 1373 1374 1375 1376 1377 1378 0
-1379 387 305 0
-1379 -387 -305 0
1379 -387 305 0
1379 387 -305 0
-1380 388 306 0
-1380 -388 -306 0
1380 -388 306 0
1380 388 -306 0
-1381 389 307 0
-1381 -389 -307 0
1381 -389 307 0
1381 389 -307 0
-1382 390 308 0
-1382 -390 -308 0
1382 -390 308 0
1382 390 -308 0
-1383 391 309 0
-1383 -391 -309 0
1383 -391 309 0
1383 391 -309 0
-1384 392 310 0
-1384 -392 -310 0
1384 -392 310 0
1384 392 -310 0
-1385 393 311 0
-1385 -393 -311 0
1385 -393 311 0
1385 393 -311 0
-1386 394 312 0
-1386 -394 -312 0
1386 -394 312 0
1386 394 -312 0
1379 1380 1381 1382 1383 1384 1385 1386 0
-1387 387 345 0
-1387 -387 -345 0
1387 -387 345 0
1387 387 -345 0
-1388 388 346 0
-1388 -388 -346 0
1388 -388 346 0
1388 388 -346 0
-1389 389 347 0
-1389 -389 -347 0
1389 -389 347 0
1389 389 -347 0
-1390 390 348 0
-1390 -390 -348 0
1390 -390 348 0
1390 390 -348 0
-1391 391 349 0
-1391 -391 -349 0
1391 -391 349 0
1391 391 -349 0
-1392 392 350 0
-1392 -392 -350 0
1392 -392 350 0
1392 392 -350 0
-1393 393 351 0
-1393 -393 -351 0
1393 -393 351 0
1393 393 -351 0
-1394 394 352 0
-1394 -394 -352 0
1394 -394 352 0
1394 394 -352 0
1387 1388 1389 1390 1391 1392 1393 1394 0
1395 1396 1397 1398 1399 1400 1401 1402 1403 1404 1405 1406 1407 1408 1409 1410 1411 1412 0
-1395 -1 0
-1395 2 0
-1395 -3 0
-1395 4 0
-1395 5 0
-1395 -6 0
-1395 -7 0
-1395 -8 0
-1396 -9 0
-1396 10 0
-1396 -11 0
-1396 12 0
-1396 13 0
-1396 -14 0
-1396 -15 0
-1396 -16 0
-1397 -17 0
-1397 18 0
-1397 -19 0
-1397 20 0
-1397 21 0
-1397 -22 0
-1397 -23 0
-1397 -24 0
-1398 -25 0
-1398 26 0
-1398 -27 0
-1398 28 0
-1398 29 0
-1398 -30 0
-1398 -31 0
-1398 -32 0
-1399 -33 0
-1399 34 0
-1399 -35 0
-1399 36 0
-1399 37 0
-1399 -38 0
-1399 -39 0
-1399 -40 0
-1400 -41 0
-1400 42 0
-1400 -43 0
-1400 44 0
-1400 45 0
-1400 -46 0
-1400 -47 0
-1400 -48 0
-1401 -49 0
-1401 50 0
-1401 -51 0
-1401 52 0
-1401 53 0
-1401 -54 0
-1401 -55 0
-1401 -56 0
-1402 -57 0
-1402 58 0
-1402 -59 0
-1402 60 0
-1402 61 0
-1402 -62 0
-1402 -63 0
-1402 -64 0
-1403 -81 0
-1403 82 0
-1403 -83 0
-1403 84 0
-1403 85 0
-1403 -86 0
-1403 -87 0
-1403 -88 0
-1404 -107 0
-1404 108 0
-1404 -109 0
-1404 110 0
-1404 111 0
-1404 -112 0
-1404 -113 0
-1404 -114 0
-1405 -135 0
-1405 136 0
-1405 -137 0
-1405 138 0
-1405 139 0
-1405 -140 0
-1405 -141 0
-1405 -142 0
-1406 -165 0
-1406 166 0
-1406 -167 0
-1406 168 0
-1406 169 0
-1406 -170 0
-1406 -171 0
-1406 -172 0
-1407 -197 0
-1407 198 0
-1407 -199 0
-1407 200 0
-1407 201 0
-1407 -202 0
-1407 -203 0
-1407 -204 0
-1408 -231 0
-1408 232 0
-1408 -233 0
-1408 234 0
-1408 235 0
-1408 -236 0
-1408 -237 0
-1408 -238 0
-1409 -267 0
-1409 268 0
-1409 -269 0
-1409 270 0
-1409 271 0
-1409 -272 0
-1409 -273 0
-1409 -274 0
-1410 -305 0
-1410 306 0
-1410 -307 0
-1410 308 0
-1410 309 0
-1410 -310 0
-1410 -311 0
-1410 -312 0
-1411 -345 0
-1411 346 0
-1411 -347 0
-1411 348 0
-1411 349 0
-1411 -350 0
-1411 -351 0
-1411 -352 0
-1412 -387 0
-1412 388 0
-1412 -389 0
-1412 390 0
-1412 391 0
-1412 -392 0
-1412 -393 0
-1412 -394 0
1413 1414 1415 1416 1417 1418 1419 1420 1421 1422 1423 1424 1425 1426 1427 1428 1429 1430 0
-1413 1 0
-1413 -2 0
-1413 -3 0
-1413 4 0
-1413 -5 0
-1413 -6 0
-1413 7 0
-1413 -8 0
-1414 9 0
-1414 -10 0
-1414 -11 0
-1414 12 0
-1414 -13 0
-1414 -14 0
-1414 15 0
-1414 -16 0
-1415 17 0
-1415 -18 0
-1415 -19 0
-1415 20 0
-1415 -21 0
-1415 -22 0
-1415 23 0
-1415 -24 0
-1416 25 0
-1416 -26 0
-1416 -27 0
-1416 28 0
-1416 -29 0
-1416 -30 0
-1416 31 0
-1416 -32 0
-1417 33 0
-1417 -34 0
-1417 -35 0
-1417 36 0
-1417 -37 0
-1417 -38 0
-1417 39 0
-1417 -40 0
-1418 41 0
-1418 -42 0
-1418 -43 0
-1418 44 0
-1418 -45 0
-1418 -46 0
-1418 47 0
-1418 -48 0
-1419 49 0
-1419 -50 0
-1419 -51 0
-1419 52 0
-1419 -53 0
-1419 -54 0
-1419 55 0
-1419 -56 0
-1420 57 0
-1420 -58 0
-1420 -59 0
-1420 60 0
-1420 -61 0
-1420 -62 0
-1420 63 0
-1420 -64 0
-1421 81 0
-1421 -82 0
-1421 -83 0
-1421 84 0
-1421 -85 0
-1421 -86 0
-1421 87 0
-1421 -88 0
-1422 107 0
-1422 -108 0
-1422 -109 0
-1422 110 0
-1422 -111 0
-1422 -112 0
-1422 113 0
-1422 -114 0
-1423 135 0
-1423 -136 0
-1423 -137 0
-1423 138 0
-1423 -139 0
-1423 -140 0
-1423 141 0
-1423 -142 0
-1424 165 0
-1424 -166 0
-1424 -167 0
-1424 168 0
-1424 -169 0
-1424 -170 0
-1424 171 0
-1424 -172 0
-1425 197 0
-1425 -198 0
-1425 -199 0
-1425 200 0
-1425 -201 0
-1425 -202 0
-1425 203 0
-1425 -204 0
-1426 231 0
-1426 -232 0
-1426 -233 0
-1426 234 0
-1426 -235 0
-1426 -236 0
-1426 237 0
-1426 -238 0
-1427 267 0
-1427 -268 0
-1427 -269 0
-1427 270 0
-1427 -271 0
-1427 -272 0
-1427 273 0
-1427 -274 0
-1428 305 0
-1428 -306 0
-1428 -307 0
-1428 308 0
-1428 -309 0
-1428 -310 0
-1428 311 0
-1428 -312 0
-1429 345 0
-1429 -346 0
-1429 -347 0
-1429 348 0
-1429 -349 0
-1429 -350 0
-1429 351 0
-1429 -352 0
-1430 387 0
-1430 -388 0
-1430 -389 0
-1430 390 0
-1430 -391 0
-1430 -392 0
-1430 393 0
-1430 -394 0
1431 1432 1433 1434 1435 1436 1437 1438 1439 1440 1441 1442 1443 1444 1445 1446 1447 1448 0
-1431 -1 0
-1431 -2 0
-1431 -3 0
-1431 4 0
-1431 5 0
-1431 6 0
-1431 7 0
-1431 -8 0
-1432 -9 0
-1432 -10 0
-1432 -11 0
-1432 12 0
-1432 13 0
-1432 14 0
-1432 15 0
-1432 -16 0
-1433 -17 0
-1433 -18 0
-1433 -19 0
-1433 20 0
-1433 21 0
-1433 22 0
-1433 23 0
-1433 -24 0
-1434 -25 0
-1434 -26 0
-1434 -27 0
-1434 28 0
-1434 29 0
-1434 30 0
-1434 31 0
-1434 -32 0
-1435 -33 0
-1435 -34 0
-1435 -35 0
-1435 36 0
-1435 37 0
-1435 38 0
-1435 39 0
-1435 -40 0
-1436 -41 0
-1436 -42 0
-1436 -43 0
-1436 44 0
-1436 45 0
-1436 46 0
-1436 47 0
-1436 -48 0
-1437 -49 0
-1437 -50 0
-1437 -51 0
-1437 52 0
-1437 53 0
-1437 54 0
-1437 55 0
-1437 -56 0
-1438 -57 0
-1438 -58 0
-1438 -59 0
-1438 60 0
-1438 61 0
-1438 62 0
-1438 63 0
-1438 -64 0
-1439 -81 0
-1439 -82 0
-1439 -83 0
-1439 84 0
-1439 85 0
-1439 86 0
-1439 87 0
-1439 -88 0
-1440 -107 0
-1440 -108 0
-1440 -109 0
-1440 110 0
-1440 111 0
-1440 112 0
-1440 113 0
-1440 -114 0
-1441 -135 0
-1441 -136 0
-1441 -137 0
-1441 138 0
-1441 139 0
-1441 140 0
-1441 141 0
-1441 -142 0
-1442 -165 0
-1442 -166 0
-1442 -167 0
-1442 168 0
-1442 169 0
-1442 170 0
-1442 171 0
-1442 -172 0
-1443 -197 0
-1443 -198 0
-1443 -199 0
-1443 200 0
-1443 201 0
-1443 202 0
-1443 203 0
-1443 -204 0
-1444 -231 0
-1444 -232 0
-1444 -233 0
-1444 234 0
-1444 235 0
-1444 236 0
-1444 237 0
-1444 -238 0
-1445 -267 0
-1445 -268 0
-1445 -269 0
-1445 270 0
-1445 271 0
-1445 272 0
-1445 273 0
-1445 -274 0
-1446 -305 0
-1446 -306 0
-1446 -307 0
-1446 308 0
-1446 309 0
-1446 310 0
-1446 311 0
-1446 -312 0
-1447 -345 0
-1447 -346 0
-1447 -347 0
-1447 348 0
-1447 349 0
-1447 350 0
-1447 351 0
-1447 -352 0
-1448 -387 0
-1448 -388 0
-1448 -389 0
-1448 390 0
-1448 391 0
-1448 392 0
-1448 393 0
-1448 -394 0
1449 1450 1451 1452 1453 1454 1455 1456 1457 1458 1459 1460 1461 1462 1463 1464 1465 1466 0
-1449 -1 0
-1449 -2 0
-1449 3 0
-1449 4 0
-1449 -5 0
-1449 -6 0
-1449 -7 0
-1449 8 0
-1450 -9 0
-1450 -10 0
-1450 11 0
-1450 12 0
-1450 -13 0
-1450 -14 0
-1450 -15 0
-1450 16 0
-1451 -17 0
-1451 -18 0
-1451 19 0
-1451 20 0
-1451 -21 0
-1451 -22 0
-1451 -23 0
-1451 24 0
-1452 -25 0
-1452 -26 0
-1452 27 0
-1452 28 0
-1452 -29 0
-1452 -30 0
-1452 -31 0
-1452 32 0
-1453 -33 0
-1453 -34 0
-1453 35 0
-1453 36 0
-1453 -37 0
-1453 -38 0
-1453 -39 0
-1453 40 0
-1454 -41 0
-1454 -42 0
-1454 43 0
-1454 44 0
-1454 -45 0
-1454 -46 0
-1454 -47 0
-1454 48 0
-1455 -49 0
-1455 -50 0
-1455 51 0
-1455 52 0
-1455 -53 0
-1455 -54 0
-1455 -55 0
-1455 56 0
-1456 -57 0
-1456 -58 0
-1456 59 0
-1456 60 0
-1456 -61 0
-1456 -62 0
-1456 -63 0
-1456 64 0
-1457 -81 0
-1457 -82 0
-1457 83 0
-1457 84 0
-1457 -85 0
-1457 -86 0
-1457 -87 0
-1457 88 0
-1458 -107 0
-1458 -108 0
-1458 109 0
-1458 110 0
-1458 -111 0
-1458 -112 0
-1458 -113 0
-1458 114 0
-1459 -135 0
-1459 -136 0
-1459 137 0
-1459 138 0
-1459 -139 0
-1459 -140 0
-1459 -141 0
-1459 142 0
-1460 -165 0
-1460 -166 0
-1460 167 0
-1460 168 0
-1460 -169 0
-1460 -170 0
-1460 -171 0
-1460 172 0
-1461 -197 0
-1461 -198 0
-1461 199 0
-1461 200 0
-1461 -201 0
-1461 -202 0
-1461 -203 0
-1461 204 0
-1462 -231 0
-1462 -232 0
-1462 233 0
-1462 234 0
-1462 -235 0
-1462 -236 0
-1462 -237 0
-1462 238 0
-1463 -267 0
-1463 -268 0
-1463 269 0
-1463 270 0
-1463 -271 0
-1463 -272 0
-1463 -273 0
-1463 274 0
-1464 -305 0
-1464 -306 0
-1464 307 0
-1464 308 0
-1464 -309 0
-1464 -310 0
-1464 -311 0
-1464 312 0
-1465 -345 0
-1465 -346 0
-1465 347 0
-1465 348 0
-1465 -349 0
-1465 -350 0
-1465 -351 0
-1465 352 0
-1466 -387 0
-1466 -388 0
-1466 389 0
-1466 390 0
-1466 -391 0
-1466 -392 0
-1466 -393 0
-1466 394 0
1467 1468 1469 1470 1471 1472 1473 1474 1475 1476 1477 1478 1479 1480 1481 1482 1483 1484 0
-1467 1 0
-1467 -2 0
-1467 -3 0
-1467 -4 0
-1467 -5 0
-1467 6 0
-1467 -7 0
-1467 -8 0
-1468 9 0
-1468 -10 0
-1468 -11 0
-1468 -12 0
-1468 -13 0
-1468 14 0
-1468 -15 0
-1468 -16 0
-1469 17 0
-1469 -18 0
-1469 -19 0
-1469 -20 0
-1469 -21 0
-1469 22 0
-1469 -23 0
-1469 -24 0
-1470 25 0
-1470 -26 0
-1470 -27 0
-1470 -28 0
-1470 -29 0
-1470 30 0
-1470 -31 0
-1470 -32 0
-1471 33 0
-1471 -34 0
-1471 -35 0
-1471 -36 0
-1471 -37 0
-1471 38 0
-1471 -39 0
-1471 -40 0
-1472 41 0
-1472 -42 0
-1472 -43 0
-1472 -44 0
-1472 -45 0
-1472 46 0
-1472 -47 0
-1472 -48 0
-1473 49 0
-1473 -50 0
-1473 -51 0
-1473 -52 0
-1473 -53 0
-1473 54 0
-1473 -55 0
-1473 -56 0
-1474 57 0
-1474 -58 0
-1474 -59 0
-1474 -60 0
-1474 -61 0
-1474 62 0
-1474 -63 0
-1474 -64 0
-1475 81 0
-1475 -82 0
-1475 -83 0
-1475 -84 0
-1475 -85 0
-1475 86 0
-1475 -87 0
-1475 -88 0
-1476 107 0
-1476 -108 0
-1476 -109 0
-1476 -110 0
-1476 -111 0
-1476 112 0
-1476 -113 0
-1476 -114 0
-1477 135 0
-1477 -136 0
-1477 -137 0
-1477 -138 0
-1477 -139 0
-1477 140 0
-1477 -141 0
-1477 -142 0
-1478 165 0
-1478 -166 0
-1478 -167 0
-1478 -168 0
-1478 -169 0
-1478 170 0
-1478 -171 0
-1478 -172 0
-1479 197 0
-1479 -198 0
-1479 -199 0
-1479 -200 0
-1479 -201 0
-1479 202 0
-1479 -203 0
-1479 -204 0
-1480 231 0
-1480 -232 0
-1480 -233 0
-1480 -234 0
-1480 -235 0
-1480 236 0
-1480 -237 0
-1480 -238 0
-1481 267 0
-1481 -268 0
-1481 -269 0
-1481 -270 0
-1481 -271 0
-1481 272 0
-1481 -273 0
-1481 -274 0
-1482 305 0
-1482 -306 0
-1482 -307 0
-1482 -308 0
-1482 -309 0
-1482 310 0
-1482 -311 0
-1482 -312 0
-1483 345 0
-1483 -346 0
-1483 -347 0
-1483 -348 0
-1483 -349 0
-1483 350 0
-1483 -351 0
-1483 -352 0
-1484 387 0
-1484 -388 0
-1484 -389 0
-1484 -390 0
-1484 -391 0
-1484 392 0
-1484 -393 0
-1484 -394 0
1485 1486 1487 1488 1489 1490 1491 1492 1493 1494 1495 1496 1497 1498 1499 1500 1501 1502 0
-1485 -1 0
-1485 2 0
-1485 -3 0
-1485 -4 0
-1485 -5 0
-1485 -6 0
-1485 -7 0
-1485 -8 0
-1486 -9 0
-1486 10 0
-1486 -11 0
-1486 -12 0
-1486 -13 0
-1486 -14 0
-1486 -15 0
-1486 -16 0
-1487 -17 0
-1487 18 0
-1487 -19 0
-1487 -20 0
-1487 -21 0
-1487 -22 0
-1487 -23 0
-1487 -24 0
-1488 -25 0
-1488 26 0
-1488 -27 0
-1488 -28 0
-1488 -29 0
-1488 -30 0
-1488 -31 0
-1488 -32 0
-1489 -33 0
-1489 34 0
-1489 -35 0
-1489 -36 0
-1489 -37 0
-1489 -38 0
-1489 -39 0
-1489 -40 0
-1490 -41 0
-1490 42 0
-1490 -43 0
-1490 -44 0
-1490 -45 0
-1490 -46 0
-1490 -47 0
-1490 -48 0
-1491 -49 0
-1491 50 0
-1491 -51 0
-1491 -52 0
-1491 -53 0
-1491 -54 0
-1491 -55 0
-1491 -56 0
-1492 -57 0
-1492 58 0
-1492 -59 0
-1492 -60 0
-1492 -61 0
-1492 -62 0
-1492 -63 0
-1492 -64 0
-1493 -81 0
-1493 82 0
-1493 -83 0
-1493 -84 0
-1493 -85 0
-1493 -86 0
-1493 -87 0
-1493 -88 0
-1494 -107 0
-1494 108 0
-1494 -109 0
-1494 -110 0
-1494 -111 0
-1494 -112 0
-1494 -113 0
-1494 -114 0
-1495 -135 0
-1495 136 0
-1495 -137 0
-1495 -138 0
-1495 -139 0
-1495 -140 0
-1495 -141 0
-1495 -142 0
-1496 -165 0
-1496 166 0
-1496 -167 0
-1496 -168 0
-1496 -169 0
-1496 -170 0
-1496 -171 0
-1496 -172 0
-1497 -197 0
-1497 198 0
-1497 -199 0
-1497 -200 0
-1497 -201 0
-1497 -202 0
-1497 -203 0
-1497 -204 0
-1498 -231 0
-1498 232 0
-1498 -233 0
-1498 -234 0
-1498 -235 0
-1498 -236 0
-1498 -237 0
-1498 -238 0
-1499 -267 0
-1499 268 0
-1499 -269 0
-1499 -270 0
-1499 -271 0
-1499 -272 0
-1499 -273 0
-1499 -274 0
-1500 -305 0
-1500 306 0
-1500 -307 0
-1500 -308 0
-1500 -309 0
-1500 -310 0
-1500 -311 0
-1500 -312 0
-1501 -345 0
-1501 346 0
-1501 -347 0
-1501 -348 0
-1501 -349 0
-1501 -350 0
-1501 -351 0
-1501 -352 0
-1502 -387 0
-1502 388 0
-1502 -389 0
-1502 -390 0
-1502 -391 0
-1502 -392 0
-1502 -393 0
-1502 -394 0
1503 1504 1505 1506 1507 1508 1509 1510 1511 1512 1513 1514 1515 1516 1517 1518 1519 1520 0
-1503 1 0
-1503 -2 0
-1503 3 0
-1503 4 0
-1503 -5 0
-1503 6 0
-1503 -7 0
-1503 -8 0
-1504 9 0
-1504 -10 0
-1504 11 0
-1504 12 0
-1504 -13 0
-1504 14 0
-1504 -15 0
-1504 -16 0
-1505 17 0
-1505 -18 0
-1505 19 0
-1505 20 0
-1505 -21 0
-1505 22 0
-1505 -23 0
-1505 -24 0
-1506 25 0
-1506 -26 0
-1506 27 0
-1506 28 0
-1506 -29 0
-1506 30 0
-1506 -31 0
-1506 -32 0
-1507 33 0
-1507 -34 0
-1507 35 0
-1507 36 0
-1507 -37 0
-1507 38 0
-1507 -39 0
-1507 -40 0
-1508 41 0
-1508 -42 0
-1508 43 0
-1508 44 0
-1508 -45 0
-1508 46 0
-1508 -47 0
-1508 -48 0
-1509 49 0
-1509 -50 0
-1509 51 0
-1509 52 0
-1509 -53 0
-1509 54 0
-1509 -55 0
-1509 -56 0
-1510 57 0
-1510 -58 0
-1510 59 0
-1510 60 0
-1510 -61 0
-1510 62 0
-1510 -63 0
-1510 -64 0
-1511 81 0
-1511 -82 0
-1511 83 0
-1511 84 0
-1511 -85 0
-1511 86 0
-1511 -87 0
-1511 -88 0
-1512 107 0
-1512 -108 0
-1512 109 0
-1512 110 0
-1512 -111 0
-1512 112 0
-1512 -113 0
-1512 -114 0
-1513 135 0
-1513 -136 0
-1513 137 0
-1513 138 0
-1513 -139 0
-1513 140 0
-1513 -141 0
-1513 -142 0
-1514 165 0
-1514 -166 0
-1514 167 0
-1514 168 0
-1514 -169 0
-1514 170 0
-1514 -171 0
-1514 -172 0
-1515 197 0
-1515 -198 0
-1515 199 0
-1515 200 0
-1515 -201 0
-1515 202 0
-1515 -203 0
-1515 -204 0
-1516 231 0
-1516 -232 0
-1516 233 0
-1516 234 0
-1516 -235 0
-1516 236 0
-1516 -237 0
-1516 -238 0
-1517 267 0
-1517 -268 0
-1517 269 0
-1517 270 0
-1517 -271 0
-1517 272 0
-1517 -273 0
-1517 -274 0
-1518 305 0
-1518 -306 0
-1518 307 0
-1518 308 0
-1518 -309 0
-1518 310 0
-1518 -311 0
-1518 -312 0
-1519 345 0
-1519 -346 0
-1519 347 0
-1519 348 0
-1519 -349 0
-1519 350 0
-1519 -351 0
-1519 -352 0
-1520 387 0
-1520 -388 0
-1520 389 0
-1520 390 0
-1520 -391 0
-1520 392 0
-1520 -393 0
-1520 -394 0
1521 1522 1523 1524 1525 1526 1527 1528 1529 1530 1531 1532 1533 1534 1535 1536 1537 1538 0
-1521 -1 0
-1521 -2 0
-1521 -3 0
-1521 -4 0
-1521 -5 0
-1521 6 0
-1521 7 0
-1521 8 0
-1522 -9 0
-1522 -10 0
-1522 -11 0
-1522 -12 0
-1522 -13 0
-1522 14 0
-1522 15 0
-1522 16 0
-1523 -17 0
-1523 -18 0
-1523 -19 0
-1523 -20 0
-1523 -21 0
-1523 22 0
-1523 23 0
-1523 24 0
-1524 -25 0
-1524 -26 0
-1524 -27 0
-1524 -28 0
-1524 -29 0
-1524 30 0
-1524 31 0
-1524 32 0
-1525 -33 0
-1525 -34 0
-1525 -35 0
-1525 -36 0
-1525 -37 0
-1525 38 0
-1525 39 0
-1525 40 0
-1526 -41 0
-1526 -42 0
-1526 -43 0
-1526 -44 0
-1526 -45 0
-1526 46 0
-1526 47 0
-1526 48 0
-1527 -49 0
-1527 -50 0
-1527 -51 0
-1527 -52 0
-1527 -53 0
-1527 54 0
-1527 55 0
-1527 56 0
-1528 -57 0
-1528 -58 0
-1528 -59 0
-1528 -60 0
-1528 -61 0
-1528 62 0
-1528 63 0
-1528 64 0
-1529 -81 0
-1529 -82 0
-1529 -83 0
-1529 -84 0
-1529 -85 0
-1529 86 0
-1529 87 0
-1529 88 0
-1530 -107 0
-1530 -108 0
-1530 -109 0
-1530 -110 0
-1530 -111 0
-1530 112 0
-1530 113 0
-1530 114 0
-1531 -135 0
-1531 -136 0
-1531 -137 0
-1531 -138 0
-1531 -139 0
-1531 140 0
-1531 141 0
-1531 142 0
-1532 -165 0
-1532 -166 0
-1532 -167 0
-1532 -168 0
-1532 -169 0
-1532 170 0
-1532 171 0
-1532 172 0
-1533 -197 0
-1533 -198 0
-1533 -199 0
-1533 -200 0
-1533 -201 0
-1533 202 0
-1533 203 0
-1533 204 0
-1534 -231 0
-1534 -232 0
-1534 -233 0
-1534 -234 0
-1534 -235 0
-1534 236 0
-1534 237 0
-1534 238 0
-1535 -267 0
-1535 -268 0
-1535 -269 0
-1535 -270 0
-1535 -271 0
-1535 272 0
-1535 273 0
-1535 274 0
-1536 -305 0
-1536 -306 0
-1536 -307 0
-1536 -308 0
-1536 -309 0
-1536 310 0
-1536 311 0
-1536 312 0
-1537 -345 0
-1537 -346 0
-1537 -347 0
-1537 -348 0
-1537 -349 0
-1537 350 0
-1537 351 0
-1537 352 0
-1538 -387 0
-1538 -388 0
-1538 -389 0
-1538 -390 0
-1538 -391 0
-1538 392 0
-1538 393 0
-1538 394 0
