p cnf 184 1548
1 0
-2 0
-3 0
-4 0
-5 0
-6 0
-7 0
8 0
-9 0
-10 0
-11 0
-12 0
-13 0
-14 0
15 0
-16 0
-17 0
-18 0
-19 0
-20 0
-21 0
22 0
-23 0
-24 0
-25 0
-26 0
-27 0
-28 0
29 0
-30 0
-31 0
-32 0
-33 0
-34 0
-35 0
36 0
37 38 39 40 41 42 0
-37 -38 0
-37 -39 0
-37 -40 0
-37 -41 0
-37 -42 0
-38 -39 0
-38 -40 0
-38 -41 0
-38 -42 0
-39 -40 0
-39 -41 0
-39 -42 0
-40 -41 0
-40 -42 0
-41 -42 0
43 44 45 46 47 48 0
-43 -44 0
-43 -45 0
-43 -46 0
-43 -47 0
-43 -48 0
-44 -45 0
-44 -46 0
-44 -47 0
-44 -48 0
-45 -46 0
-45 -47 0
-45 -48 0
-46 -47 0
-46 -48 0
-47 -48 0
-37 -43 0
-38 -43 0
-38 -44 0
-39 -43 0
-39 -44 0
-39 -45 0
-40 -43 0
-40 -44 0
-40 -45 0
-40 -46 0
-41 -43 0
-41 -44 0
-41 -45 0
-41 -46 0
-41 -47 0
-42 -43 0
-42 -44 0
-42 -45 0
-42 -46 0
-42 -47 0
-42 -48 0
-37 -44 -1 -7 -49 0
-37 -44 -1 7 49 0
-37 -44 1 -7 49 0
-37 -44 1 7 -49 0
-37 -44 -2 -8 -50 0
-37 -44 -2 8 50 0
-37 -44 2 -8 50 0
-37 -44 2 8 -50 0
-37 -44 -3 -9 -51 0
-37 -44 -3 9 51 0
-37 -44 3 -9 51 0
-37 -44 3 9 -51 0
-37 -44 -4 -10 -52 0
-37 -44 -4 10 52 0
-37 -44 4 -10 52 0
-37 -44 4 10 -52 0
-37 -44 -5 -11 -53 0
-37 -44 -5 11 53 0
-37 -44 5 -11 53 0
-37 -44 5 11 -53 0
-37 -44 -6 -12 -54 0
-37 -44 -6 12 54 0
-37 -44 6 -12 54 0
-37 -44 6 12 -54 0
-37 -45 -1 -13 -49 0
-37 -45 -1 13 49 0
-37 -45 1 -13 49 0
-37 -45 1 13 -49 0
-37 -45 -2 -14 -50 0
-37 -45 -2 14 50 0
-37 -45 2 -14 50 0
-37 -45 2 14 -50 0
-37 -45 -3 -15 -51 0
-37 -45 -3 15 51 0
-37 -45 3 -15 51 0
-37 -45 3 15 -51 0
-37 -45 -4 -16 -52 0
-37 -45 -4 16 52 0
-37 -45 4 -16 52 0
-37 -45 4 16 -52 0
-37 -45 -5 -17 -53 0
-37 -45 -5 17 53 0
-37 -45 5 -17 53 0
-37 -45 5 17 -53 0
-37 -45 -6 -18 -54 0
-37 -45 -6 18 54 0
-37 -45 6 -18 54 0
-37 -45 6 18 -54 0
-37 -46 -1 -19 -49 0
-37 -46 -1 19 49 0
-37 -46 1 -19 49 0
-37 -46 1 19 -49 0
-37 -46 -2 -20 -50 0
-37 -46 -2 20 50 0
-37 -46 2 -20 50 0
-37 -46 2 20 -50 0
-37 -46 -3 -21 -51 0
-37 -46 -3 21 51 0
-37 -46 3 -21 51 0
-37 -46 3 21 -51 0
-37 -46 -4 -22 -52 0
-37 -46 -4 22 52 0
-37 -46 4 -22 52 0
-37 -46 4 22 -52 0
-37 -46 -5 -23 -53 0
-37 -46 -5 23 53 0
-37 -46 5 -23 53 0
-37 -46 5 23 -53 0
-37 -46 -6 -24 -54 0
-37 -46 -6 24 54 0
-37 -46 6 -24 54 0
-37 -46 6 24 -54 0
-37 -47 -1 -25 -49 0
-37 -47 -1 25 49 0
-37 -47 1 -25 49 0
-37 -47 1 25 -49 0
-37 -47 -2 -26 -50 0
-37 -47 -2 26 50 0
-37 -47 2 -26 50 0
-37 -47 2 26 -50 0
-37 -47 -3 -27 -51 0
-37 -47 -3 27 51 0
-37 -47 3 -27 51 0
-37 -47 3 27 -51 0
-37 -47 -4 -28 -52 0
-37 -47 -4 28 52 0
-37 -47 4 -28 52 0
-37 -47 4 28 -52 0
-37 -47 -5 -29 -53 0
-37 -47 -5 29 53 0
-37 -47 5 -29 53 0
-37 -47 5 29 -53 0
-37 -47 -6 -30 -54 0
-37 -47 -6 30 54 0
-37 -47 6 -30 54 0
-37 -47 6 30 -54 0
-37 -48 -1 -31 -49 0
-37 -48 -1 31 49 0
-37 -48 1 -31 49 0
-37 -48 1 31 -49 0
-37 -48 -2 -32 -50 0
-37 -48 -2 32 50 0
-37 -48 2 -32 50 0
-37 -48 2 32 -50 0
-37 -48 -3 -33 -51 0
-37 -48 -3 33 51 0
-37 -48 3 -33 51 0
-37 -48 3 33 -51 0
-37 -48 -4 -34 -52 0
-37 -48 -4 34 52 0
-37 -48 4 -34 52 0
-37 -48 4 34 -52 0
-37 -48 -5 -35 -53 0
-37 -48 -5 35 53 0
-37 -48 5 -35 53 0
-37 -48 5 35 -53 0
-37 -48 -6 -36 -54 0
-37 -48 -6 36 54 0
-37 -48 6 -36 54 0
-37 -48 6 36 -54 0
-38 -45 -7 -13 -49 0
-38 -45 -7 13 49 0
-38 -45 7 -13 49 0
-38 -45 7 13 -49 0
-38 -45 -8 -14 -50 0
-38 -45 -8 14 50 0
-38 -45 8 -14 50 0
-38 -45 8 14 -50 0
-38 -45 -9 -15 -51 0
-38 -45 -9 15 51 0
-38 -45 9 -15 51 0
-38 -45 9 15 -51 0
-38 -45 -10 -16 -52 0
-38 -45 -10 16 52 0
-38 -45 10 -16 52 0
-38 -45 10 16 -52 0
-38 -45 -11 -17 -53 0
-38 -45 -11 17 53 0
-38 -45 11 -17 53 0
-38 -45 11 17 -53 0
-38 -45 -12 -18 -54 0
-38 -45 -12 18 54 0
-38 -45 12 -18 54 0
-38 -45 12 18 -54 0
-38 -46 -7 -19 -49 0
-38 -46 -7 19 49 0
-38 -46 7 -19 49 0
-38 -46 7 19 -49 0
-38 -46 -8 -20 -50 0
-38 -46 -8 20 50 0
-38 -46 8 -20 50 0
-38 -46 8 20 -50 0
-38 -46 -9 -21 -51 0
-38 -46 -9 21 51 0
-38 -46 9 -21 51 0
-38 -46 9 21 -51 0
-38 -46 -10 -22 -52 0
-38 -46 -10 22 52 0
-38 -46 10 -22 52 0
-38 -46 10 22 -52 0
-38 -46 -11 -23 -53 0
-38 -46 -11 23 53 0
-38 -46 11 -23 53 0
-38 -46 11 23 -53 0
-38 -46 -12 -24 -54 0
-38 -46 -12 24 54 0
-38 -46 12 -24 54 0
-38 -46 12 24 -54 0
-38 -47 -7 -25 -49 0
-38 -47 -7 25 49 0
-38 -47 7 -25 49 0
-38 -47 7 25 -49 0
-38 -47 -8 -26 -50 0
-38 -47 -8 26 50 0
-38 -47 8 -26 50 0
-38 -47 8 26 -50 0
-38 -47 -9 -27 -51 0
-38 -47 -9 27 51 0
-38 -47 9 -27 51 0
-38 -47 9 27 -51 0
-38 -47 -10 -28 -52 0
-38 -47 -10 28 52 0
-38 -47 10 -28 52 0
-38 -47 10 28 -52 0
-38 -47 -11 -29 -53 0
-38 -47 -11 29 53 0
-38 -47 11 -29 53 0
-38 -47 11 29 -53 0
-38 -47 -12 -30 -54 0
-38 -47 -12 30 54 0
-38 -47 12 -30 54 0
-38 -47 12 30 -54 0
-38 -48 -7 -31 -49 0
-38 -48 -7 31 49 0
-38 -48 7 -31 49 0
-38 -48 7 31 -49 0
-38 -48 -8 -32 -50 0
-38 -48 -8 32 50 0
-38 -48 8 -32 50 0
-38 -48 8 32 -50 0
-38 -48 -9 -33 -51 0
-38 -48 -9 33 51 0
-38 -48 9 -33 51 0
-38 -48 9 33 -51 0
-38 -48 -10 -34 -52 0
-38 -48 -10 34 52 0
-38 -48 10 -34 52 0
-38 -48 10 34 -52 0
-38 -48 -11 -35 -53 0
-38 -48 -11 35 53 0
-38 -48 11 -35 53 0
-38 -48 11 35 -53 0
-38 -48 -12 -36 -54 0
-38 -48 -12 36 54 0
-38 -48 12 -36 54 0
-38 -48 12 36 -54 0
-39 -46 -13 -19 -49 0
-39 -46 -13 19 49 0
-39 -46 13 -19 49 0
-39 -46 13 19 -49 0
-39 -46 -14 -20 -50 0
-39 -46 -14 20 50 0
-39 -46 14 -20 50 0
-39 -46 14 20 -50 0
-39 -46 -15 -21 -51 0
-39 -46 -15 21 51 0
-39 -46 15 -21 51 0
-39 -46 15 21 -51 0
-39 -46 -16 -22 -52 0
-39 -46 -16 22 52 0
-39 -46 16 -22 52 0
-39 -46 16 22 -52 0
-39 -46 -17 -23 -53 0
-39 -46 -17 23 53 0
-39 -46 17 -23 53 0
-39 -46 17 23 -53 0
-39 -46 -18 -24 -54 0
-39 -46 -18 24 54 0
-39 -46 18 -24 54 0
-39 -46 18 24 -54 0
-39 -47 -13 -25 -49 0
-39 -47 -13 25 49 0
-39 -47 13 -25 49 0
-39 -47 13 25 -49 0
-39 -47 -14 -26 -50 0
-39 -47 -14 26 50 0
-39 -47 14 -26 50 0
-39 -47 14 26 -50 0
-39 -47 -15 -27 -51 0
-39 -47 -15 27 51 0
-39 -47 15 -27 51 0
-39 -47 15 27 -51 0
-39 -47 -16 -28 -52 0
-39 -47 -16 28 52 0
-39 -47 16 -28 52 0
-39 -47 16 28 -52 0
-39 -47 -17 -29 -53 0
-39 -47 -17 29 53 0
-39 -47 17 -29 53 0
-39 -47 17 29 -53 0
-39 -47 -18 -30 -54 0
-39 -47 -18 30 54 0
-39 -47 18 -30 54 0
-39 -47 18 30 -54 0
-39 -48 -13 -31 -49 0
-39 -48 -13 31 49 0
-39 -48 13 -31 49 0
-39 -48 13 31 -49 0
-39 -48 -14 -32 -50 0
-39 -48 -14 32 50 0
-39 -48 14 -32 50 0
-39 -48 14 32 -50 0
-39 -48 -15 -33 -51 0
-39 -48 -15 33 51 0
-39 -48 15 -33 51 0
-39 -48 15 33 -51 0
-39 -48 -16 -34 -52 0
-39 -48 -16 34 52 0
-39 -48 16 -34 52 0
-39 -48 16 34 -52 0
-39 -48 -17 -35 -53 0
-39 -48 -17 35 53 0
-39 -48 17 -35 53 0
-39 -48 17 35 -53 0
-39 -48 -18 -36 -54 0
-39 -48 -18 36 54 0
-39 -48 18 -36 54 0
-39 -48 18 36 -54 0
-40 -47 -19 -25 -49 0
-40 -47 -19 25 49 0
-40 -47 19 -25 49 0
-40 -47 19 25 -49 0
-40 -47 -20 -26 -50 0
-40 -47 -20 26 50 0
-40 -47 20 -26 50 0
-40 -47 20 26 -50 0
-40 -47 -21 -27 -51 0
-40 -47 -21 27 51 0
-40 -47 21 -27 51 0
-40 -47 21 27 -51 0
-40 -47 -22 -28 -52 0
-40 -47 -22 28 52 0
-40 -47 22 -28 52 0
-40 -47 22 28 -52 0
-40 -47 -23 -29 -53 0
-40 -47 -23 29 53 0
-40 -47 23 -29 53 0
-40 -47 23 29 -53 0
-40 -47 -24 -30 -54 0
-40 -47 -24 30 54 0
-40 -47 24 -30 54 0
-40 -47 24 30 -54 0
-40 -48 -19 -31 -49 0
-40 -48 -19 31 49 0
-40 -48 19 -31 49 0
-40 -48 19 31 -49 0
-40 -48 -20 -32 -50 0
-40 -48 -20 32 50 0
-40 -48 20 -32 50 0
-40 -48 20 32 -50 0
-40 -48 -21 -33 -51 0
-40 -48 -21 33 51 0
-40 -48 21 -33 51 0
-40 -48 21 33 -51 0
-40 -48 -22 -34 -52 0
-40 -48 -22 34 52 0
-40 -48 22 -34 52 0
-40 -48 22 34 -52 0
-40 -48 -23 -35 -53 0
-40 -48 -23 35 53 0
-40 -48 23 -35 53 0
-40 -48 23 35 -53 0
-40 -48 -24 -36 -54 0
-40 -48 -24 36 54 0
-40 -48 24 -36 54 0
-40 -48 24 36 -54 0
-41 -48 -25 -31 -49 0
-41 -48 -25 31 49 0
-41 -48 25 -31 49 0
-41 -48 25 31 -49 0
-41 -48 -26 -32 -50 0
-41 -48 -26 32 50 0
-41 -48 26 -32 50 0
-41 -48 26 32 -50 0
-41 -48 -27 -33 -51 0
-41 -48 -27 33 51 0
-41 -48 27 -33 51 0
-41 -48 27 33 -51 0
-41 -48 -28 -34 -52 0
-41 -48 -28 34 52 0
-41 -48 28 -34 52 0
-41 -48 28 34 -52 0
-41 -48 -29 -35 -53 0
-41 -48 -29 35 53 0
-41 -48 29 -35 53 0
-41 -48 29 35 -53 0
-41 -48 -30 -36 -54 0
-41 -48 -30 36 54 0
-41 -48 30 -36 54 0
-41 -48 30 36 -54 0
49 50 51 52 53 54 0
55 56 57 58 59 60 61 0
-55 -56 0
-55 -57 0
-55 -58 0
-55 -59 0
-55 -60 0
-55 -61 0
-56 -57 0
-56 -58 0
-56 -59 0
-56 -60 0
-56 -61 0
-57 -58 0
-57 -59 0
-57 -60 0
-57 -61 0
-58 -59 0
-58 -60 0
-58 -61 0
-59 -60 0
-59 -61 0
-60 -61 0
62 63 64 65 66 67 68 0
-62 -63 0
-62 -64 0
-62 -65 0
-62 -66 0
-62 -67 0
-62 -68 0
-63 -64 0
-63 -65 0
-63 -66 0
-63 -67 0
-63 -68 0
-64 -65 0
-64 -66 0
-64 -67 0
-64 -68 0
-65 -66 0
-65 -67 0
-65 -68 0
-66 -67 0
-66 -68 0
-67 -68 0
-55 -62 0
-56 -62 0
-56 -63 0
-57 -62 0
-57 -63 0
-57 -64 0
-58 -62 0
-58 -63 0
-58 -64 0
-58 -65 0
-59 -62 0
-59 -63 0
-59 -64 0
-59 -65 0
-59 -66 0
-60 -62 0
-60 -63 0
-60 -64 0
-60 -65 0
-60 -66 0
-60 -67 0
-61 -62 0
-61 -63 0
-61 -64 0
-61 -65 0
-61 -66 0
-61 -67 0
-61 -68 0
-55 -63 -1 -7 -69 0
-55 -63 -1 7 69 0
-55 -63 1 -7 69 0
-55 -63 1 7 -69 0
-55 -63 -2 -8 -70 0
-55 -63 -2 8 70 0
-55 -63 2 -8 70 0
-55 -63 2 8 -70 0
-55 -63 -3 -9 -71 0
-55 -63 -3 9 71 0
-55 -63 3 -9 71 0
-55 -63 3 9 -71 0
-55 -63 -4 -10 -72 0
-55 -63 -4 10 72 0
-55 -63 4 -10 72 0
-55 -63 4 10 -72 0
-55 -63 -5 -11 -73 0
-55 -63 -5 11 73 0
-55 -63 5 -11 73 0
-55 -63 5 11 -73 0
-55 -63 -6 -12 -74 0
-55 -63 -6 12 74 0
-55 -63 6 -12 74 0
-55 -63 6 12 -74 0
-55 -64 -1 -13 -69 0
-55 -64 -1 13 69 0
-55 -64 1 -13 69 0
-55 -64 1 13 -69 0
-55 -64 -2 -14 -70 0
-55 -64 -2 14 70 0
-55 -64 2 -14 70 0
-55 -64 2 14 -70 0
-55 -64 -3 -15 -71 0
-55 -64 -3 15 71 0
-55 -64 3 -15 71 0
-55 -64 3 15 -71 0
-55 -64 -4 -16 -72 0
-55 -64 -4 16 72 0
-55 -64 4 -16 72 0
-55 -64 4 16 -72 0
-55 -64 -5 -17 -73 0
-55 -64 -5 17 73 0
-55 -64 5 -17 73 0
-55 -64 5 17 -73 0
-55 -64 -6 -18 -74 0
-55 -64 -6 18 74 0
-55 -64 6 -18 74 0
-55 -64 6 18 -74 0
-55 -65 -1 -19 -69 0
-55 -65 -1 19 69 0
-55 -65 1 -19 69 0
-55 -65 1 19 -69 0
-55 -65 -2 -20 -70 0
-55 -65 -2 20 70 0
-55 -65 2 -20 70 0
-55 -65 2 20 -70 0
-55 -65 -3 -21 -71 0
-55 -65 -3 21 71 0
-55 -65 3 -21 71 0
-55 -65 3 21 -71 0
-55 -65 -4 -22 -72 0
-55 -65 -4 22 72 0
-55 -65 4 -22 72 0
-55 -65 4 22 -72 0
-55 -65 -5 -23 -73 0
-55 -65 -5 23 73 0
-55 -65 5 -23 73 0
-55 -65 5 23 -73 0
-55 -65 -6 -24 -74 0
-55 -65 -6 24 74 0
-55 -65 6 -24 74 0
-55 -65 6 24 -74 0
-55 -66 -1 -25 -69 0
-55 -66 -1 25 69 0
-55 -66 1 -25 69 0
-55 -66 1 25 -69 0
-55 -66 -2 -26 -70 0
-55 -66 -2 26 70 0
-55 -66 2 -26 70 0
-55 -66 2 26 -70 0
-55 -66 -3 -27 -71 0
-55 -66 -3 27 71 0
-55 -66 3 -27 71 0
-55 -66 3 27 -71 0
-55 -66 -4 -28 -72 0
-55 -66 -4 28 72 0
-55 -66 4 -28 72 0
-55 -66 4 28 -72 0
-55 -66 -5 -29 -73 0
-55 -66 -5 29 73 0
-55 -66 5 -29 73 0
-55 -66 5 29 -73 0
-55 -66 -6 -30 -74 0
-55 -66 -6 30 74 0
-55 -66 6 -30 74 0
-55 -66 6 30 -74 0
-55 -67 -1 -31 -69 0
-55 -67 -1 31 69 0
-55 -67 1 -31 69 0
-55 -67 1 31 -69 0
-55 -67 -2 -32 -70 0
-55 -67 -2 32 70 0
-55 -67 2 -32 70 0
-55 -67 2 32 -70 0
-55 -67 -3 -33 -71 0
-55 -67 -3 33 71 0
-55 -67 3 -33 71 0
-55 -67 3 33 -71 0
-55 -67 -4 -34 -72 0
-55 -67 -4 34 72 0
-55 -67 4 -34 72 0
-55 -67 4 34 -72 0
-55 -67 -5 -35 -73 0
-55 -67 -5 35 73 0
-55 -67 5 -35 73 0
-55 -67 5 35 -73 0
-55 -67 -6 -36 -74 0
-55 -67 -6 36 74 0
-55 -67 6 -36 74 0
-55 -67 6 36 -74 0
-55 -68 -1 -49 -69 0
-55 -68 -1 49 69 0
-55 -68 1 -49 69 0
-55 -68 1 49 -69 0
-55 -68 -2 -50 -70 0
-55 -68 -2 50 70 0
-55 -68 2 -50 70 0
-55 -68 2 50 -70 0
-55 -68 -3 -51 -71 0
-55 -68 -3 51 71 0
-55 -68 3 -51 71 0
-55 -68 3 51 -71 0
-55 -68 -4 -52 -72 0
-55 -68 -4 52 72 0
-55 -68 4 -52 72 0
-55 -68 4 52 -72 0
-55 -68 -5 -53 -73 0
-55 -68 -5 53 73 0
-55 -68 5 -53 73 0
-55 -68 5 53 -73 0
-55 -68 -6 -54 -74 0
-55 -68 -6 54 74 0
-55 -68 6 -54 74 0
-55 -68 6 54 -74 0
-56 -64 -7 -13 -69 0
-56 -64 -7 13 69 0
-56 -64 7 -13 69 0
-56 -64 7 13 -69 0
-56 -64 -8 -14 -70 0
-56 -64 -8 14 70 0
-56 -64 8 -14 70 0
-56 -64 8 14 -70 0
-56 -64 -9 -15 -71 0
-56 -64 -9 15 71 0
-56 -64 9 -15 71 0
-56 -64 9 15 -71 0
-56 -64 -10 -16 -72 0
-56 -64 -10 16 72 0
-56 -64 10 -16 72 0
-56 -64 10 16 -72 0
-56 -64 -11 -17 -73 0
-56 -64 -11 17 73 0
-56 -64 11 -17 73 0
-56 -64 11 17 -73 0
-56 -64 -12 -18 -74 0
-56 -64 -12 18 74 0
-56 -64 12 -18 74 0
-56 -64 12 18 -74 0
-56 -65 -7 -19 -69 0
-56 -65 -7 19 69 0
-56 -65 7 -19 69 0
-56 -65 7 19 -69 0
-56 -65 -8 -20 -70 0
-56 -65 -8 20 70 0
-56 -65 8 -20 70 0
-56 -65 8 20 -70 0
-56 -65 -9 -21 -71 0
-56 -65 -9 21 71 0
-56 -65 9 -21 71 0
-56 -65 9 21 -71 0
-56 -65 -10 -22 -72 0
-56 -65 -10 22 72 0
-56 -65 10 -22 72 0
-56 -65 10 22 -72 0
-56 -65 -11 -23 -73 0
-56 -65 -11 23 73 0
-56 -65 11 -23 73 0
-56 -65 11 23 -73 0
-56 -65 -12 -24 -74 0
-56 -65 -12 24 74 0
-56 -65 12 -24 74 0
-56 -65 12 24 -74 0
-56 -66 -7 -25 -69 0
-56 -66 -7 25 69 0
-56 -66 7 -25 69 0
-56 -66 7 25 -69 0
-56 -66 -8 -26 -70 0
-56 -66 -8 26 70 0
-56 -66 8 -26 70 0
-56 -66 8 26 -70 0
-56 -66 -9 -27 -71 0
-56 -66 -9 27 71 0
-56 -66 9 -27 71 0
-56 -66 9 27 -71 0
-56 -66 -10 -28 -72 0
-56 -66 -10 28 72 0
-56 -66 10 -28 72 0
-56 -66 10 28 -72 0
-56 -66 -11 -29 -73 0
-56 -66 -11 29 73 0
-56 -66 11 -29 73 0
-56 -66 11 29 -73 0
-56 -66 -12 -30 -74 0
-56 -66 -12 30 74 0
-56 -66 12 -30 74 0
-56 -66 12 30 -74 0
-56 -67 -7 -31 -69 0
-56 -67 -7 31 69 0
-56 -67 7 -31 69 0
-56 -67 7 31 -69 0
-56 -67 -8 -32 -70 0
-56 -67 -8 32 70 0
-56 -67 8 -32 70 0
-56 -67 8 32 -70 0
-56 -67 -9 -33 -71 0
-56 -67 -9 33 71 0
-56 -67 9 -33 71 0
-56 -67 9 33 -71 0
-56 -67 -10 -34 -72 0
-56 -67 -10 34 72 0
-56 -67 10 -34 72 0
-56 -67 10 34 -72 0
-56 -67 -11 -35 -73 0
-56 -67 -11 35 73 0
-56 -67 11 -35 73 0
-56 -67 11 35 -73 0
-56 -67 -12 -36 -74 0
-56 -67 -12 36 74 0
-56 -67 12 -36 74 0
-56 -67 12 36 -74 0
-56 -68 -7 -49 -69 0
-56 -68 -7 49 69 0
-56 -68 7 -49 69 0
-56 -68 7 49 -69 0
-56 -68 -8 -50 -70 0
-56 -68 -8 50 70 0
-56 -68 8 -50 70 0
-56 -68 8 50 -70 0
-56 -68 -9 -51 -71 0
-56 -68 -9 51 71 0
-56 -68 9 -51 71 0
-56 -68 9 51 -71 0
-56 -68 -10 -52 -72 0
-56 -68 -10 52 72 0
-56 -68 10 -52 72 0
-56 -68 10 52 -72 0
-56 -68 -11 -53 -73 0
-56 -68 -11 53 73 0
-56 -68 11 -53 73 0
-56 -68 11 53 -73 0
-56 -68 -12 -54 -74 0
-56 -68 -12 54 74 0
-56 -68 12 -54 74 0
-56 -68 12 54 -74 0
-57 -65 -13 -19 -69 0
-57 -65 -13 19 69 0
-57 -65 13 -19 69 0
-57 -65 13 19 -69 0
-57 -65 -14 -20 -70 0
-57 -65 -14 20 70 0
-57 -65 14 -20 70 0
-57 -65 14 20 -70 0
-57 -65 -15 -21 -71 0
-57 -65 -15 21 71 0
-57 -65 15 -21 71 0
-57 -65 15 21 -71 0
-57 -65 -16 -22 -72 0
-57 -65 -16 22 72 0
-57 -65 16 -22 72 0
-57 -65 16 22 -72 0
-57 -65 -17 -23 -73 0
-57 -65 -17 23 73 0
-57 -65 17 -23 73 0
-57 -65 17 23 -73 0
-57 -65 -18 -24 -74 0
-57 -65 -18 24 74 0
-57 -65 18 -24 74 0
-57 -65 18 24 -74 0
-57 -66 -13 -25 -69 0
-57 -66 -13 25 69 0
-57 -66 13 -25 69 0
-57 -66 13 25 -69 0
-57 -66 -14 -26 -70 0
-57 -66 -14 26 70 0
-57 -66 14 -26 70 0
-57 -66 14 26 -70 0
-57 -66 -15 -27 -71 0
-57 -66 -15 27 71 0
-57 -66 15 -27 71 0
-57 -66 15 27 -71 0
-57 -66 -16 -28 -72 0
-57 -66 -16 28 72 0
-57 -66 16 -28 72 0
-57 -66 16 28 -72 0
-57 -66 -17 -29 -73 0
-57 -66 -17 29 73 0
-57 -66 17 -29 73 0
-57 -66 17 29 -73 0
-57 -66 -18 -30 -74 0
-57 -66 -18 30 74 0
-57 -66 18 -30 74 0
-57 -66 18 30 -74 0
-57 -67 -13 -31 -69 0
-57 -67 -13 31 69 0
-57 -67 13 -31 69 0
-57 -67 13 31 -69 0
-57 -67 -14 -32 -70 0
-57 -67 -14 32 70 0
-57 -67 14 -32 70 0
-57 -67 14 32 -70 0
-57 -67 -15 -33 -71 0
-57 -67 -15 33 71 0
-57 -67 15 -33 71 0
-57 -67 15 33 -71 0
-57 -67 -16 -34 -72 0
-57 -67 -16 34 72 0
-57 -67 16 -34 72 0
-57 -67 16 34 -72 0
-57 -67 -17 -35 -73 0
-57 -67 -17 35 73 0
-57 -67 17 -35 73 0
-57 -67 17 35 -73 0
-57 -67 -18 -36 -74 0
-57 -67 -18 36 74 0
-57 -67 18 -36 74 0
-57 -67 18 36 -74 0
-57 -68 -13 -49 -69 0
-57 -68 -13 49 69 0
-57 -68 13 -49 69 0
-57 -68 13 49 -69 0
-57 -68 -14 -50 -70 0
-57 -68 -14 50 70 0
-57 -68 14 -50 70 0
-57 -68 14 50 -70 0
-57 -68 -15 -51 -71 0
-57 -68 -15 51 71 0
-57 -68 15 -51 71 0
-57 -68 15 51 -71 0
-57 -68 -16 -52 -72 0
-57 -68 -16 52 72 0
-57 -68 16 -52 72 0
-57 -68 16 52 -72 0
-57 -68 -17 -53 -73 0
-57 -68 -17 53 73 0
-57 -68 17 -53 73 0
-57 -68 17 53 -73 0
-57 -68 -18 -54 -74 0
-57 -68 -18 54 74 0
-57 -68 18 -54 74 0
-57 -68 18 54 -74 0
-58 -66 -19 -25 -69 0
-58 -66 -19 25 69 0
-58 -66 19 -25 69 0
-58 -66 19 25 -69 0
-58 -66 -20 -26 -70 0
-58 -66 -20 26 70 0
-58 -66 20 -26 70 0
-58 -66 20 26 -70 0
-58 -66 -21 -27 -71 0
-58 -66 -21 27 71 0
-58 -66 21 -27 71 0
-58 -66 21 27 -71 0
-58 -66 -22 -28 -72 0
-58 -66 -22 28 72 0
-58 -66 22 -28 72 0
-58 -66 22 28 -72 0
-58 -66 -23 -29 -73 0
-58 -66 -23 29 73 0
-58 -66 23 -29 73 0
-58 -66 23 29 -73 0
-58 -66 -24 -30 -74 0
-58 -66 -24 30 74 0
-58 -66 24 -30 74 0
-58 -66 24 30 -74 0
-58 -67 -19 -31 -69 0
-58 -67 -19 31 69 0
-58 -67 19 -31 69 0
-58 -67 19 31 -69 0
-58 -67 -20 -32 -70 0
-58 -67 -20 32 70 0
-58 -67 20 -32 70 0
-58 -67 20 32 -70 0
-58 -67 -21 -33 -71 0
-58 -67 -21 33 71 0
-58 -67 21 -33 71 0
-58 -67 21 33 -71 0
-58 -67 -22 -34 -72 0
-58 -67 -22 34 72 0
-58 -67 22 -34 72 0
-58 -67 22 34 -72 0
-58 -67 -23 -35 -73 0
-58 -67 -23 35 73 0
-58 -67 23 -35 73 0
-58 -67 23 35 -73 0
-58 -67 -24 -36 -74 0
-58 -67 -24 36 74 0
-58 -67 24 -36 74 0
-58 -67 24 36 -74 0
-58 -68 -19 -49 -69 0
-58 -68 -19 49 69 0
-58 -68 19 -49 69 0
-58 -68 19 49 -69 0
-58 -68 -20 -50 -70 0
-58 -68 -20 50 70 0
-58 -68 20 -50 70 0
-58 -68 20 50 -70 0
-58 -68 -21 -51 -71 0
-58 -68 -21 51 71 0
-58 -68 21 -51 71 0
-58 -68 21 51 -71 0
-58 -68 -22 -52 -72 0
-58 -68 -22 52 72 0
-58 -68 22 -52 72 0
-58 -68 22 52 -72 0
-58 -68 -23 -53 -73 0
-58 -68 -23 53 73 0
-58 -68 23 -53 73 0
-58 -68 23 53 -73 0
-58 -68 -24 -54 -74 0
-58 -68 -24 54 74 0
-58 -68 24 -54 74 0
-58 -68 24 54 -74 0
-59 -67 -25 -31 -69 0
-59 -67 -25 31 69 0
-59 -67 25 -31 69 0
-59 -67 25 31 -69 0
-59 -67 -26 -32 -70 0
-59 -67 -26 32 70 0
-59 -67 26 -32 70 0
-59 -67 26 32 -70 0
-59 -67 -27 -33 -71 0
-59 -67 -27 33 71 0
-59 -67 27 -33 71 0
-59 -67 27 33 -71 0
-59 -67 -28 -34 -72 0
-59 -67 -28 34 72 0
-59 -67 28 -34 72 0
-59 -67 28 34 -72 0
-59 -67 -29 -35 -73 0
-59 -67 -29 35 73 0
-59 -67 29 -35 73 0
-59 -67 29 35 -73 0
-59 -67 -30 -36 -74 0
-59 -67 -30 36 74 0
-59 -67 30 -36 74 0
-59 -67 30 36 -74 0
-59 -68 -25 -49 -69 0
-59 -68 -25 49 69 0
-59 -68 25 -49 69 0
-59 -68 25 49 -69 0
-59 -68 -26 -50 -70 0
-59 -68 -26 50 70 0
-59 -68 26 -50 70 0
-59 -68 26 50 -70 0
-59 -68 -27 -51 -71 0
-59 -68 -27 51 71 0
-59 -68 27 -51 71 0
-59 -68 27 51 -71 0
-59 -68 -28 -52 -72 0
-59 -68 -28 52 72 0
-59 -68 28 -52 72 0
-59 -68 28 52 -72 0
-59 -68 -29 -53 -73 0
-59 -68 -29 53 73 0
-59 -68 29 -53 73 0
-59 -68 29 53 -73 0
-59 -68 -30 -54 -74 0
-59 -68 -30 54 74 0
-59 -68 30 -54 74 0
-59 -68 30 54 -74 0
-60 -68 -31 -49 -69 0
-60 -68 -31 49 69 0
-60 -68 31 -49 69 0
-60 -68 31 49 -69 0
-60 -68 -32 -50 -70 0
-60 -68 -32 50 70 0
-60 -68 32 -50 70 0
-60 -68 32 50 -70 0
-60 -68 -33 -51 -71 0
-60 -68 -33 51 71 0
-60 -68 33 -51 71 0
-60 -68 33 51 -71 0
-60 -68 -34 -52 -72 0
-60 -68 -34 52 72 0
-60 -68 34 -52 72 0
-60 -68 34 52 -72 0
-60 -68 -35 -53 -73 0
-60 -68 -35 53 73 0
-60 -68 35 -53 73 0
-60 -68 35 53 -73 0
-60 -68 -36 -54 -74 0
-60 -68 -36 54 74 0
-60 -68 36 -54 74 0
-60 -68 36 54 -74 0
69 70 71 72 73 74 0
-75 49 1 0
-75 -49 -1 0
75 -49 1 0
75 49 -1 0
-76 50 2 0
-76 -50 -2 0
76 -50 2 0
76 50 -2 0
-77 51 3 0
-77 -51 -3 0
77 -51 3 0
77 51 -3 0
-78 52 4 0
-78 -52 -4 0
78 -52 4 0
78 52 -4 0
-79 53 5 0
-79 -53 -5 0
79 -53 5 0
79 53 -5 0
-80 54 6 0
-80 -54 -6 0
80 -54 6 0
80 54 -6 0
75 76 77 78 79 80 0
-81 49 7 0
-81 -49 -7 0
81 -49 7 0
81 49 -7 0
-82 50 8 0
-82 -50 -8 0
82 -50 8 0
82 50 -8 0
-83 51 9 0
-83 -51 -9 0
83 -51 9 0
83 51 -9 0
-84 52 10 0
-84 -52 -10 0
84 -52 10 0
84 52 -10 0
-85 53 11 0
-85 -53 -11 0
85 -53 11 0
85 53 -11 0
-86 54 12 0
-86 -54 -12 0
86 -54 12 0
86 54 -12 0
81 82 83 84 85 86 0
-87 49 13 0
-87 -49 -13 0
87 -49 13 0
87 49 -13 0
-88 50 14 0
-88 -50 -14 0
88 -50 14 0
88 50 -14 0
-89 51 15 0
-89 -51 -15 0
89 -51 15 0
89 51 -15 0
-90 52 16 0
-90 -52 -16 0
90 -52 16 0
90 52 -16 0
-91 53 17 0
-91 -53 -17 0
91 -53 17 0
91 53 -17 0
-92 54 18 0
-92 -54 -18 0
92 -54 18 0
92 54 -18 0
87 88 89 90 91 92 0
-93 49 19 0
-93 -49 -19 0
93 -49 19 0
93 49 -19 0
-94 50 20 0
-94 -50 -20 0
94 -50 20 0
94 50 -20 0
-95 51 21 0
-95 -51 -21 0
95 -51 21 0
95 51 -21 0
-96 52 22 0
-96 -52 -22 0
96 -52 22 0
96 52 -22 0
-97 53 23 0
-97 -53 -23 0
97 -53 23 0
97 53 -23 0
-98 54 24 0
-98 -54 -24 0
98 -54 24 0
98 54 -24 0
93 94 95 96 97 98 0
-99 49 25 0
-99 -49 -25 0
99 -49 25 0
99 49 -25 0
-100 50 26 0
-100 -50 -26 0
100 -50 26 0
100 50 -26 0
-101 51 27 0
-101 -51 -27 0
101 -51 27 0
101 51 -27 0
-102 52 28 0
-102 -52 -28 0
102 -52 28 0
102 52 -28 0
-103 53 29 0
-103 -53 -29 0
103 -53 29 0
103 53 -29 0
-104 54 30 0
-104 -54 -30 0
104 -54 30 0
104 54 -30 0
99 100 101 102 103 104 0
-105 49 31 0
-105 -49 -31 0
105 -49 31 0
105 49 -31 0
-106 50 32 0
-106 -50 -32 0
106 -50 32 0
106 50 -32 0
-107 51 33 0
-107 -51 -33 0
107 -51 33 0
107 51 -33 0
-108 52 34 0
-108 -52 -34 0
108 -52 34 0
108 52 -34 0
-109 53 35 0
-109 -53 -35 0
109 -53 35 0
109 53 -35 0
-110 54 36 0
-110 -54 -36 0
110 -54 36 0
110 54 -36 0
105 106 107 108 109 110 0
-111 69 1 0
-111 -69 -1 0
111 -69 1 0
111 69 -1 0
-112 70 2 0
-112 -70 -2 0
112 -70 2 0
112 70 -2 0
-113 71 3 0
-113 -71 -3 0
113 -71 3 0
113 71 -3 0
-114 72 4 0
-114 -72 -4 0
114 -72 4 0
114 72 -4 0
-115 73 5 0
-115 -73 -5 0
115 -73 5 0
115 73 -5 0
-116 74 6 0
-116 -74 -6 0
116 -74 6 0
116 74 -6 0
111 112 113 114 115 116 0
-117 69 7 0
-117 -69 -7 0
117 -69 7 0
117 69 -7 0
-118 70 8 0
-118 -70 -8 0
118 -70 8 0
118 70 -8 0
-119 71 9 0
-119 -71 -9 0
119 -71 9 0
119 71 -9 0
-120 72 10 0
-120 -72 -10 0
120 -72 10 0
120 72 -10 0
-121 73 11 0
-121 -73 -11 0
121 -73 11 0
121 73 -11 0
-122 74 12 0
-122 -74 -12 0
122 -74 12 0
122 74 -12 0
117 118 119 120 121 122 0
-123 69 13 0
-123 -69 -13 0
123 -69 13 0
123 69 -13 0
-124 70 14 0
-124 -70 -14 0
124 -70 14 0
124 70 -14 0
-125 71 15 0
-125 -71 -15 0
125 -71 15 0
125 71 -15 0
-126 72 16 0
-126 -72 -16 0
126 -72 16 0
126 72 -16 0
-127 73 17 0
-127 -73 -17 0
127 -73 17 0
127 73 -17 0
-128 74 18 0
-128 -74 -18 0
128 -74 18 0
128 74 -18 0
123 124 125 126 127 128 0
-129 69 19 0
-129 -69 -19 0
129 -69 19 0
129 69 -19 0
-130 70 20 0
-130 -70 -20 0
130 -70 20 0
130 70 -20 0
-131 71 21 0
-131 -71 -21 0
131 -71 21 0
131 71 -21 0
-132 72 22 0
-132 -72 -22 0
132 -72 22 0
132 72 -22 0
-133 73 23 0
-133 -73 -23 0
133 -73 23 0
133 73 -23 0
-134 74 24 0
-134 -74 -24 0
134 -74 24 0
134 74 -24 0
129 130 131 132 133 134 0
-135 69 25 0
-135 -69 -25 0
135 -69 25 0
135 69 -25 0
-136 70 26 0
-136 -70 -26 0
136 -70 26 0
136 70 -26 0
-137 71 27 0
-137 -71 -27 0
137 -71 27 0
137 71 -27 0
-138 72 28 0
-138 -72 -28 0
138 -72 28 0
138 72 -28 0
-139 73 29 0
-139 -73 -29 0
139 -73 29 0
139 73 -29 0
-140 74 30 0
-140 -74 -30 0
140 -74 30 0
140 74 -30 0
135 136 137 138 139 140 0
-141 69 31 0
-141 -69 -31 0
141 -69 31 0
141 69 -31 0
-142 70 32 0
-142 -70 -32 0
142 -70 32 0
142 70 -32 0
-143 71 33 0
-143 -71 -33 0
143 -71 33 0
143 71 -33 0
-144 72 34 0
-144 -72 -34 0
144 -72 34 0
144 72 -34 0
-145 73 35 0
-145 -73 -35 0
145 -73 35 0
145 73 -35 0
-146 74 36 0
-146 -74 -36 0
146 -74 36 0
146 74 -36 0
141 142 143 144 145 146 0
-147 69 49 0
-147 -69 -49 0
147 -69 49 0
147 69 -49 0
-148 70 50 0
-148 -70 -50 0
148 -70 50 0
148 70 -50 0
-149 71 51 0
-149 -71 -51 0
149 -71 51 0
149 71 -51 0
-150 72 52 0
-150 -72 -52 0
150 -72 52 0
150 72 -52 0
-151 73 53 0
-151 -73 -53 0
151 -73 53 0
151 73 -53 0
-152 74 54 0
-152 -74 -54 0
152 -74 54 0
152 74 -54 0
147 148 149 150 151 152 0
153 154 155 156 157 158 159 160 0
-153 1 0
-153 -2 0
-153 -3 0
-153 -4 0
-153 -5 0
-153 -6 0
-154 7 0
-154 -8 0
-154 -9 0
-154 -10 0
-154 -11 0
-154 -12 0
-155 13 0
-155 -14 0
-155 -15 0
-155 -16 0
-155 -17 0
-155 -18 0
-156 19 0
-156 -20 0
-156 -21 0
-156 -22 0
-156 -23 0
-156 -24 0
-157 25 0
-157 -26 0
-157 -27 0
-157 -28 0
-157 -29 0
-157 -30 0
-158 31 0
-158 -32 0
-158 -33 0
-158 -34 0
-158 -35 0
-158 -36 0
-159 49 0
-159 -50 0
-159 -51 0
-159 -52 0
-159 -53 0
-159 -54 0
-160 69 0
-160 -70 0
-160 -71 0
-160 -72 0
-160 -73 0
-160 -74 0
161 162 163 164 165 166 167 168 0
-161 -1 0
-161 -2 0
-161 -3 0
-161 -4 0
-161 5 0
-161 -6 0
-162 -7 0
-162 -8 0
-162 -9 0
-162 -10 0
-162 11 0
-162 -12 0
-163 -13 0
-163 -14 0
-163 -15 0
-163 -16 0
-163 17 0
-163 -18 0
-164 -19 0
-164 -20 0
-164 -21 0
-164 -22 0
-164 23 0
-164 -24 0
-165 -25 0
-165 -26 0
-165 -27 0
-165 -28 0
-165 29 0
-165 -30 0
-166 -31 0
-166 -32 0
-166 -33 0
-166 -34 0
-166 35 0
-166 -36 0
-167 -49 0
-167 -50 0
-167 -51 0
-167 -52 0
-167 53 0
-167 -54 0
-168 -69 0
-168 -70 0
-168 -71 0
-168 -72 0
-168 73 0
-168 -74 0
169 170 171 172 173 174 175 176 0
-169 -1 0
-169 2 0
-169 3 0
-169 -4 0
-169 5 0
-169 -6 0
-170 -7 0
-170 8 0
-170 9 0
-170 -10 0
-170 11 0
-170 -12 0
-171 -13 0
-171 14 0
-171 15 0
-171 -16 0
-171 17 0
-171 -18 0
-172 -19 0
-172 20 0
-172 21 0
-172 -22 0
-172 23 0
-172 -24 0
-173 -25 0
-173 26 0
-173 27 0
-173 -28 0
-173 29 0
-173 -30 0
-174 -31 0
-174 32 0
-174 33 0
-174 -34 0
-174 35 0
-174 -36 0
-175 -49 0
-175 50 0
-175 51 0
-175 -52 0
-175 53 0
-175 -54 0
-176 -69 0
-176 70 0
-176 71 0
-176 -72 0
-176 73 0
-176 -74 0
177 178 179 180 181 182 183 184 0
-177 1 0
-177 -2 0
-177 -3 0
-177 -4 0
-177 -5 0
-177 6 0
-178 7 0
-178 -8 0
-178 -9 0
-178 -10 0
-178 -11 0
-178 12 0
-179 13 0
-179 -14 0
-179 -15 0
-179 -16 0
-179 -17 0
-179 18 0
-180 19 0
-180 -20 0
-180 -21 0
-180 -22 0
-180 -23 0
-180 24 0
-181 25 0
-181 -26 0
-181 -27 0
-181 -28 0
-181 -29 0
-181 30 0
-182 31 0
-182 -32 0
-182 -33 0
-182 -34 0
-182 -35 0
-182 36 0
-183 49 0
-183 -50 0
-183 -51 0
-183 -52 0
-183 -53 0
-183 54 0
-184 69 0
-184 -70 0
-184 -71 0
-184 -72 0
-184 -73 0
-184 74 0
